# vtk DataFile Version 3.0
# Dislocation lines converted from MoDELib file
ASCII
DATASET UNSTRUCTURED_GRID
POINTS 672 double
3.957589980500001e+02 1.231080584900000e+02 2.334159345500000e+02
3.963170070900000e+02 1.230503533100000e+02 2.289003069400000e+02
3.967494536400000e+02 1.230612260200000e+02 2.229070083200000e+02
3.974085824400000e+02 1.229203650000000e+02 2.178132647100000e+02
3.980139291700000e+02 1.228552019500000e+02 2.128577669300000e+02
3.975852481300000e+02 1.228846936900000e+02 2.080420789600000e+02
3.972999126000000e+02 1.229379421200000e+02 2.033796065300000e+02
3.985891977700000e+02 1.230979625900000e+02 1.984386155300000e+02
3.994172657000000e+02 1.230957971600000e+02 1.934887630700000e+02
3.986198900900001e+02 1.229880146400000e+02 1.890636649400000e+02
3.974667950300001e+02 1.230027744600000e+02 1.847311072900000e+02
3.968424202800000e+02 1.231514007400000e+02 1.800242585300000e+02
3.961702774300000e+02 1.231824128500000e+02 1.752587808400000e+02
3.950672543100000e+02 1.230048102600000e+02 1.707917705300000e+02
3.935896529200000e+02 1.229364903200000e+02 1.665103071800000e+02
3.911772335200000e+02 1.230033061800000e+02 1.622403458100000e+02
3.883949258800000e+02 1.230500282800000e+02 1.578324165600000e+02
3.863373024100001e+02 1.230730010800000e+02 1.534286684300000e+02
3.849363231600000e+02 1.231326500200000e+02 1.490369881700000e+02
3.831454506400000e+02 1.231392502500000e+02 1.445773420700000e+02
3.805550129500000e+02 1.231341536100000e+02 1.404866240300000e+02
3.776000381400000e+02 1.231897315600000e+02 1.367234792300000e+02
3.745588135600000e+02 1.232293235000000e+02 1.327358879100000e+02
3.718783374000000e+02 1.231583984400000e+02 1.287469789400000e+02
3.695223999900000e+02 1.230826959800000e+02 1.249087162000000e+02
3.663415483900000e+02 1.232251647600000e+02 1.214454089500000e+02
3.617910184300000e+02 1.234341886400000e+02 1.186597519100000e+02
3.568360413400000e+02 1.234967768900000e+02 1.161480122400000e+02
3.524258332700001e+02 1.233981498500000e+02 1.136540226400000e+02
3.489275003300000e+02 1.233354631300000e+02 1.106600544000000e+02
3.458833085100001e+02 1.232793167700000e+02 1.071556961200000e+02
3.423911458000001e+02 1.232694781200000e+02 1.040296536900000e+02
3.381420819500000e+02 1.234006305300000e+02 1.014189036800000e+02
3.333556299600000e+02 1.233924862000000e+02 9.913268463000000e+01
3.285821003300000e+02 1.233709576500000e+02 9.709386908999998e+01
3.241923512800000e+02 1.234360533000000e+02 9.497523357999999e+01
3.197072323200000e+02 1.234948699400000e+02 9.306332275000000e+01
3.149306330900000e+02 1.236292372800000e+02 9.110178687000001e+01
3.100639389300000e+02 1.236264162300000e+02 8.893736945999999e+01
3.051727506500001e+02 1.235606375900000e+02 8.705098913000002e+01
3.001900379600000e+02 1.237106200900000e+02 8.553555473999999e+01
2.945887945300000e+02 1.239236001500000e+02 8.502305178000000e+01
2.890793832200000e+02 1.239823411800000e+02 8.446899584000002e+01
2.839808920700000e+02 1.239205530600000e+02 8.298525130000000e+01
2.783515543200000e+02 1.237919354600000e+02 8.171958169000001e+01
2.723977902200000e+02 1.238111455900000e+02 8.076541580000000e+01
2.662750594400000e+02 1.241205837500000e+02 8.015386223000000e+01
2.600618167700000e+02 1.239787234800000e+02 7.972437006000001e+01
2.539853410200000e+02 1.234794703700000e+02 7.908667589000000e+01
2.478674838300000e+02 1.235932039400000e+02 7.864339089000001e+01
2.419829959600000e+02 1.239021517800000e+02 7.865643905000000e+01
2.361163899300000e+02 1.239456105100000e+02 7.915463176000000e+01
2.298426205800000e+02 1.239309015700000e+02 7.984599639000001e+01
2.233767189700000e+02 1.238387443400000e+02 8.071453714000000e+01
2.171162244800000e+02 1.239012665200000e+02 8.172712534000001e+01
2.113054222800000e+02 1.240203908100000e+02 8.319877763000000e+01
2.054693363100000e+02 1.239968505100000e+02 8.516971819000000e+01
1.995245074100000e+02 1.240124684300000e+02 8.748342584000000e+01
1.939580871700000e+02 1.239997409200000e+02 9.025355934000000e+01
1.882921137400000e+02 1.238723679200000e+02 9.253555040000001e+01
1.821873603300000e+02 1.237761653300000e+02 9.443807753999999e+01
1.758067217900000e+02 1.237730290200000e+02 9.633550458000002e+01
1.694009360500000e+02 1.238085389500000e+02 9.810459782000000e+01
1.638376743600000e+02 1.239358946000000e+02 1.005490405800000e+02
1.591403112400000e+02 1.240289210100000e+02 1.039299183900000e+02
1.545864203400000e+02 1.240727553000000e+02 1.073329630500000e+02
1.501015804600000e+02 1.241319037600000e+02 1.098739132500000e+02
1.456629960800000e+02 1.241077284300000e+02 1.123654827600000e+02
1.414724149500000e+02 1.241871194600000e+02 1.159275005000000e+02
1.375474993300000e+02 1.242838218100000e+02 1.207084514900000e+02
1.335203009300000e+02 1.241650236800000e+02 1.259865196400000e+02
1.296389745900000e+02 1.240280447300000e+02 1.305448212100000e+02
1.258836520400000e+02 1.239405652200000e+02 1.352917128700000e+02
1.217776895300000e+02 1.239726289200000e+02 1.414588992000000e+02
1.180564888800000e+02 1.240759260900000e+02 1.476717574800000e+02
1.156453695200000e+02 1.241078674600000e+02 1.528849231900000e+02
1.133439834000000e+02 1.241349002500000e+02 1.579662085800000e+02
1.110171150200000e+02 1.240753701200000e+02 1.631343352700000e+02
1.100274999200000e+02 1.240798019200000e+02 1.683042100100000e+02
1.091302073400000e+02 1.241643821800000e+02 1.734676614500000e+02
1.073943590000000e+02 1.241778268300000e+02 1.783775901000000e+02
1.056040201500000e+02 1.241726332800000e+02 1.839642249700000e+02
1.039508115500000e+02 1.241067259200000e+02 1.900287164100000e+02
1.030255510800000e+02 1.241027454900000e+02 1.954723324800000e+02
1.028102703300000e+02 1.241474624200000e+02 2.004595649400000e+02
1.022981130600000e+02 1.241010000900000e+02 2.051599216800000e+02
1.019367029900000e+02 1.240835705700000e+02 2.096351232200000e+02
1.024482253100000e+02 1.241623959600000e+02 2.139258100500000e+02
1.027699345700000e+02 1.241355753800000e+02 2.182806771500000e+02
1.023712854400000e+02 1.240075803000000e+02 2.229566667300000e+02
1.025256074000000e+02 1.240295268800000e+02 2.274635099400000e+02
1.038423103900000e+02 1.241538066900000e+02 2.316186224100000e+02
1.051720788600000e+02 1.241732714200000e+02 2.360058958500000e+02
1.051670372500000e+02 1.240900065300000e+02 2.411549048600000e+02
1.048094325500000e+02 1.241366164200000e+02 2.466746293100001e+02
1.060393926600000e+02 1.241495498000000e+02 2.514146954200000e+02
1.075213615700000e+02 1.240889236400000e+02 2.555709599500000e+02
1.084902917900000e+02 1.240663317100000e+02 2.602045636200000e+02
1.101899206500000e+02 1.239974206900000e+02 2.648535975400000e+02
1.121118471100000e+02 1.239671549100000e+02 2.690512706500000e+02
1.141495787000000e+02 1.239380840900000e+02 2.731619013800000e+02
1.167877813900000e+02 1.240637753500000e+02 2.772418325300000e+02
1.196750835500000e+02 1.241681799300000e+02 2.811885816500000e+02
1.225151569800000e+02 1.240144401200000e+02 2.849594531100000e+02
1.250956325000000e+02 1.238796327200000e+02 2.892202769900001e+02
1.271413330600000e+02 1.238130129200000e+02 2.939798318100000e+02
1.297623645000000e+02 1.237187256200000e+02 2.974725176400000e+02
1.335842456900000e+02 1.236881299500000e+02 3.000801437900001e+02
1.371247867900000e+02 1.236967630800000e+02 3.035311632200001e+02
1.402178786600000e+02 1.236967376600000e+02 3.072088049200000e+02
1.435117061500000e+02 1.237662300800000e+02 3.103631821400000e+02
1.465627006900000e+02 1.237763171300000e+02 3.132910001700001e+02
1.499184294600000e+02 1.236794914400000e+02 3.161306132700000e+02
1.536816736600000e+02 1.236765574700000e+02 3.189447063000000e+02
1.567996426600000e+02 1.236932637700000e+02 3.217966700500000e+02
1.606599636500000e+02 1.235768315100000e+02 3.240001366900000e+02
1.659034654000000e+02 1.235032525400000e+02 3.259298965700000e+02
1.711401977900000e+02 1.235157382200000e+02 3.285024232600001e+02
1.760930142500000e+02 1.235956665500000e+02 3.311492346800001e+02
1.809635272100000e+02 1.237106305100000e+02 3.333775687800000e+02
1.859284273800000e+02 1.236504848000000e+02 3.354636646700000e+02
1.906551678000000e+02 1.234544081900000e+02 3.376403414100000e+02
1.948090834000000e+02 1.233685814000000e+02 3.395928067100000e+02
1.990901742600000e+02 1.233374619000000e+02 3.413044500800000e+02
2.043740049000000e+02 1.232838994600000e+02 3.426297628000000e+02
2.101561848100000e+02 1.232970239600000e+02 3.437119686100000e+02
2.154765682700000e+02 1.232871665000000e+02 3.448570416900000e+02
2.204756268300000e+02 1.232695777600000e+02 3.455547454700000e+02
2.255767103000000e+02 1.232259470700000e+02 3.462636923300001e+02
2.308962045500000e+02 1.230927715900000e+02 3.473318352600000e+02
2.365732579000000e+02 1.232345944600000e+02 3.481781911600000e+02
2.422432929000000e+02 1.233694917000000e+02 3.489771295200000e+02
2.477586725600000e+02 1.230940474500000e+02 3.497406035200000e+02
2.534570788700000e+02 1.229147321400000e+02 3.500014590300000e+02
2.592169145800000e+02 1.229055371100000e+02 3.500305623700000e+02
2.647999353200000e+02 1.231015996400000e+02 3.497591461500000e+02
2.699554891100000e+02 1.233185484600000e+02 3.488402431000000e+02
2.754372645800000e+02 1.231371875300000e+02 3.480056022500000e+02
2.816250894200000e+02 1.229366432300000e+02 3.471849452900000e+02
2.877741266100000e+02 1.228548595300000e+02 3.460570859000001e+02
2.933069103300000e+02 1.229190167400000e+02 3.445388689400000e+02
2.984471618700000e+02 1.231778313800000e+02 3.420358984000001e+02
3.040517209200000e+02 1.231726353500000e+02 3.397330271400000e+02
3.098431239500000e+02 1.230717712000000e+02 3.381694803500001e+02
3.156865561900000e+02 1.231538001900000e+02 3.360008002499999e+02
3.213880817400000e+02 1.230138624900000e+02 3.333806234300000e+02
3.267925160600000e+02 1.229181199400000e+02 3.303627428700000e+02
3.325554767100000e+02 1.229843726600000e+02 3.267132664300000e+02
3.383531868000000e+02 1.230007748000000e+02 3.233007494600000e+02
3.437754119300001e+02 1.231636873100000e+02 3.198739606900000e+02
3.491049752100000e+02 1.232770426500000e+02 3.163463688800000e+02
3.545299509900000e+02 1.232223417000000e+02 3.128960197300000e+02
3.596958226300000e+02 1.230192896500000e+02 3.089262988500000e+02
3.643036686100000e+02 1.229031895500000e+02 3.044306852500000e+02
3.682843797300000e+02 1.229044756500000e+02 2.995420419700000e+02
3.712732000300000e+02 1.227796709700000e+02 2.941265296000000e+02
3.743344323500000e+02 1.227620661500000e+02 2.891838735000000e+02
3.785583852200000e+02 1.228579749400000e+02 2.853543688800000e+02
3.818443084500001e+02 1.229415756000000e+02 2.809751739600000e+02
3.826686540900000e+02 1.229517701700000e+02 2.759997664800000e+02
3.831774821300000e+02 1.229442729000000e+02 2.709955467100000e+02
3.852514545700000e+02 1.229892271300000e+02 2.656765583200000e+02
3.878086507100001e+02 1.229336089400000e+02 2.607293651800000e+02
3.890146954500000e+02 1.227993469700000e+02 2.559479046400000e+02
3.902169478000000e+02 1.227336691900000e+02 2.512930017500000e+02
3.926702735900000e+02 1.227805906700000e+02 2.468099171900000e+02
3.938363119600000e+02 1.228855735300000e+02 2.422604917400000e+02
3.940849236200000e+02 1.230067892000000e+02 2.386661984600000e+02
3.962796275720907e+02 1.230542188240950e+02 2.292027966328549e+02
3.960380025700000e+02 1.230792059000000e+02 2.311581207450000e+02
3.957963775679094e+02 1.231041929759050e+02 2.331134448571452e+02
3.941970653428971e+02 1.230135729561184e+02 2.383144974663163e+02
3.949219608349999e+02 1.230574238450000e+02 2.360410665050000e+02
3.956468563271030e+02 1.231012747338816e+02 2.337676355436837e+02
3.967204852140395e+02 1.230604976865340e+02 2.233084832013069e+02
3.965332303650001e+02 1.230557896650000e+02 2.259036576300000e+02
3.963459755159605e+02 1.230510816434660e+02 2.284988320586932e+02
3.973644291825830e+02 1.229298008991385e+02 2.181544808316877e+02
3.970790180400000e+02 1.229907955100000e+02 2.203601365150000e+02
3.967936068974170e+02 1.230517901208615e+02 2.225657921983124e+02
3.979733786281388e+02 1.228595670466560e+02 2.131897223370613e+02
3.977112558050000e+02 1.228877834750000e+02 2.153355158200000e+02
3.974491329818611e+02 1.229159999033441e+02 2.174813093029388e+02
3.976139643146197e+02 1.228827181180209e+02 2.083646688856405e+02
3.977995886499999e+02 1.228699478200000e+02 2.104499229450000e+02
3.979852129853803e+02 1.228571775219791e+02 2.125351770043596e+02
3.973190264562089e+02 1.229343751515458e+02 2.036919329605877e+02
3.974425803650000e+02 1.229113179050000e+02 2.057108427450000e+02
3.975661342737912e+02 1.228882606584542e+02 2.077297525294123e+02
3.985028320399713e+02 1.230872432510727e+02 1.987695991670648e+02
3.979445551850000e+02 1.230179523550000e+02 2.009091110300000e+02
3.973862783300288e+02 1.229486614589273e+02 2.030486228929352e+02
3.993617956667196e+02 1.230959422163049e+02 1.938203403123276e+02
3.990032317349999e+02 1.230968798750000e+02 1.959636893000000e+02
3.986446678032805e+02 1.230978175336951e+02 1.981070382876724e+02
3.986733041276910e+02 1.229952346997980e+02 1.893600903075905e+02
3.990185778950000e+02 1.230419059000000e+02 1.912762140050000e+02
3.993638516623091e+02 1.230885771002020e+02 1.931923377024095e+02
3.975440377525309e+02 1.230017857395377e+02 1.850213336208697e+02
3.980433425600001e+02 1.229953945500000e+02 1.868973861150000e+02
3.985426473674692e+02 1.229890033604624e+02 1.887734386091303e+02
3.968842454575093e+02 1.231414446670750e+02 1.803395576110344e+02
3.971546076550001e+02 1.230770876000000e+02 1.823776829100001e+02
3.974249698524908e+02 1.230127305329250e+02 1.844158082089657e+02
3.962153024634640e+02 1.231803354325425e+02 1.755780073146460e+02
3.965063488550000e+02 1.231669067950000e+02 1.776415196850000e+02
3.967973952465360e+02 1.231534781574575e+02 1.797050320553540e+02
3.951411428485592e+02 1.230167073776410e+02 1.710910034812865e+02
3.956187658700000e+02 1.230936115550000e+02 1.730252756850000e+02
3.960963888914408e+02 1.231705157323590e+02 1.749595478887134e+02
3.936886334447964e+02 1.229410668881875e+02 1.667971108417640e+02
3.943284536150001e+02 1.229706502900000e+02 1.686510388550000e+02
3.949682737852037e+02 1.230002336918125e+02 1.705049668682360e+02
3.913388349775087e+02 1.229988303660678e+02 1.625263789852009e+02
3.923834432200000e+02 1.229698982500000e+02 1.643753264950000e+02
3.934280514624912e+02 1.229409661339322e+02 1.662242740047991e+02
3.885813051513082e+02 1.230468984927591e+02 1.581276918307078e+02
3.897860797000000e+02 1.230266672300000e+02 1.600363811850000e+02
3.909908542486917e+02 1.230064359672409e+02 1.619450705392922e+02
3.864751370467785e+02 1.230714621941980e+02 1.537236636187759e+02
3.873661141450000e+02 1.230615146800000e+02 1.556305424950000e+02
3.882570912432215e+02 1.230515671658020e+02 1.575374213712241e+02
3.850301709746626e+02 1.231286542986744e+02 1.493311749647707e+02
3.856368127850000e+02 1.231028255500000e+02 1.512328283000000e+02
3.862434545953375e+02 1.230769968013256e+02 1.531344816352293e+02
3.832654163513703e+02 1.231388081184254e+02 1.448760817127559e+02
3.840408869000000e+02 1.231359501350000e+02 1.468071651200000e+02
3.848163574486297e+02 1.231330921515746e+02 1.487382485272441e+02
3.807285393717696e+02 1.231344950201430e+02 1.407606501788204e+02
3.818502317950000e+02 1.231367019300000e+02 1.425319830500000e+02
3.829719242182304e+02 1.231389088398570e+02 1.443033159211797e+02
3.777979839184985e+02 1.231860085432951e+02 1.369755621325404e+02
3.790775255450000e+02 1.231619425850000e+02 1.386050516300000e+02
3.803570671715016e+02 1.231378766267049e+02 1.402345411274597e+02
3.747625369775531e+02 1.232266713429126e+02 1.330030058784848e+02
3.760794258500000e+02 1.232095275300000e+02 1.347296835700000e+02
3.773963147224469e+02 1.231923837170875e+02 1.364563612615152e+02
3.720578952556007e+02 1.231631495181375e+02 1.290141851742982e+02
3.732185754800000e+02 1.231938609700000e+02 1.307414334250000e+02
3.743792557043992e+02 1.232245724218625e+02 1.324686816757018e+02
3.696802178716069e+02 1.230877670832555e+02 1.251658310503804e+02
3.707003686950001e+02 1.231205472100000e+02 1.268278475700000e+02
3.717205195183931e+02 1.231533273367445e+02 1.284898640896197e+02
3.665546250443658e+02 1.232156211613631e+02 1.216774065451946e+02
3.679319741900001e+02 1.231539303700000e+02 1.231770625750000e+02
3.693093233356342e+02 1.230922395786369e+02 1.246767186048054e+02
3.620958461369790e+02 1.234201866950388e+02 1.188463555485645e+02
3.640662834100000e+02 1.233296767000000e+02 1.200525804300000e+02
3.660367206830211e+02 1.232391667049612e+02 1.212588053114355e+02
3.571679618674449e+02 1.234925842722392e+02 1.163162668940434e+02
3.593135298850000e+02 1.234654827650000e+02 1.174038820750000e+02
3.614590979025551e+02 1.234383812577608e+02 1.184914972559566e+02
3.527212611927025e+02 1.234047566089300e+02 1.138210882648129e+02
3.546309373050000e+02 1.234474633700000e+02 1.149010174400000e+02
3.565406134172975e+02 1.234901701310700e+02 1.159809466151871e+02
3.491618442015320e+02 1.233396623440000e+02 1.108606122430181e+02
3.506766668000000e+02 1.233668064900000e+02 1.121570385200000e+02
3.521914893984680e+02 1.233939506360000e+02 1.134534647969819e+02
3.460872306949437e+02 1.232830778629550e+02 1.073904436127788e+02
3.474054044200000e+02 1.233073899500000e+02 1.089078752600000e+02
3.487235781450564e+02 1.233317020370450e+02 1.104253069072212e+02
3.426250763444957e+02 1.232701371845805e+02 1.042390588261560e+02
3.441372271550001e+02 1.232743974450000e+02 1.055926749050000e+02
3.456493779655045e+02 1.232786577054195e+02 1.069462909838440e+02
3.384267152567990e+02 1.233918449844138e+02 1.015937907692047e+02
3.402666138750001e+02 1.233350543250000e+02 1.027242786850000e+02
3.421065124932011e+02 1.232782636655862e+02 1.038547666007953e+02
3.336762614463327e+02 1.233930317666616e+02 9.928583226704203e+01
3.357488559550000e+02 1.233965583650000e+02 1.002757941550000e+02
3.378214504636673e+02 1.234000849633384e+02 1.012657560429580e+02
3.289018661823511e+02 1.233723997893967e+02 9.723044383436475e+01
3.309688651450000e+02 1.233817219250000e+02 9.811327686000001e+01
3.330358641076489e+02 1.233910440606033e+02 9.899610988563526e+01
3.244864087082308e+02 1.234316927182879e+02 9.511715524849008e+01
3.263872258050001e+02 1.234035054750000e+02 9.603455133499999e+01
3.282880429017694e+02 1.233753182317121e+02 9.695194742150991e+01
3.200076783208223e+02 1.234909299722026e+02 9.319139649072470e+01
3.219497918000001e+02 1.234654616200000e+02 9.401927816499999e+01
3.238919052791776e+02 1.234399932677974e+02 9.484715983927531e+01
3.152506045665614e+02 1.236202363749395e+02 9.123318485874266e+01
3.173189327050000e+02 1.235620536100000e+02 9.208255481000002e+01
3.193872608434386e+02 1.235038708450605e+02 9.293192476125733e+01
3.103899456224952e+02 1.236266052045173e+02 8.908235793427336e+01
3.124972860100000e+02 1.236278267550000e+02 9.001957816500001e+01
3.146046263975047e+02 1.236290483054827e+02 9.095679839572666e+01
3.055003981374137e+02 1.235650439233668e+02 8.717735265151038e+01
3.076183447900000e+02 1.235935269100000e+02 8.799417929500001e+01
3.097362914425863e+02 1.236220098966332e+02 8.881100593848963e+01
3.005238164203505e+02 1.237005731675615e+02 8.563706959524571e+01
3.026813943050000e+02 1.236356288400000e+02 8.629327193500002e+01
3.048389721896496e+02 1.235706845124385e+02 8.694947427475431e+01
2.949640066934197e+02 1.239093331912298e+02 8.505738296856265e+01
2.973894162449999e+02 1.238171101200000e+02 8.527930326000001e+01
2.998148257965804e+02 1.237248870487702e+02 8.550122355143738e+01
2.894484437978214e+02 1.239784062771122e+02 8.450611055042120e+01
2.918340888750000e+02 1.239529706650000e+02 8.474602381000001e+01
2.942197339521786e+02 1.239275350528878e+02 8.498593706957884e+01
2.843224262165649e+02 1.239246920792140e+02 8.308464333781677e+01
2.865301376450000e+02 1.239514471200000e+02 8.372712357000002e+01
2.887378490734351e+02 1.239782021607861e+02 8.436960380218325e+01
2.787286484460087e+02 1.238005512055131e+02 8.180436547747102e+01
2.811662231950000e+02 1.238562442600000e+02 8.235241649500000e+01
2.836037979439914e+02 1.239119373144869e+02 8.290046751252898e+01
2.727966167906301e+02 1.238098587552950e+02 8.082933279491772e+01
2.753746722700000e+02 1.238015405250000e+02 8.124249874500001e+01
2.779527277493699e+02 1.237932222947050e+02 8.165566469508229e+01
2.666852046319935e+02 1.240998553237302e+02 8.019482855130246e+01
2.693364248300000e+02 1.239658646700000e+02 8.045963901499999e+01
2.719876450280065e+02 1.238318740162698e+02 8.072444947869754e+01
2.604780251089513e+02 1.239882263161961e+02 7.975314058002675e+01
2.631684381050000e+02 1.240496536150000e+02 7.993911614500000e+01
2.658588511010487e+02 1.241110809138039e+02 8.012509170997326e+01
2.543923877125100e+02 1.235129139869108e+02 7.912939329946737e+01
2.570235788950000e+02 1.237290969250000e+02 7.940552297500000e+01
2.596547700774901e+02 1.239452798630892e+02 7.968165265053264e+01
2.482773025533673e+02 1.235855852354416e+02 7.867308535444171e+01
2.509264124250000e+02 1.235363371550000e+02 7.886503338999999e+01
2.535755222966327e+02 1.234870890745585e+02 7.905698142555829e+01
2.423771819031593e+02 1.238814561989422e+02 7.865556498901633e+01
2.449252398950000e+02 1.237476778600000e+02 7.864991497000000e+01
2.474732978868407e+02 1.236138995210579e+02 7.864426495098368e+01
2.365093780170125e+02 1.239426993270981e+02 7.912125917642011e+01
2.390496929450000e+02 1.239238811450000e+02 7.890553540500001e+01
2.415900078729875e+02 1.239050629629019e+02 7.868981163357989e+01
2.302628834377079e+02 1.239318868821487e+02 7.979968374142902e+01
2.329795052550000e+02 1.239382560400000e+02 7.950031407500001e+01
2.356961270722921e+02 1.239446251978514e+02 7.920094440857099e+01
2.238098522486847e+02 1.238449177038388e+02 8.065635594186101e+01
2.266096697750000e+02 1.238848229550000e+02 8.028026676500002e+01
2.294094873013154e+02 1.239247282061612e+02 7.990417758813901e+01
2.175355980907038e+02 1.238970783280900e+02 8.165929479238618e+01
2.202464717250000e+02 1.238700054300000e+02 8.122083124000002e+01
2.229573453592963e+02 1.238429325319101e+02 8.078236768761383e+01
2.116946722192168e+02 1.240124109956739e+02 8.310019561933875e+01
2.142108233800000e+02 1.239608286650000e+02 8.246295148500000e+01
2.167269745407833e+02 1.239092463343261e+02 8.182570735066123e+01
2.058602799406550e+02 1.239984274110936e+02 8.503769020715457e+01
2.083873792950000e+02 1.240086206600000e+02 8.418424790999998e+01
2.109144786493450e+02 1.240188139089064e+02 8.333080561284542e+01
1.999227354357241e+02 1.240114222277372e+02 8.732843681591518e+01
2.024969218600000e+02 1.240046594700000e+02 8.632657201500000e+01
2.050711082842760e+02 1.239978967122629e+02 8.532470721408481e+01
1.943309666220100e+02 1.240005935015065e+02 9.006799558143713e+01
1.967412972900000e+02 1.240061046750000e+02 8.886849258999997e+01
1.991516279579900e+02 1.240116158484935e+02 8.766898959856285e+01
1.886716619912262e+02 1.238809002931219e+02 9.238268598458451e+01
1.911251004550000e+02 1.239360544200000e+02 9.139455486999999e+01
1.935785389187738e+02 1.239912085468781e+02 9.040642375541552e+01
1.825963012665502e+02 1.237826096815751e+02 9.431063238731466e+01
1.852397370350000e+02 1.238242666250000e+02 9.348681396999999e+01
1.878831728034498e+02 1.238659235684249e+02 9.266299555268533e+01
1.762341435259970e+02 1.237732391129329e+02 9.620840106923377e+01
1.789970410600000e+02 1.237745971750000e+02 9.538679106000001e+01
1.817599385940030e+02 1.237759552370671e+02 9.456518105076624e+01
1.698300423289800e+02 1.238061602357333e+02 9.798609104375167e+01
1.726038289200000e+02 1.237907839850000e+02 9.722005120000000e+01
1.753776155110200e+02 1.237754077342667e+02 9.645401135624834e+01
1.642103422292796e+02 1.239273633891078e+02 1.003852939641285e+02
1.666193052050000e+02 1.238722167750000e+02 9.932681919999999e+01
1.690282681807204e+02 1.238170701608923e+02 9.826834443587154e+01
1.594549749036399e+02 1.240226894221414e+02 1.037034425202756e+02
1.614889928000000e+02 1.239824078050000e+02 1.022394794850000e+02
1.635230106963601e+02 1.239421261878586e+02 1.007755164497244e+02
1.548914731872686e+02 1.240698189593484e+02 1.071050022828865e+02
1.568633657900000e+02 1.240508381550000e+02 1.056314407200000e+02
1.588352583927314e+02 1.240318573506516e+02 1.041578791571135e+02
1.504020077660072e+02 1.241279415644774e+02 1.097037018614756e+02
1.523440004000000e+02 1.241023295300000e+02 1.086034381500000e+02
1.542859930339928e+02 1.240767174955226e+02 1.075031744385244e+02
1.459603248550396e+02 1.241093478700376e+02 1.121985792504774e+02
1.478822882700000e+02 1.241198160950000e+02 1.111196980050000e+02
1.498042516849604e+02 1.241302843199625e+02 1.100408167595226e+02
1.417531306574001e+02 1.241818012694063e+02 1.156888905557854e+02
1.435677055150000e+02 1.241474239450000e+02 1.141464916300000e+02
1.453822803725999e+02 1.241130466205937e+02 1.126040927042146e+02
1.378104188226848e+02 1.242773439808528e+02 1.203881885007942e+02
1.395099571400000e+02 1.242354706350000e+02 1.183179759950000e+02
1.412094954573152e+02 1.241935972891472e+02 1.162477634892058e+02
1.337900720697600e+02 1.241729816457490e+02 1.256329561154028e+02
1.355339001300000e+02 1.242244227450000e+02 1.233474855650000e+02
1.372777281902400e+02 1.242758638442510e+02 1.210620150145972e+02
1.298989741545911e+02 1.240372205797581e+02 1.302394729038652e+02
1.315796377600000e+02 1.240965342050000e+02 1.282656704250000e+02
1.332603013654088e+02 1.241558478302419e+02 1.262918679461348e+02
1.261352109511477e+02 1.239464252360147e+02 1.349737314232862e+02
1.277613133150000e+02 1.239843049750000e+02 1.329182670400000e+02
1.293874156788523e+02 1.240221847139853e+02 1.308628026567138e+02
1.220527368646767e+02 1.239704810593697e+02 1.410457760508260e+02
1.238306707850000e+02 1.239565970700000e+02 1.383753060350000e+02
1.256086047053233e+02 1.239427130806303e+02 1.357048360191739e+02
1.183057620572604e+02 1.240690064916795e+02 1.472555748902963e+02
1.199170892050000e+02 1.240242775050000e+02 1.445653283400000e+02
1.215284163527396e+02 1.239795485183205e+02 1.418750817897037e+02
1.158068838913418e+02 1.241057277939258e+02 1.525357073044990e+02
1.168509292000000e+02 1.240918967750000e+02 1.502783403350000e+02
1.178949745086582e+02 1.240780657560742e+02 1.480209733655010e+02
1.134981470380816e+02 1.241330893964376e+02 1.576258270008094e+02
1.144946764600000e+02 1.241213838550000e+02 1.554255658850000e+02
1.154912058819184e+02 1.241096783135624e+02 1.532253047691906e+02
1.111729856458286e+02 1.240793578825647e+02 1.627881364267582e+02
1.121805492100000e+02 1.241051351850000e+02 1.605502719250000e+02
1.131881127741714e+02 1.241309124874353e+02 1.583124074232418e+02
1.100937915617157e+02 1.240795050456922e+02 1.679578940696117e+02
1.105223074700000e+02 1.240775860200000e+02 1.657192726400000e+02
1.109508233782843e+02 1.240756669943078e+02 1.634806512103883e+02
1.091903145455464e+02 1.241587163769094e+02 1.731217757891237e+02
1.095788536300000e+02 1.241220920500000e+02 1.708859357300000e+02
1.099673927144537e+02 1.240854677230906e+02 1.686500956708763e+02
1.075106387902215e+02 1.241769262092225e+02 1.780486872458345e+02
1.082622831700000e+02 1.241711045050000e+02 1.759226257750000e+02
1.090139275497785e+02 1.241652828007775e+02 1.737965643041655e+02
1.057239501122589e+02 1.241729811818821e+02 1.835899913945440e+02
1.064991895750000e+02 1.241752300550000e+02 1.811709075350000e+02
1.072744290377411e+02 1.241774789281179e+02 1.787518236754560e+02
1.040615555273226e+02 1.241111408759718e+02 1.896224725140366e+02
1.047774158500000e+02 1.241396796000000e+02 1.869964706900000e+02
1.054932761726775e+02 1.241682183240282e+02 1.843704688659634e+02
1.030875317789312e+02 1.241030121282510e+02 1.951076793475346e+02
1.034881813150000e+02 1.241047357050000e+02 1.927505244450000e+02
1.038888308510688e+02 1.241064592817490e+02 1.903933695424654e+02
1.028246914057771e+02 1.241444669536796e+02 2.001254837124692e+02
1.029179107050000e+02 1.241251039550000e+02 1.979659487100000e+02
1.030111300042229e+02 1.241057409563204e+02 1.958064137075309e+02
1.023324210917236e+02 1.241041124759505e+02 2.048450574818447e+02
1.025541916950000e+02 1.241242312550000e+02 2.028097433100000e+02
1.027759622982764e+02 1.241443500340495e+02 2.007744291381553e+02
1.019609128740982e+02 1.240847381264521e+02 2.093353415603476e+02
1.021174080250000e+02 1.240922853300000e+02 2.073975224500000e+02
1.022739031759018e+02 1.240998325335479e+02 2.054597033396524e+02
1.024139598118614e+02 1.241571156601016e+02 2.136383885322317e+02
1.021924641500000e+02 1.241229832650000e+02 2.117804666350000e+02
1.019709684881386e+02 1.240888508698984e+02 2.099225447377683e+02
1.027483841358964e+02 1.241373720181879e+02 2.179889563693525e+02
1.026090799400000e+02 1.241489856700000e+02 2.161032436000000e+02
1.024697757441037e+02 1.241605993218121e+02 2.142175308306475e+02
1.023979898681117e+02 1.240161543445803e+02 2.226434348220556e+02
1.025706100050000e+02 1.240715778400000e+02 2.206186719400000e+02
1.027432301418883e+02 1.241270013354197e+02 2.185939090579444e+02
1.025152697888609e+02 1.240280567379031e+02 2.271616086903667e+02
1.024484464200000e+02 1.240185535900000e+02 2.252100883350000e+02
1.023816230511391e+02 1.240090504420969e+02 2.232585679796333e+02
1.037541080142895e+02 1.241454815213188e+02 2.313402826523007e+02
1.031839588950000e+02 1.240916667850000e+02 2.295410661750000e+02
1.026138097757106e+02 1.240378520486813e+02 2.277418496976993e+02
1.050830012630858e+02 1.241719675303289e+02 2.357120042561944e+02
1.045071946250000e+02 1.241635390550000e+02 2.338122591300000e+02
1.039313879869142e+02 1.241551105796711e+02 2.319125140038056e+02
1.051673749738320e+02 1.240955842200083e+02 2.408099866584875e+02
1.051695580550000e+02 1.241316389750000e+02 2.385804003550000e+02
1.051717411361680e+02 1.241676937299917e+02 2.363508140515125e+02
1.048333875226436e+02 1.241334941494038e+02 2.463048778827951e+02
1.049882349000000e+02 1.241133114750000e+02 2.439147670850000e+02
1.051430822773564e+02 1.240931288005962e+02 2.415246562872049e+02
1.059570009554508e+02 1.241486834278184e+02 2.510971711984388e+02
1.054244126050000e+02 1.241430831100000e+02 2.490446623650000e+02
1.048918242545493e+02 1.241374827921816e+02 2.469921535315612e+02
1.074220884768394e+02 1.240929848226531e+02 2.552925430189141e+02
1.067803771150000e+02 1.241192367200000e+02 2.534928276850000e+02
1.061386657531607e+02 1.241454886173470e+02 2.516931123510859e+02
1.084253857725072e+02 1.240678450823497e+02 2.598941710296444e+02
1.080058266800000e+02 1.240776276750000e+02 2.578877617850000e+02
1.075862675874928e+02 1.240874102676503e+02 2.558813525403556e+02
1.100760671048826e+02 1.240020368530397e+02 2.645421713188878e+02
1.093401062200000e+02 1.240318762000000e+02 2.625290805800000e+02
1.086041453351174e+02 1.240617155469604e+02 2.605159898411122e+02
1.119831024492827e+02 1.239691823328273e+02 2.687700798700214e+02
1.111508838800000e+02 1.239822878000000e+02 2.669524340950000e+02
1.103186653107173e+02 1.239953932671727e+02 2.651347883199786e+02
1.140130765665170e+02 1.239400314656856e+02 2.728865413338785e+02
1.131307129050000e+02 1.239526195000000e+02 2.711065860150000e+02
1.122483492434830e+02 1.239652075343144e+02 2.693266306961215e+02
1.166110553199363e+02 1.240553556320968e+02 2.769685289657958e+02
1.154686800450000e+02 1.240009297200000e+02 2.752018669550000e+02
1.143263047700638e+02 1.239465038079032e+02 2.734352049442043e+02
1.194816709794808e+02 1.241611861492757e+02 2.809241995901419e+02
1.182314324700000e+02 1.241159776400000e+02 2.792152070900000e+02
1.169811939605192e+02 1.240707691307243e+02 2.775062145898581e+02
1.223249081344966e+02 1.240247387344835e+02 2.847068526193829e+02
1.210951202650000e+02 1.240913100250000e+02 2.830740173800000e+02
1.198653323955034e+02 1.241578813155165e+02 2.814411821406172e+02
1.249227734170819e+02 1.238886631034909e+02 2.889348559105657e+02
1.238053947400000e+02 1.239470364200000e+02 2.870898650500000e+02
1.226880160629181e+02 1.240054097365091e+02 2.852448741894344e+02
1.270042971067480e+02 1.238174756004025e+02 2.936610020924123e+02
1.261184827800000e+02 1.238463228200000e+02 2.916000544000000e+02
1.252326684532520e+02 1.238751700395975e+02 2.895391067075877e+02
1.295867886855789e+02 1.237250416714729e+02 2.972385520531090e+02
1.284518487800000e+02 1.237658692700000e+02 2.957261747250000e+02
1.273169088744211e+02 1.238066968685271e+02 2.942137973968910e+02
1.333282281953930e+02 1.236901794712671e+02 2.999054659597363e+02
1.316733050950000e+02 1.237034277850000e+02 2.987763307150001e+02
1.300183819946071e+02 1.237166760987329e+02 2.976471954702637e+02
1.368876155078714e+02 1.236961847699471e+02 3.032999887526669e+02
1.353545162400000e+02 1.236924465150000e+02 3.018056535050001e+02
1.338214169721286e+02 1.236887082600529e+02 3.003113182573332e+02
1.400106807928296e+02 1.236967393628171e+02 3.069624496391085e+02
1.386713327250000e+02 1.236967503700000e+02 3.053699840700000e+02
1.373319846571704e+02 1.236967613771829e+02 3.037775185008915e+02
1.432910615460118e+02 1.237615749705452e+02 3.101518789328194e+02
1.418647924050000e+02 1.237314838700000e+02 3.087859935300000e+02
1.404385232639882e+02 1.237013927694548e+02 3.074201081271805e+02
1.463583228092238e+02 1.237756414257746e+02 3.130948735508191e+02
1.450372034200000e+02 1.237712736050000e+02 3.118270911550000e+02
1.437160840307762e+02 1.237669057842254e+02 3.105593087591810e+02
1.496936382565152e+02 1.236859775313605e+02 3.159403952607596e+02
1.482405650750000e+02 1.237279042850000e+02 3.147108067200001e+02
1.467874918934849e+02 1.237698310386395e+02 3.134812181792405e+02
1.534295840989222e+02 1.236767540087230e+02 3.187561978112964e+02
1.518000515600000e+02 1.236780244550000e+02 3.175376597850000e+02
1.501705190210778e+02 1.236792949012770e+02 3.163191217587037e+02
1.565907783411062e+02 1.236921446601016e+02 3.216056247040862e+02
1.552406581600000e+02 1.236849106200000e+02 3.203706881750000e+02
1.538905379788938e+02 1.236776765798984e+02 3.191357516459138e+02
1.604013711770511e+02 1.235846309925100e+02 3.238525324133158e+02
1.587298031550000e+02 1.236350476400000e+02 3.228984033700000e+02
1.570582351329489e+02 1.236854642874900e+02 3.219442743266843e+02
1.655522173851441e+02 1.235081813963979e+02 3.258006271696420e+02
1.632817145250000e+02 1.235400420250000e+02 3.249650166300000e+02
1.610112116648559e+02 1.235719026536022e+02 3.241294060903581e+02
1.707894032362804e+02 1.235149018380317e+02 3.283300966477268e+02
1.685218315950000e+02 1.235094953800000e+02 3.272161599150000e+02
1.662542599537196e+02 1.235040889219682e+02 3.261022231822733e+02
1.757612384573209e+02 1.235903123671310e+02 3.309719319343735e+02
1.736166060200000e+02 1.235557023850000e+02 3.298258289700001e+02
1.714719735826792e+02 1.235210924028690e+02 3.286797260056268e+02
1.806372647064107e+02 1.237029293849398e+02 3.332282986993596e+02
1.785282707300000e+02 1.236531485300000e+02 3.322634017300001e+02
1.764192767535894e+02 1.236033676750602e+02 3.312985047606405e+02
1.855958421322368e+02 1.236545137986057e+02 3.353239227427351e+02
1.834459772950000e+02 1.236805576550000e+02 3.344206167250000e+02
1.812961124577632e+02 1.237066015113943e+02 3.335173107072649e+02
1.903385362304074e+02 1.234675428323260e+02 3.374945317163334e+02
1.882917975900000e+02 1.235524464950000e+02 3.365520030399999e+02
1.862450589495926e+02 1.236373501576740e+02 3.356094743636667e+02
1.945308238173882e+02 1.233743307047674e+02 3.394620163349038e+02
1.927321256000000e+02 1.234114947950000e+02 3.386165740600000e+02
1.909334273826118e+02 1.234486588852327e+02 3.377711317850963e+02
1.988033955503347e+02 1.233395465112234e+02 3.411897917153196e+02
1.969496288300000e+02 1.233530216500000e+02 3.404486283950000e+02
1.950958621096653e+02 1.233664967887765e+02 3.397074650746804e+02
2.040200553617673e+02 1.232874874631357e+02 3.425409836817394e+02
2.017320895800000e+02 1.233106806800000e+02 3.419671064400001e+02
1.994441237982327e+02 1.233338738968643e+02 3.413932291982608e+02
2.097688522006561e+02 1.232961447852060e+02 3.436394745667916e+02
2.072650948550000e+02 1.232904617100000e+02 3.431708657050000e+02
2.047613375093440e+02 1.232847786347940e+02 3.427022568432085e+02
2.151201701571173e+02 1.232878268246116e+02 3.447803363382349e+02
2.128163765400000e+02 1.232920952300000e+02 3.442845051500000e+02
2.105125829228828e+02 1.232963636353884e+02 3.437886739617651e+02
2.201407534039830e+02 1.232707559821697e+02 3.455080081788982e+02
2.179760975500000e+02 1.232783721300000e+02 3.452058935800000e+02
2.158114416960170e+02 1.232859882778303e+02 3.449037789811018e+02
2.252350025009224e+02 1.232288697720377e+02 3.462162018953467e+02
2.230261685650000e+02 1.232477624150000e+02 3.459092189000000e+02
2.208173346290776e+02 1.232666550579624e+02 3.456022359046534e+02
2.305398660028926e+02 1.231016926555794e+02 3.472602832511264e+02
2.282364574250000e+02 1.231593593300000e+02 3.467977637950001e+02
2.259330488471074e+02 1.232170260044206e+02 3.463352443388737e+02
2.361929674348698e+02 1.232250941291288e+02 3.481214960650215e+02
2.337347312250000e+02 1.231636830250000e+02 3.477550132100000e+02
2.312764950151302e+02 1.231022719208712e+02 3.473885303549785e+02
2.418634725751735e+02 1.233604552983702e+02 3.489236107979089e+02
2.394082754000000e+02 1.233020430800000e+02 3.485776603400000e+02
2.369530782248266e+02 1.232436308616298e+02 3.482317098820911e+02
2.473892121785380e+02 1.231124987160868e+02 3.496894604595644e+02
2.450009827300000e+02 1.232317695750000e+02 3.493588665200000e+02
2.426127532814620e+02 1.233510404339132e+02 3.490282725804356e+02
2.530753580277728e+02 1.229267439881262e+02 3.499839850241886e+02
2.506078757150000e+02 1.230043897950000e+02 3.498710312750000e+02
2.481403934022273e+02 1.230820356018738e+02 3.497580775258114e+02
2.588310787482424e+02 1.229061530602157e+02 3.500286128158875e+02
2.563369967250000e+02 1.229101346250000e+02 3.500160107000001e+02
2.538429147017576e+02 1.229141161897843e+02 3.500034085841125e+02
2.644259438453477e+02 1.230884659408551e+02 3.497773275892404e+02
2.620084249500000e+02 1.230035683750000e+02 3.498948542600000e+02
2.595909060546523e+02 1.229186708091449e+02 3.500123809307595e+02
2.696101324913586e+02 1.233040156447205e+02 3.489017979325425e+02
2.673777122150000e+02 1.232100740500000e+02 3.492996946250000e+02
2.651452919386414e+02 1.231161324552795e+02 3.496975913174575e+02
2.750700552524312e+02 1.231493364086830e+02 3.480615125854320e+02
2.726963768450000e+02 1.232278679950000e+02 3.484229226749999e+02
2.703226984375688e+02 1.233063995813170e+02 3.487843327645681e+02
2.812105837528042e+02 1.229500771508079e+02 3.472399188824237e+02
2.785311770000000e+02 1.230369153800000e+02 3.475952737700001e+02
2.758517702471958e+02 1.231237536091921e+02 3.479506286575763e+02
2.873622192226777e+02 1.228603379990923e+02 3.461326381531816e+02
2.846996080150000e+02 1.228957513800000e+02 3.466210155950001e+02
2.820369968073223e+02 1.229311647609077e+02 3.471093930368184e+02
2.929362840975825e+02 1.229147190218480e+02 3.446405701920918e+02
2.905405184700000e+02 1.228869381350000e+02 3.452979774200001e+02
2.881447528424175e+02 1.228591572481520e+02 3.459553846479083e+02
2.981028303077410e+02 1.231604940865557e+02 3.422035656337180e+02
2.958770361000001e+02 1.230484240600000e+02 3.432873836700001e+02
2.936512418922590e+02 1.229363540334444e+02 3.443712017062820e+02
3.036762866521549e+02 1.231729834180106e+02 3.398872902635975e+02
3.012494413950000e+02 1.231752333650000e+02 3.408844627700000e+02
2.988225961378450e+02 1.231774833119894e+02 3.418816352764026e+02
3.094551735087671e+02 1.230785278168844e+02 3.382742181249273e+02
3.069474224350000e+02 1.231222032750000e+02 3.389512537450000e+02
3.044396713612330e+02 1.231658787331156e+02 3.396282893650728e+02
3.152951204525665e+02 1.231483052895934e+02 3.361460742703591e+02
3.127648400700000e+02 1.231127856950000e+02 3.370851403000000e+02
3.102345596874335e+02 1.230772661004066e+02 3.380242063296410e+02
3.210061519483131e+02 1.230232365384264e+02 3.335561419957365e+02
3.185373189650000e+02 1.230838313400000e+02 3.346907118400000e+02
3.160684859816870e+02 1.231444261415736e+02 3.358252816842635e+02
3.264304876071022e+02 1.229245334747385e+02 3.305649025347263e+02
3.240902989000000e+02 1.229659912150000e+02 3.318716831500000e+02
3.217501101928978e+02 1.230074489552616e+02 3.331784637652736e+02
3.321694315469550e+02 1.229799345692949e+02 3.269577349962236e+02
3.296739963850001e+02 1.229512463000000e+02 3.285380046500000e+02
3.271785612230450e+02 1.229225580307051e+02 3.301182743037764e+02
3.379648138658587e+02 1.229996760649582e+02 3.235293447515673e+02
3.354543317550001e+02 1.229925737300000e+02 3.250070079449999e+02
3.329438496441413e+02 1.229854713950418e+02 3.264846711384328e+02
3.434121917188092e+02 1.231527742411271e+02 3.201035120108885e+02
3.410642993650000e+02 1.230822310550000e+02 3.215873550750001e+02
3.387164070111909e+02 1.230116878688729e+02 3.230711981391117e+02
3.487479621657783e+02 1.232694492820473e+02 3.165826727241791e+02
3.464401935700000e+02 1.232203649800000e+02 3.181101647850000e+02
3.441324249742217e+02 1.231712806779527e+02 3.196376568458210e+02
3.541665465201977e+02 1.232260059688444e+02 3.131271492970870e+02
3.518174631000000e+02 1.232496921750000e+02 3.146211943050000e+02
3.494683796798023e+02 1.232733783811556e+02 3.161152393129130e+02
3.593497748464648e+02 1.230328915582048e+02 3.091922197259933e+02
3.571128868100000e+02 1.231208156750000e+02 3.109111592900001e+02
3.548759987735353e+02 1.232087397917953e+02 3.126300988540068e+02
3.639950014577029e+02 1.229109667820090e+02 3.047318342584006e+02
3.619997456200000e+02 1.229612396000000e+02 3.066784920500000e+02
3.600044897822970e+02 1.230115124179910e+02 3.086251498415995e+02
3.680177226475237e+02 1.229043894976359e+02 2.998695189747399e+02
3.662940241699999e+02 1.229038326000000e+02 3.019863636100000e+02
3.645703256924763e+02 1.229032757023641e+02 3.041032082452601e+02
3.710729870335733e+02 1.227880312983044e+02 2.944893001415356e+02
3.697787898800000e+02 1.228420733100000e+02 2.968342857850000e+02
3.684845927264267e+02 1.228961153216956e+02 2.991792714284645e+02
3.741293686680030e+02 1.227632454493255e+02 2.895149686776149e+02
3.728038161900000e+02 1.227708685600000e+02 2.916552015500000e+02
3.714782637119971e+02 1.227784916706745e+02 2.937954344223851e+02
3.782754340299041e+02 1.228515502692931e+02 2.856108970475851e+02
3.764464087850000e+02 1.228100205450000e+02 2.872691211900000e+02
3.746173835400959e+02 1.227684908207069e+02 2.889273453324150e+02
3.816241933310328e+02 1.229359754176666e+02 2.812685243955781e+02
3.802013468350001e+02 1.228997752700000e+02 2.831647714200000e+02
3.787785003389673e+02 1.228635751223334e+02 2.850610184444220e+02
3.826134334028696e+02 1.229510872633003e+02 2.763330555840705e+02
3.822564812700001e+02 1.229466728850000e+02 2.784874702200000e+02
3.818995291371305e+02 1.229422585066997e+02 2.806418848559296e+02
3.831433971143989e+02 1.229447751218605e+02 2.713307658715298e+02
3.829230681100000e+02 1.229480215350000e+02 2.734976565950000e+02
3.827027391056012e+02 1.229512679481395e+02 2.756645473184702e+02
3.851125247598944e+02 1.229862157675938e+02 2.660328629809128e+02
3.842144683499999e+02 1.229667500150000e+02 2.683360525150000e+02
3.833164119401056e+02 1.229472842624062e+02 2.706392420490872e+02
3.876373510498498e+02 1.229373346522737e+02 2.610607642816660e+02
3.865300526400001e+02 1.229614180350000e+02 2.632029617500000e+02
3.854227542301502e+02 1.229855014177263e+02 2.653451592183341e+02
3.889339057714703e+02 1.228083408166089e+02 2.562682017625836e+02
3.884116730800000e+02 1.228664779550000e+02 2.583386349100001e+02
3.878894403885297e+02 1.229246150933911e+02 2.604090680574164e+02
3.901364121634298e+02 1.227380687670279e+02 2.516048211175552e+02
3.896158216250000e+02 1.227665080800000e+02 2.536204531950000e+02
3.890952310865703e+02 1.227949473929721e+02 2.556360852724448e+02
3.925059319239498e+02 1.227774475268316e+02 2.471102269118631e+02
3.914436106950000e+02 1.227571299300000e+02 2.490514594700000e+02
3.903812894660503e+02 1.227368123331684e+02 2.509926920281369e+02
3.937582022001037e+02 1.228785410118610e+02 2.425652454588383e+02
3.932532927750000e+02 1.228330821000000e+02 2.445352044650000e+02
3.927483833498964e+02 1.227876231881390e+02 2.465051634711618e+02
3.940682697966185e+02 1.229986692897784e+02 2.389069704554342e+02
3.939606177900000e+02 1.229461813650000e+02 2.404633451000000e+02
3.938529657833815e+02 1.228936934402216e+02 2.420197197445659e+02

CELLS 168 1008
5 0 168 169 170 1
5 0 171 172 173 167
5 1 174 175 176 2
5 2 177 178 179 3
5 3 180 181 182 4
5 4 183 184 185 5
5 5 186 187 188 6
5 6 189 190 191 7
5 7 192 193 194 8
5 8 195 196 197 9
5 9 198 199 200 10
5 10 201 202 203 11
5 11 204 205 206 12
5 12 207 208 209 13
5 13 210 211 212 14
5 14 213 214 215 15
5 15 216 217 218 16
5 16 219 220 221 17
5 17 222 223 224 18
5 18 225 226 227 19
5 19 228 229 230 20
5 20 231 232 233 21
5 21 234 235 236 22
5 22 237 238 239 23
5 23 240 241 242 24
5 24 243 244 245 25
5 25 246 247 248 26
5 26 249 250 251 27
5 27 252 253 254 28
5 28 255 256 257 29
5 29 258 259 260 30
5 30 261 262 263 31
5 31 264 265 266 32
5 32 267 268 269 33
5 33 270 271 272 34
5 34 273 274 275 35
5 35 276 277 278 36
5 36 279 280 281 37
5 37 282 283 284 38
5 38 285 286 287 39
5 39 288 289 290 40
5 40 291 292 293 41
5 41 294 295 296 42
5 42 297 298 299 43
5 43 300 301 302 44
5 44 303 304 305 45
5 45 306 307 308 46
5 46 309 310 311 47
5 47 312 313 314 48
5 48 315 316 317 49
5 49 318 319 320 50
5 50 321 322 323 51
5 51 324 325 326 52
5 52 327 328 329 53
5 53 330 331 332 54
5 54 333 334 335 55
5 55 336 337 338 56
5 56 339 340 341 57
5 57 342 343 344 58
5 58 345 346 347 59
5 59 348 349 350 60
5 60 351 352 353 61
5 61 354 355 356 62
5 62 357 358 359 63
5 63 360 361 362 64
5 64 363 364 365 65
5 65 366 367 368 66
5 66 369 370 371 67
5 67 372 373 374 68
5 68 375 376 377 69
5 69 378 379 380 70
5 70 381 382 383 71
5 71 384 385 386 72
5 72 387 388 389 73
5 73 390 391 392 74
5 74 393 394 395 75
5 75 396 397 398 76
5 76 399 400 401 77
5 77 402 403 404 78
5 78 405 406 407 79
5 79 408 409 410 80
5 80 411 412 413 81
5 81 414 415 416 82
5 82 417 418 419 83
5 83 420 421 422 84
5 84 423 424 425 85
5 85 426 427 428 86
5 86 429 430 431 87
5 87 432 433 434 88
5 88 435 436 437 89
5 89 438 439 440 90
5 90 441 442 443 91
5 91 444 445 446 92
5 92 447 448 449 93
5 93 450 451 452 94
5 94 453 454 455 95
5 95 456 457 458 96
5 96 459 460 461 97
5 97 462 463 464 98
5 98 465 466 467 99
5 99 468 469 470 100
5 100 471 472 473 101
5 101 474 475 476 102
5 102 477 478 479 103
5 103 480 481 482 104
5 104 483 484 485 105
5 105 486 487 488 106
5 106 489 490 491 107
5 107 492 493 494 108
5 108 495 496 497 109
5 109 498 499 500 110
5 110 501 502 503 111
5 111 504 505 506 112
5 112 507 508 509 113
5 113 510 511 512 114
5 114 513 514 515 115
5 115 516 517 518 116
5 116 519 520 521 117
5 117 522 523 524 118
5 118 525 526 527 119
5 119 528 529 530 120
5 120 531 532 533 121
5 121 534 535 536 122
5 122 537 538 539 123
5 123 540 541 542 124
5 124 543 544 545 125
5 125 546 547 548 126
5 126 549 550 551 127
5 127 552 553 554 128
5 128 555 556 557 129
5 129 558 559 560 130
5 130 561 562 563 131
5 131 564 565 566 132
5 132 567 568 569 133
5 133 570 571 572 134
5 134 573 574 575 135
5 135 576 577 578 136
5 136 579 580 581 137
5 137 582 583 584 138
5 138 585 586 587 139
5 139 588 589 590 140
5 140 591 592 593 141
5 141 594 595 596 142
5 142 597 598 599 143
5 143 600 601 602 144
5 144 603 604 605 145
5 145 606 607 608 146
5 146 609 610 611 147
5 147 612 613 614 148
5 148 615 616 617 149
5 149 618 619 620 150
5 150 621 622 623 151
5 151 624 625 626 152
5 152 627 628 629 153
5 153 630 631 632 154
5 154 633 634 635 155
5 155 636 637 638 156
5 156 639 640 641 157
5 157 642 643 644 158
5 158 645 646 647 159
5 159 648 649 650 160
5 160 651 652 653 161
5 161 654 655 656 162
5 162 657 658 659 163
5 163 660 661 662 164
5 164 663 664 665 165
5 165 666 667 668 166
5 166 669 670 671 167

CELL_TYPES 168
4
4
4
4
4
4
4
4
4
4
4
4
4
4
4
4
4
4
4
4
4
4
4
4
4
4
4
4
4
4
4
4
4
4
4
4
4
4
4
4
4
4
4
4
4
4
4
4
4
4
4
4
4
4
4
4
4
4
4
4
4
4
4
4
4
4
4
4
4
4
4
4
4
4
4
4
4
4
4
4
4
4
4
4
4
4
4
4
4
4
4
4
4
4
4
4
4
4
4
4
4
4
4
4
4
4
4
4
4
4
4
4
4
4
4
4
4
4
4
4
4
4
4
4
4
4
4
4
4
4
4
4
4
4
4
4
4
4
4
4
4
4
4
4
4
4
4
4
4
4
4
4
4
4
4
4
4
4
4
4
4
4
4
4
4
4
4
4

POINT_DATA 672
VECTORS PK_force double
0.000000000000000e+00 0.000000000000000e+00 0.000000000000000e+00
0.000000000000000e+00 0.000000000000000e+00 0.000000000000000e+00
0.000000000000000e+00 0.000000000000000e+00 0.000000000000000e+00
0.000000000000000e+00 0.000000000000000e+00 0.000000000000000e+00
0.000000000000000e+00 0.000000000000000e+00 0.000000000000000e+00
0.000000000000000e+00 0.000000000000000e+00 0.000000000000000e+00
0.000000000000000e+00 0.000000000000000e+00 0.000000000000000e+00
0.000000000000000e+00 0.000000000000000e+00 0.000000000000000e+00
0.000000000000000e+00 0.000000000000000e+00 0.000000000000000e+00
0.000000000000000e+00 0.000000000000000e+00 0.000000000000000e+00
0.000000000000000e+00 0.000000000000000e+00 0.000000000000000e+00
0.000000000000000e+00 0.000000000000000e+00 0.000000000000000e+00
0.000000000000000e+00 0.000000000000000e+00 0.000000000000000e+00
0.000000000000000e+00 0.000000000000000e+00 0.000000000000000e+00
0.000000000000000e+00 0.000000000000000e+00 0.000000000000000e+00
0.000000000000000e+00 0.000000000000000e+00 0.000000000000000e+00
0.000000000000000e+00 0.000000000000000e+00 0.000000000000000e+00
0.000000000000000e+00 0.000000000000000e+00 0.000000000000000e+00
0.000000000000000e+00 0.000000000000000e+00 0.000000000000000e+00
0.000000000000000e+00 0.000000000000000e+00 0.000000000000000e+00
0.000000000000000e+00 0.000000000000000e+00 0.000000000000000e+00
0.000000000000000e+00 0.000000000000000e+00 0.000000000000000e+00
0.000000000000000e+00 0.000000000000000e+00 0.000000000000000e+00
0.000000000000000e+00 0.000000000000000e+00 0.000000000000000e+00
0.000000000000000e+00 0.000000000000000e+00 0.000000000000000e+00
0.000000000000000e+00 0.000000000000000e+00 0.000000000000000e+00
0.000000000000000e+00 0.000000000000000e+00 0.000000000000000e+00
0.000000000000000e+00 0.000000000000000e+00 0.000000000000000e+00
0.000000000000000e+00 0.000000000000000e+00 0.000000000000000e+00
0.000000000000000e+00 0.000000000000000e+00 0.000000000000000e+00
0.000000000000000e+00 0.000000000000000e+00 0.000000000000000e+00
0.000000000000000e+00 0.000000000000000e+00 0.000000000000000e+00
0.000000000000000e+00 0.000000000000000e+00 0.000000000000000e+00
0.000000000000000e+00 0.000000000000000e+00 0.000000000000000e+00
0.000000000000000e+00 0.000000000000000e+00 0.000000000000000e+00
0.000000000000000e+00 0.000000000000000e+00 0.000000000000000e+00
0.000000000000000e+00 0.000000000000000e+00 0.000000000000000e+00
0.000000000000000e+00 0.000000000000000e+00 0.000000000000000e+00
0.000000000000000e+00 0.000000000000000e+00 0.000000000000000e+00
0.000000000000000e+00 0.000000000000000e+00 0.000000000000000e+00
0.000000000000000e+00 0.000000000000000e+00 0.000000000000000e+00
0.000000000000000e+00 0.000000000000000e+00 0.000000000000000e+00
0.000000000000000e+00 0.000000000000000e+00 0.000000000000000e+00
0.000000000000000e+00 0.000000000000000e+00 0.000000000000000e+00
0.000000000000000e+00 0.000000000000000e+00 0.000000000000000e+00
0.000000000000000e+00 0.000000000000000e+00 0.000000000000000e+00
0.000000000000000e+00 0.000000000000000e+00 0.000000000000000e+00
0.000000000000000e+00 0.000000000000000e+00 0.000000000000000e+00
0.000000000000000e+00 0.000000000000000e+00 0.000000000000000e+00
0.000000000000000e+00 0.000000000000000e+00 0.000000000000000e+00
0.000000000000000e+00 0.000000000000000e+00 0.000000000000000e+00
0.000000000000000e+00 0.000000000000000e+00 0.000000000000000e+00
0.000000000000000e+00 0.000000000000000e+00 0.000000000000000e+00
0.000000000000000e+00 0.000000000000000e+00 0.000000000000000e+00
0.000000000000000e+00 0.000000000000000e+00 0.000000000000000e+00
0.000000000000000e+00 0.000000000000000e+00 0.000000000000000e+00
0.000000000000000e+00 0.000000000000000e+00 0.000000000000000e+00
0.000000000000000e+00 0.000000000000000e+00 0.000000000000000e+00
0.000000000000000e+00 0.000000000000000e+00 0.000000000000000e+00
0.000000000000000e+00 0.000000000000000e+00 0.000000000000000e+00
0.000000000000000e+00 0.000000000000000e+00 0.000000000000000e+00
0.000000000000000e+00 0.000000000000000e+00 0.000000000000000e+00
0.000000000000000e+00 0.000000000000000e+00 0.000000000000000e+00
0.000000000000000e+00 0.000000000000000e+00 0.000000000000000e+00
0.000000000000000e+00 0.000000000000000e+00 0.000000000000000e+00
0.000000000000000e+00 0.000000000000000e+00 0.000000000000000e+00
0.000000000000000e+00 0.000000000000000e+00 0.000000000000000e+00
0.000000000000000e+00 0.000000000000000e+00 0.000000000000000e+00
0.000000000000000e+00 0.000000000000000e+00 0.000000000000000e+00
0.000000000000000e+00 0.000000000000000e+00 0.000000000000000e+00
0.000000000000000e+00 0.000000000000000e+00 0.000000000000000e+00
0.000000000000000e+00 0.000000000000000e+00 0.000000000000000e+00
0.000000000000000e+00 0.000000000000000e+00 0.000000000000000e+00
0.000000000000000e+00 0.000000000000000e+00 0.000000000000000e+00
0.000000000000000e+00 0.000000000000000e+00 0.000000000000000e+00
0.000000000000000e+00 0.000000000000000e+00 0.000000000000000e+00
0.000000000000000e+00 0.000000000000000e+00 0.000000000000000e+00
0.000000000000000e+00 0.000000000000000e+00 0.000000000000000e+00
0.000000000000000e+00 0.000000000000000e+00 0.000000000000000e+00
0.000000000000000e+00 0.000000000000000e+00 0.000000000000000e+00
0.000000000000000e+00 0.000000000000000e+00 0.000000000000000e+00
0.000000000000000e+00 0.000000000000000e+00 0.000000000000000e+00
0.000000000000000e+00 0.000000000000000e+00 0.000000000000000e+00
0.000000000000000e+00 0.000000000000000e+00 0.000000000000000e+00
0.000000000000000e+00 0.000000000000000e+00 0.000000000000000e+00
0.000000000000000e+00 0.000000000000000e+00 0.000000000000000e+00
0.000000000000000e+00 0.000000000000000e+00 0.000000000000000e+00
0.000000000000000e+00 0.000000000000000e+00 0.000000000000000e+00
0.000000000000000e+00 0.000000000000000e+00 0.000000000000000e+00
0.000000000000000e+00 0.000000000000000e+00 0.000000000000000e+00
0.000000000000000e+00 0.000000000000000e+00 0.000000000000000e+00
0.000000000000000e+00 0.000000000000000e+00 0.000000000000000e+00
0.000000000000000e+00 0.000000000000000e+00 0.000000000000000e+00
0.000000000000000e+00 0.000000000000000e+00 0.000000000000000e+00
0.000000000000000e+00 0.000000000000000e+00 0.000000000000000e+00
0.000000000000000e+00 0.000000000000000e+00 0.000000000000000e+00
0.000000000000000e+00 0.000000000000000e+00 0.000000000000000e+00
0.000000000000000e+00 0.000000000000000e+00 0.000000000000000e+00
0.000000000000000e+00 0.000000000000000e+00 0.000000000000000e+00
0.000000000000000e+00 0.000000000000000e+00 0.000000000000000e+00
0.000000000000000e+00 0.000000000000000e+00 0.000000000000000e+00
0.000000000000000e+00 0.000000000000000e+00 0.000000000000000e+00
0.000000000000000e+00 0.000000000000000e+00 0.000000000000000e+00
0.000000000000000e+00 0.000000000000000e+00 0.000000000000000e+00
0.000000000000000e+00 0.000000000000000e+00 0.000000000000000e+00
0.000000000000000e+00 0.000000000000000e+00 0.000000000000000e+00
0.000000000000000e+00 0.000000000000000e+00 0.000000000000000e+00
0.000000000000000e+00 0.000000000000000e+00 0.000000000000000e+00
0.000000000000000e+00 0.000000000000000e+00 0.000000000000000e+00
0.000000000000000e+00 0.000000000000000e+00 0.000000000000000e+00
0.000000000000000e+00 0.000000000000000e+00 0.000000000000000e+00
0.000000000000000e+00 0.000000000000000e+00 0.000000000000000e+00
0.000000000000000e+00 0.000000000000000e+00 0.000000000000000e+00
0.000000000000000e+00 0.000000000000000e+00 0.000000000000000e+00
0.000000000000000e+00 0.000000000000000e+00 0.000000000000000e+00
0.000000000000000e+00 0.000000000000000e+00 0.000000000000000e+00
0.000000000000000e+00 0.000000000000000e+00 0.000000000000000e+00
0.000000000000000e+00 0.000000000000000e+00 0.000000000000000e+00
0.000000000000000e+00 0.000000000000000e+00 0.000000000000000e+00
0.000000000000000e+00 0.000000000000000e+00 0.000000000000000e+00
0.000000000000000e+00 0.000000000000000e+00 0.000000000000000e+00
0.000000000000000e+00 0.000000000000000e+00 0.000000000000000e+00
0.000000000000000e+00 0.000000000000000e+00 0.000000000000000e+00
0.000000000000000e+00 0.000000000000000e+00 0.000000000000000e+00
0.000000000000000e+00 0.000000000000000e+00 0.000000000000000e+00
0.000000000000000e+00 0.000000000000000e+00 0.000000000000000e+00
0.000000000000000e+00 0.000000000000000e+00 0.000000000000000e+00
0.000000000000000e+00 0.000000000000000e+00 0.000000000000000e+00
0.000000000000000e+00 0.000000000000000e+00 0.000000000000000e+00
0.000000000000000e+00 0.000000000000000e+00 0.000000000000000e+00
0.000000000000000e+00 0.000000000000000e+00 0.000000000000000e+00
0.000000000000000e+00 0.000000000000000e+00 0.000000000000000e+00
0.000000000000000e+00 0.000000000000000e+00 0.000000000000000e+00
0.000000000000000e+00 0.000000000000000e+00 0.000000000000000e+00
0.000000000000000e+00 0.000000000000000e+00 0.000000000000000e+00
0.000000000000000e+00 0.000000000000000e+00 0.000000000000000e+00
0.000000000000000e+00 0.000000000000000e+00 0.000000000000000e+00
0.000000000000000e+00 0.000000000000000e+00 0.000000000000000e+00
0.000000000000000e+00 0.000000000000000e+00 0.000000000000000e+00
0.000000000000000e+00 0.000000000000000e+00 0.000000000000000e+00
0.000000000000000e+00 0.000000000000000e+00 0.000000000000000e+00
0.000000000000000e+00 0.000000000000000e+00 0.000000000000000e+00
0.000000000000000e+00 0.000000000000000e+00 0.000000000000000e+00
0.000000000000000e+00 0.000000000000000e+00 0.000000000000000e+00
0.000000000000000e+00 0.000000000000000e+00 0.000000000000000e+00
0.000000000000000e+00 0.000000000000000e+00 0.000000000000000e+00
0.000000000000000e+00 0.000000000000000e+00 0.000000000000000e+00
0.000000000000000e+00 0.000000000000000e+00 0.000000000000000e+00
0.000000000000000e+00 0.000000000000000e+00 0.000000000000000e+00
0.000000000000000e+00 0.000000000000000e+00 0.000000000000000e+00
0.000000000000000e+00 0.000000000000000e+00 0.000000000000000e+00
0.000000000000000e+00 0.000000000000000e+00 0.000000000000000e+00
0.000000000000000e+00 0.000000000000000e+00 0.000000000000000e+00
0.000000000000000e+00 0.000000000000000e+00 0.000000000000000e+00
0.000000000000000e+00 0.000000000000000e+00 0.000000000000000e+00
0.000000000000000e+00 0.000000000000000e+00 0.000000000000000e+00
0.000000000000000e+00 0.000000000000000e+00 0.000000000000000e+00
0.000000000000000e+00 0.000000000000000e+00 0.000000000000000e+00
0.000000000000000e+00 0.000000000000000e+00 0.000000000000000e+00
0.000000000000000e+00 0.000000000000000e+00 0.000000000000000e+00
0.000000000000000e+00 0.000000000000000e+00 0.000000000000000e+00
0.000000000000000e+00 0.000000000000000e+00 0.000000000000000e+00
0.000000000000000e+00 0.000000000000000e+00 0.000000000000000e+00
0.000000000000000e+00 0.000000000000000e+00 0.000000000000000e+00
0.000000000000000e+00 0.000000000000000e+00 0.000000000000000e+00
0.000000000000000e+00 0.000000000000000e+00 0.000000000000000e+00
0.000000000000000e+00 0.000000000000000e+00 0.000000000000000e+00
0.000000000000000e+00 0.000000000000000e+00 0.000000000000000e+00
 7.724465131609457e-04 -1.376070298596226e-03  1.130382231703567e-04
-4.537344529589917e-05 -9.028356476269496e-04  5.930405077327974e-06
2.466847250070344e-03 1.582911022441325e-04 3.028125805287415e-04
-1.763946936618179e-03 -7.548581125922860e-05 -5.638998167962042e-04
 9.213569814924928e-04 -9.925848010814027e-04  2.746341574948229e-04
2.448519940619346e-03 3.432135033418537e-05 7.813855442394881e-04
1.155866095727449e-03 4.837300455957407e-04 8.427909134675833e-05
 1.286302162915349e-03 -6.886667728149223e-04  9.156381039842959e-05
 9.668133139270684e-04 -1.286484386553881e-03  6.742656024159709e-05
 1.111270525009408e-03 -1.425554889651262e-04  1.477402430953920e-04
 1.651254064930345e-03 -1.066350022675369e-04  2.166206055863294e-04
1.153988102760186e-03 6.192034840948593e-04 1.322024056545294e-04
2.801776671832852e-03 4.538935635574648e-04 3.362869547098220e-04
2.469473719138216e-04 9.519037154321194e-04 1.764905132622988e-05
8.523213507213816e-04 2.838597779673691e-05 1.037434075246200e-04
 2.627026844155244e-03  9.084651963480037e-04 -2.282881256300435e-04
 1.419877051088039e-03  1.157882750878667e-03 -1.193030772492193e-04
 2.995902864148885e-03  4.587976795157879e-04 -2.638783952742730e-04
 7.576820585727079e-04 -4.024561845115526e-04 -5.096518537984504e-05
 4.563967146305369e-03  7.638864620362066e-04 -2.705830970011690e-04
 3.201226307266217e-03  8.603987227035508e-04 -1.860834003635691e-04
1.528088509573669e-03 4.340450284093772e-04 4.127912686519566e-04
 2.834377229243484e-03 -2.648708991849126e-04  7.310144386161250e-04
 5.835120881664063e-04 -4.920484796284815e-04  1.363239991361524e-04
3.403025265769775e-04 2.819865536891731e-04 5.680633693340400e-05
-2.652374509443895e-03 -9.089460738380140e-04 -4.433219026740776e-04
6.529610918037824e-04 3.374817574644362e-04 1.090871598500939e-04
-1.373316749854964e-03 -5.219533801692040e-04  2.601765425201525e-04
-3.314078880095682e-03  4.478472746075734e-05  5.960859127480475e-04
 3.946575132763909e-04  4.572131689857416e-04 -8.225125234008419e-05
-1.216933983768503e-03 -4.294574078654480e-04  3.224196799763000e-04
-5.254163712731060e-04  7.028925979921455e-04  1.422322886768446e-04
-8.412150235506465e-04 -3.767574584796601e-04  2.226029273455255e-04
 3.842261883690725e-04  1.961500954129571e-04 -4.477477013804053e-05
 7.351406177607005e-04 -1.076985850940481e-04 -1.009189170320765e-04
-1.020722628492508e-03 -5.821761966727388e-04  1.170181541096169e-04
-4.405021135895098e-04  6.021725761429724e-04  6.604898998686331e-05
-8.521612480839084e-04 -1.198667680768945e-03  1.123918546720223e-04
 1.082704581800697e-04 -1.322301716122262e-05 -1.535696791703963e-05
-1.749057307122275e-03 -6.176932877252286e-04  4.564472508876691e-04
-2.378483103321448e-03 -3.672479075061498e-04  6.019117589719651e-04
-6.315476289625651e-04  7.453173038387729e-04  1.263129729810899e-04
-2.867074836588145e-05  4.224549878281176e-05  9.220615585943656e-06
-2.659825827036578e-03  8.487731311406907e-04  9.044043807578332e-04
-1.766169672992242e-03 -3.804616056776431e-04  6.156044469845657e-04
 4.073911547537564e-04  7.983130816638579e-04 -2.176737139932862e-04
-1.180430885625821e-03  8.508429068721447e-04  6.802272708594671e-04
 1.322173232369755e-04  6.324570448759469e-05 -7.370975804783621e-05
 6.644444744283068e-04  3.434703989028554e-04 -4.157601393518498e-04
 1.297974846427940e-03  3.077722743172712e-04 -8.160261566735522e-04
 7.876402188156039e-04  6.788370720672519e-04 -4.899671892004853e-04
 8.938036801119814e-04 -2.079348966369626e-04 -4.187088412261542e-04
 2.751552089950608e-03  1.483354780409170e-04 -1.284871502844028e-03
 9.221340063137219e-04  3.706780115942484e-04 -4.289275876573336e-04
 9.339553360974678e-04  3.501086512409644e-04 -2.931835562109166e-04
 1.253530498128106e-03 -1.216026837610245e-05 -4.000508826292698e-04
 6.498440557473832e-04 -2.431458514867799e-04 -2.106076434044841e-04
 2.206033150706059e-04  8.404987504605689e-05 -8.846389543647215e-05
-1.459037452072235e-03 -7.595598269964514e-05  5.857973240547654e-04
 4.571767170539170e-04  3.139691717817098e-04 -1.831250579746667e-04
-4.226676407746473e-04 -3.212621441715338e-04  2.680535626700167e-04
-1.917559180552911e-03  9.508484048753835e-05  1.214171427202146e-03
 1.385258359930730e-04  1.085030296361142e-04 -8.785634794721347e-05
-7.050203525183719e-04  1.769539888271873e-06  5.536368756335178e-04
-9.067556495770629e-04  4.545120537514219e-06  7.120886530349177e-04
-2.158619836092303e-04 -3.173599418943152e-04  1.648165409471607e-04
-8.444206964398564e-04  4.944386005330657e-04  6.489252668148581e-04
-1.192531843003456e-04 -2.444811630106612e-04  8.852367343412493e-05
-5.605838792802002e-04 -5.485764906297402e-05  4.269970053170994e-04
-2.208417828894861e-03  6.002834225115437e-04  1.473344277373421e-03
-7.899227819359777e-04  1.376796919137969e-04  5.283660922476513e-04
-9.634661167843193e-04  5.888652964299792e-04  6.369618032489056e-04
-1.294698719791250e-03 -4.173544440051000e-04  8.029215599603222e-04
-2.926760978274297e-03  9.577259776494504e-04  1.777565510361729e-03
-2.636641269905992e-03  7.851924822681510e-04  1.602892042257667e-03
 1.840081087005808e-04  1.428890533449164e-04 -1.631230546662638e-04
-3.395234551461783e-03  8.015259195261781e-04  3.151302754119170e-03
-1.334292205941638e-03 -4.235385440476027e-04  1.208048889824487e-03
-4.415259127734210e-04  1.121824565739380e-04  7.296755046819421e-04
-1.800306421949279e-03 -2.860967988998737e-04  2.919435928587577e-03
 1.906601627213065e-04 -2.393785319423542e-04 -3.294162199439567e-04
 3.499582739835450e-04 -5.685043043450629e-05 -6.917888106600865e-04
-7.402018527311589e-06 -8.047811089358728e-04 -5.451603596634164e-06
-1.139404030958335e-04 -6.869813763308643e-05  2.230614889928092e-04
 8.262795090503236e-05 -6.549756691339493e-04 -1.202122672725754e-04
 1.453187757341599e-03 -6.009989045207336e-04 -2.545955136162931e-03
 6.298741151048761e-04  4.387701577412537e-05 -1.115563339040967e-03
 3.594250214507501e-04  1.143297449965384e-04 -4.223676563495034e-04
 2.129107073438834e-03 -8.434541968731701e-05 -2.486011030661740e-03
 1.312378051621194e-04 -5.467332889042960e-04 -1.418988399742404e-04
 1.843655039873504e-03  3.754843386654174e-04 -1.607575829871386e-03
 1.189652035078268e-03  5.036287563755385e-04 -1.041504784520310e-03
 1.720505618847826e-04  2.612993963357635e-04 -1.536446561880937e-04
 8.202994779860082e-04 -3.882170299019060e-04 -9.151506355510316e-04
-6.294733292290160e-04  5.262656431852212e-04  7.015405558019972e-04
 1.325994981674748e-03  3.360274970376355e-04 -1.482352331854133e-03
-1.473983250697764e-04  9.501156891375338e-04  2.876241900363780e-04
-1.117011895427284e-03  2.562767103342922e-04  1.830840239302429e-03
 5.464185977770313e-04 -4.507295000844013e-04 -9.119531789166631e-04
-1.165861589277532e-04  1.546307524398573e-04  2.435351453003553e-04
-6.822084643712520e-04  9.835961867373527e-05  1.427928346888504e-03
-7.949392481368649e-05  7.958193658260177e-04  1.635943148499783e-04
-4.317324387054757e-04 -2.126514608506970e-04  1.013071376727007e-03
-1.808888887343607e-04  1.545919744388119e-04  4.218872733626142e-04
-2.016888475346847e-05  1.710235713360254e-04  4.541601613849224e-05
 7.735425009543065e-04  3.481810473968719e-04 -1.592058837482992e-03
 1.929306063944821e-04  2.742597137380255e-04 -3.913197092601858e-04
-4.362570904502746e-04 -1.973778397679687e-04  8.978470815796678e-04
 4.155287456025950e-04 -3.445351109134683e-04 -9.853808155442169e-04
 3.759518507547710e-04  1.314483024988546e-04 -8.778952449265994e-04
 7.152420121804096e-04  3.087188027148514e-04 -1.668376818148194e-03
-1.061988500651340e-04  6.166146424015594e-04  3.008470152238863e-04
 2.181728708218072e-04 -3.719131813299047e-05 -5.338274338692994e-04
 3.895307697081842e-04 -3.761717258883683e-04 -9.743271016996397e-04
 2.429586635862360e-04  4.251320687127789e-04 -5.468468431969336e-04
-1.416127910947754e-05  3.590362035629571e-05  3.179485071320799e-05
-1.607409950900812e-04  6.230490803191904e-04  3.606141799928752e-04
 1.797249446934619e-05 -7.745750940532602e-04 -1.959114896311780e-05
-3.490824199519367e-04  1.919862421839116e-04  8.984398428886102e-04
 1.524397729510441e-04  4.627025491598137e-04 -4.113950739044612e-04
 1.176752099308376e-03 -1.970804089873700e-04 -3.888638313565676e-03
-2.254467778180279e-04  1.119929283694864e-04  7.523476487376623e-04
-2.845373470374941e-05 -7.845491738734654e-04  1.590840136324695e-05
 7.725734538919689e-05  1.451866375916003e-04 -7.840254024972346e-04
 2.985346365691981e-05 -3.137197144544812e-04 -4.566462616699170e-04
 3.687477109312836e-04 -3.802163504207840e-04 -4.188120580429438e-03
-1.917063552554715e-04 -1.295057464373567e-04  1.892555941024166e-03
 1.682755840610978e-04 -5.536643914211790e-04 -1.731995189239320e-03
 1.171692323913366e-04  1.078819045691570e-04 -1.153667624117698e-03
 1.177369780943724e-03 -4.771897641152332e-05 -4.043729079251200e-03
 7.105283034400844e-04 -4.352597438641628e-04 -2.423414737976880e-03
-5.153780970393254e-04 -4.620733500976599e-05  1.772883175037188e-03
 6.244471344116232e-04 -5.223974968935689e-04 -2.724276767873268e-03
 4.600726298874516e-04 -7.561348819861605e-05 -2.038588093924043e-03
 8.807720684011335e-04  1.095234044474251e-05 -3.918536147469396e-03
 3.643608330038255e-04 -1.326596191861588e-03 -2.300231600489725e-03
 1.782895336334308e-04 -2.154964035244509e-05 -1.112917373461198e-03
 4.184963538121322e-04 -4.831078807294863e-04 -2.621042272324745e-03
 2.569136687693928e-04  1.118777475801639e-03 -2.006072475409794e-03
 9.532445047495206e-05 -4.653441498342023e-04 -1.189824113856529e-03
 1.615173554240146e-04 -1.426669654319370e-03 -2.338950153327144e-03
 1.252314286162933e-05  1.138870363896327e-03 -5.573321229760851e-04
 1.140409071167344e-04 -4.927548781546684e-04 -1.487015444692203e-03
 1.238089120834535e-04  1.048738458828855e-03 -2.137475838993839e-03
 3.106227119686233e-04 -1.759537953417727e-03 -1.582320536613540e-03
 1.024615818198913e-04  2.714628953919195e-04 -1.188867716964100e-03
-5.348112548830794e-05  1.327513964290155e-03 -5.297033108015850e-04
 1.119198086056654e-04  6.661276877667442e-05 -1.527534876616764e-03
 3.646308528743406e-05  7.947937224437640e-04 -2.993135816195024e-04
 7.201370891452448e-05 -1.660312271819495e-03 -1.419860425798636e-03
 6.064612778733202e-05  1.213293013661805e-03 -1.377424290542194e-03
2.287521075511936e-05 4.219598561200796e-04 3.253572992046272e-04
-8.977066261877913e-06 -1.111441294398461e-04 -1.416881675814653e-03
-2.034441266577123e-05 -1.859450110039934e-04 -2.233507591746008e-04
 2.495738316729354e-05 -1.996586937279319e-04  3.113093482342153e-04
-1.128731366474334e-04  1.066883968366236e-03 -1.422236078892830e-03
-5.725512168846890e-05  1.099643247684678e-04 -5.172205134712759e-04
 7.346806750383553e-06 -3.074584586204430e-04  6.012714736447354e-05
-3.027332158040979e-05 -1.978431259331229e-04 -2.789235829472900e-04
-2.427287759664979e-05 -4.717412727100336e-04 -2.307553299037941e-04
1.416747729872010e-05 8.826744653208798e-07 1.055642571855701e-04
-7.031101457014827e-05  1.600121499615985e-04 -5.064561746850082e-04
-1.872764444184159e-04 -1.655666568169810e-04 -1.147644778073444e-03
9.436542244982166e-05 1.072602114800925e-04 5.768071018846972e-04
-2.637177926700410e-05 -4.604063945023825e-04 -1.346201420502021e-04
-2.094941464287125e-04  3.984105367398414e-04 -8.594349547560284e-04
 1.859883208210328e-04 -9.782177553847194e-05  7.422910294650773e-04
-2.838127146459694e-04 -2.509640829028399e-04 -1.100316725264968e-03
-2.703524078252011e-04 -4.971920380021400e-04 -8.064697516786341e-04
 1.322730274343955e-04 -2.959341705359976e-04  3.881346784322222e-04
-3.011773133805122e-04  3.554826213861856e-04 -8.875602649072617e-04
-1.296007644987472e-03 -2.319470015367790e-04 -3.328389899574494e-03
-2.917259889466370e-04 -3.319982776720083e-04 -7.473182566648936e-04
-3.613630241617595e-04 -5.098083154336140e-04 -9.250430597584126e-04
-8.185537453054739e-04  1.810320723859512e-04 -1.644003817102889e-03
-1.230872313142045e-03 -3.791222863344742e-04 -2.475107369164725e-03
-1.730251191717344e-03 -2.808143172446217e-04 -3.478128155516854e-03
-9.954257100933115e-04 -8.143480686155834e-05 -2.476095686624609e-03
-1.564673165583495e-03 -1.066879602944164e-04 -3.890894186236026e-03
-7.817877589333952e-04  2.355195592024060e-04 -1.927961031188941e-03
-9.462328733173099e-04  7.520047115178877e-05 -3.032431842178070e-03
-1.198297009304904e-03  2.968023439349149e-04 -3.830039764658689e-03
-7.832017883206896e-04  1.016873119994804e-05 -2.512592556072772e-03
-9.496369300198074e-05  4.265622392023927e-04 -3.186373732993317e-04
-5.941960890720105e-04  5.232928246535196e-04 -1.997288526957645e-03
-8.262990430454037e-04  1.118102383338956e-04 -2.778480930709180e-03
-2.999699459728348e-04  1.181655414393544e-04 -1.088545933535018e-03
2.267225436984920e-04 5.277710599063056e-04 8.103557752371681e-04
3.328116904117014e-05 4.295771167212015e-04 1.118865756957415e-04
-5.262241520688249e-04  3.040673668757339e-04 -1.213465666387499e-03
1.076083785560082e-03 2.745076866710599e-04 2.434737148261401e-03
-3.407697226153487e-04  1.086202233215195e-05 -7.761173687095602e-04
6.919133594968489e-04 3.513240275927315e-05 9.603719028912272e-04
 1.272336364314375e-03 -1.246779781005534e-04  1.771203987604029e-03
-8.361022161569816e-04  1.843987113971475e-04 -1.166747184174625e-03
 1.652585110524521e-03 -3.965086438248799e-04  2.216565965130181e-03
 3.100505845730777e-04 -2.423835332078469e-04  4.180260289951254e-04
4.949366353557417e-04 2.090907930567427e-05 6.620456474342031e-04
7.013125597542878e-04 3.170026293771273e-04 1.230454779864353e-03
 4.167422425994409e-04 -1.594248080667517e-04  7.392714588320321e-04
 1.422522864596403e-03 -3.273449750804836e-04  2.518407965854076e-03
-3.382078209472170e-04 -5.624205039118920e-04 -6.079544024164128e-04
 1.024131575393741e-03 -8.827524423579263e-05  1.823573579710095e-03
8.368269304638089e-04 3.347072702477133e-04 1.494005519850683e-03
 5.834064682014497e-04 -3.480804694932691e-04  6.941140623743503e-04
 2.409183783555637e-03 -2.033744868252276e-04  2.838847796433220e-03
-1.914697837453622e-04 -6.973383085118576e-04 -2.097146366703016e-04
 1.113507280182468e-03 -4.312164632249760e-05  9.150045860451631e-04
 2.406232728625880e-03 -8.984660427481983e-04  1.993566597859629e-03
 7.069809477826564e-04 -5.720192749534649e-04  5.919651088345199e-04
 5.376339915987259e-04 -4.136122664017323e-04  4.009085003872884e-04
 3.727429685763592e-04 -9.710897089929676e-04  2.625480016152047e-04
 8.254104919704353e-04 -8.797405558432133e-05  6.278131629116234e-04
-4.917869250422142e-04 -1.365755074569516e-05 -4.191597053098590e-04
-2.247760156951228e-04 -7.383702703604173e-05 -1.936122863306415e-04
 4.741775379956326e-04 -2.639478563458164e-04  3.958234092532395e-04
-5.169527151978477e-04  1.504329942151519e-04 -4.061951529865834e-04
3.033027177894382e-04 6.090141428208963e-04 2.511697927371722e-04
-4.043666790534635e-04  8.764678495266048e-05 -3.182840727646509e-04
6.988558255846307e-05 2.380820956042502e-04 4.529031135755024e-05
6.532780592855218e-04 7.536221065779768e-04 4.310184847120087e-04
-4.219765020455940e-04  2.210495922684648e-04 -2.820909361614471e-04
-4.208165354382661e-04  1.473231008114636e-04 -2.544981316704142e-04
8.206224551699286e-04 1.498897911433416e-04 4.890209120215003e-04
9.136965253221659e-05 1.547528330392357e-04 5.215301332943426e-05
 2.374456668518694e-04 -3.580858725547341e-04  1.120140103203623e-04
 5.836473404324028e-04 -3.065429837431119e-04  2.718184848940326e-04
-5.903361786230536e-04  1.247328817951353e-04 -2.737981502443072e-04
5.721110900727601e-04 1.666674002873454e-04 2.582305334673793e-04
 2.471741003151991e-04 -4.306234674188163e-04  1.142395974441998e-04
 1.674837450612060e-04 -3.799252224236496e-04  7.787698871268519e-05
-1.287887641351733e-03 -2.028734594535003e-04 -5.821881493135195e-04
 1.299357795337283e-03 -8.476767062214215e-05  5.840391536192900e-04
7.592924055136215e-04 2.152763745283876e-04 3.443392600202231e-04
-8.470627106078602e-04 -2.393641471902795e-04 -1.619391720575759e-04
7.550905088475119e-04 4.011540045746318e-04 1.441952025136943e-04
-1.496654217827856e-03 -1.566613264800214e-04 -2.863545823113079e-04
-1.181048075589496e-03  2.127573781540562e-04 -2.087248736110729e-04
-2.573817924195834e-03 -1.396144771681097e-05 -4.470433952166759e-04
-1.393686104118318e-03 -3.149769494294128e-04 -2.370320282895336e-04
-2.796225616916310e-03 -4.151348339243242e-04 -9.874363964219185e-04
-3.007611137039214e-03 -4.873508864522901e-04 -1.061971549729036e-03
-1.172741399033139e-03  1.291805913163605e-04 -4.149628525860545e-04
-1.223600635913476e-03 -6.110773845183317e-05 -3.921819077923101e-04
-1.343045661861934e-03 -5.067196014185308e-04 -4.308744987555158e-04
-2.534506336615723e-03 -4.203134804021828e-04 -8.126194363388672e-04
-4.693151576733919e-04 -1.973376310195405e-04 -1.300821123865175e-04
 1.718922736960449e-04 -9.930176625918348e-05  4.577944756574267e-05
-1.021539452997470e-03 -1.163149757150566e-05 -2.786028188758544e-04
-8.523054412977335e-04 -2.462192834013493e-04 -1.450478104384275e-04
9.560952260041121e-04 2.432085842453828e-04 1.626869311748357e-04
-4.043327835186626e-04 -1.675772480955748e-04 -6.884764943030395e-05
2.607248467551588e-04 4.810898357443110e-04 6.940959805269190e-06
-1.220226022980365e-04 -1.400395690928918e-04 -4.011639299306940e-06
-1.094635100913662e-03 -3.351867561761224e-04 -4.424605120334790e-05
-4.041680844598293e-04 -1.886194833492220e-04 -4.590318041219041e-05
-5.503066194749724e-04 -1.356303591853538e-04 -6.130284451552422e-05
1.936915798185590e-04 4.866620439185386e-04 2.591548045454950e-05
-2.088575986779595e-03 -8.137252354885733e-04 -1.718392405292174e-04
3.920833360326084e-04 1.305984016342699e-04 3.217265906076515e-05
-2.004726320491435e-04 -1.201674393402135e-04 -1.665786179750323e-05
-7.529353532967101e-04  4.136231883229916e-04  8.216382214866616e-05
-4.957310337077213e-04 -2.742842068418488e-04  6.413846056280800e-05
-2.246316627593233e-03 -8.944523169677664e-04  2.842311018822193e-04
-2.535923142593966e-04  4.255497825263366e-04  2.135460982226242e-05
-2.208272777031456e-03 -5.549875813068773e-04  1.597147963834585e-04
-1.100056100497331e-03  3.365786519034590e-04  8.333789766148378e-05
-1.167473850149645e-03 -5.163352625875159e-04 -1.136659521601494e-04
-1.059132945020043e-03  2.425609053921591e-04 -8.365626524686259e-05
-9.725576055157025e-05  5.569455249452625e-04  6.953685874048723e-06
-2.120956303481451e-03 -2.743593131867574e-04  7.396116681042172e-05
 1.348773621345431e-03  8.263366557103167e-04 -5.020823707861501e-05
-7.352837291362519e-04 -4.154964917506809e-04  2.720066963065103e-05
-1.644554627636473e-03  5.445925243813532e-04  5.048499060170441e-04
-3.115390217339269e-04  6.595393975238073e-05  9.675011716772113e-05
-2.327149162954626e-03 -3.843820911708069e-04  7.489412661545723e-04
-1.458418969764766e-03  6.127178460457980e-05  4.417702588647237e-04
-4.002250698728969e-03 -6.726470410370725e-04  1.216053604637952e-03
-2.310634586217798e-03  4.002692546756721e-04  6.985700634775955e-04
-2.240236042279233e-03 -9.842917672427279e-04 -1.811054165557144e-05
-4.888138063065601e-03 -3.130991739115610e-04 -9.849323222493340e-06
-1.797890328073333e-03  1.322493833214989e-04  3.782220023534123e-07
-1.554488357423341e-03 -9.088227967241147e-05 -9.994272986786161e-05
 5.238470467539070e-04 -3.760327928243147e-05  3.425584962149854e-05
-1.397635856788948e-03 -9.131680216276783e-04 -8.283719493219679e-05
 6.989545815519627e-04  4.538475116366356e-05 -1.814897118056596e-04
 2.468729569121555e-03 -5.235917716440800e-04 -6.391613557156671e-04
-1.402102440296485e-03 -1.537609127039524e-04  3.642393755583099e-04
 2.133325184804631e-03 -7.186621757601511e-04 -7.711470970434187e-04
 7.091432503467644e-04 -4.403896054383323e-04 -2.592778618044045e-04
 2.969820746829605e-04  8.331092903276413e-05 -1.046774998688910e-04
-7.139903909895740e-04  2.342733972079686e-04  1.504443634925733e-04
 6.194386574412267e-04 -2.360903246188691e-04 -1.306815631727307e-04
 2.171072223289654e-03 -7.151682476895856e-04 -4.574785995751700e-04
 8.802528641792198e-04 -7.819953357671333e-05 -3.229686011150798e-04
 1.687797868734573e-03  3.046450107755137e-05 -6.165863009458802e-04
-4.669355772149387e-04  2.547835923450659e-04  1.744823965541273e-04
 1.357816241254315e-03  5.713397129004888e-04 -6.175637911520249e-04
 1.670893051835803e-03  3.915174402648007e-04 -7.622041792197043e-04
 8.043391832063573e-04 -2.197429234884820e-05 -3.684293149060803e-04
-6.348062293888335e-05 -7.124154359516207e-04  2.643048645035247e-05
 1.506522647899223e-03  5.450681533676879e-04 -7.429621907439978e-04
 1.331453743914985e-03  6.079358665458726e-04 -6.557320123112652e-04
-2.161842706322331e-04 -4.075864352513508e-04  1.523476632499766e-04
 8.869065909046322e-04 -3.510822065143219e-05 -5.724181295101745e-04
-1.144950441962097e-04 -7.125902805445987e-04  9.598875309832187e-05
-1.101875903891165e-03  4.685834556984033e-04  7.936978822889443e-04
-3.289614156413310e-04 -1.066321957481790e-03  2.688642905312269e-04
-3.909422406148352e-04 -5.933256727959021e-04  3.016949538038862e-04
-5.832361015711911e-04 -1.047194422866022e-03  3.965762025430161e-04
-1.507436651501910e-03 -1.060982098037359e-03  1.092085911401783e-03
-1.298704080537307e-03  4.854133449211835e-04  9.979237817844436e-04
 9.291911301952962e-04 -4.979002600287026e-04 -5.784974159466744e-04
-1.633926175811583e-03 -2.930588287058025e-04  9.802798982210246e-04
-7.009628386426238e-04 -9.511029708041169e-04  3.944311650169881e-04
-4.578984007684276e-04  6.283220079737570e-04  2.056036201683837e-04
 1.261897037019875e-03  1.649902665533249e-04 -5.400656057017915e-04
 1.452809563508343e-03 -5.024684469481371e-04 -6.314640336644700e-04
-2.648817859137248e-03 -9.803755673441486e-06  1.987499264421370e-03
 1.922540372390257e-03  3.459602770527360e-04 -1.433400925233987e-03
-3.351806402765706e-04  6.335059529803166e-04  2.686329683665468e-04
 2.439001700618800e-03  2.518112718259268e-04 -3.571781325861382e-03
 7.770971163955975e-04  4.346022735834193e-04 -1.133857284032733e-03
-2.055337115503202e-03  8.719745823052607e-05  3.013438918576303e-03
 4.876088449620441e-04  4.452536880088002e-04 -5.013715872597116e-04
-1.216962897476917e-04  4.325879012352411e-04  1.237710006116748e-04
 2.708125989066960e-03  2.265448574515392e-04 -2.778943252566672e-03
-1.848368241760341e-03 -4.396977952435865e-04  1.554572759014897e-03
-6.609469921702966e-04  2.243228426009425e-04  5.558930524062705e-04
 5.481968083482984e-04  4.401160027629780e-04 -4.610595706790326e-04
 4.499427508401521e-04  8.988044158396923e-05 -4.718141513334453e-04
-1.818311418816218e-05 -1.525621342762021e-04  2.234797817808097e-05
-1.589792218031295e-03 -4.652363416142102e-04  1.670323915917156e-03
-1.759021254315283e-04  3.996026873638888e-04  1.819257913301389e-04
 4.723296309538202e-04 -2.804357300140474e-04 -4.912348858955044e-04
 5.050878215816599e-04  5.332401184569182e-05 -5.265211335008404e-04
-2.051842056694393e-06 -8.744274381768009e-04 -2.739162410374191e-05
 4.934187767896741e-04 -2.722877683289500e-04 -5.923849400393047e-04
-1.353605294322736e-04  4.057823858057400e-04  1.737995160093465e-04
 2.577648920274279e-03 -2.981348115469900e-04 -3.447361890325146e-03
 1.099475476652258e-03 -1.967456822456236e-04 -1.470517112393844e-03
 5.474819032638502e-05 -7.888666349527210e-04 -7.403640125828180e-05
-1.378089990684961e-03  7.821724217611664e-04  1.502043868207077e-03
 1.492866855609931e-03 -1.402846379774650e-04 -1.631286140881639e-03
 3.004705882152822e-03 -3.733646197371566e-04 -3.282770425579041e-03
-9.294704449589642e-04 -2.667351163087178e-04  1.614273450423773e-03
 5.555819448628889e-04  2.360922003962816e-05 -9.720935773155804e-04
-1.017757584969003e-03  7.562683986150863e-04  1.823002415323522e-03
 8.617798782805643e-04  2.371800298347799e-05 -2.340705286944269e-03
 3.112776508201265e-04  2.847216730789740e-04 -8.349408628856911e-04
-6.531468245163874e-04 -9.934800612146214e-05  1.770928408666391e-03
-3.425255218422013e-04 -4.245854147869244e-06  6.972784826613053e-04
-4.070183988667993e-04  3.755280588003487e-04  8.267193952800101e-04
 9.357291833502896e-04  4.907436959113081e-06 -1.904829448205321e-03
-1.320851619028528e-03 -4.433153163045378e-04  2.485016137960352e-03
-7.378074577530732e-04  1.751847866448203e-05  1.380084984795162e-03
-3.696383032501946e-04 -6.317300831296288e-05  6.935892643381285e-04
-8.692123771296186e-04  1.977080695220996e-04  1.889654179418644e-03
-6.371756252021090e-04 -4.709174787489034e-04  1.416982614291644e-03
-1.157537053368842e-03 -5.126328223527198e-04  2.556498829954137e-03
-2.002533378085799e-04  9.706039502659533e-05  4.794005884842848e-04
-5.426637092929170e-04 -5.909042274797444e-04  1.274500755675947e-03
-8.125281933520177e-04  1.633815112029630e-04  1.938524533642330e-03
-1.632346346053653e-04 -6.523306037709312e-04  2.957081132527040e-04
-3.755977034088394e-04 -3.278292557988960e-04  7.860943087147805e-04
-1.871459507257794e-04  1.585735953635170e-04  4.206793254699125e-04
-3.259756994394254e-04 -1.185768191995325e-04  6.883085068718163e-04
-1.967335654413718e-05 -2.112405078809696e-05  4.092695177840758e-05
-9.120188934651520e-05 -6.104830595075695e-04  1.671984385889210e-04
-7.940316685061859e-04  3.946848959496856e-04  1.993174615113839e-03
 1.113114790012569e-04  2.478754242814718e-04 -2.739009797931413e-04
-2.442880722969754e-04 -8.163353979656599e-05  6.095189318414523e-04
-1.741710799440556e-04 -8.743460457977633e-05  6.908613070947883e-04
 1.528511891839565e-04  2.507609714892859e-04 -5.992611519497674e-04
-4.857224796611695e-04  3.877856419467225e-04  1.952177796761849e-03
 7.281066812805038e-05  2.225706029491205e-04 -3.917235579821221e-04
 1.485271090205986e-05  1.592936041730094e-04 -8.128924709330782e-05
-1.540278829614901e-04 -8.241032738695547e-05  8.239639045937187e-04
-6.713272942393166e-04  2.498523704850722e-05  3.119420922455137e-03
-2.158957861888514e-04  4.483787743382306e-05  1.003508315387284e-03
 5.734658879692567e-05  2.007748104887532e-04 -2.647225912071744e-04
-2.769555161711703e-04  1.197477661799499e-04  1.987409407728297e-03
-2.760099324612853e-04 -4.508188856435311e-06  1.977501859247361e-03
-4.609128479309940e-04  2.579579316116648e-05  3.303098104703354e-03
-1.002776984446801e-04  6.201286414814225e-04  7.596924125771382e-04
-2.800396958109133e-04  1.628651970064310e-04  2.024992090616227e-03
-2.845110322369796e-04  1.349132701090274e-04  2.055444441409418e-03
-7.081144406177091e-04 -1.088877104104760e-03  3.390743750190529e-03
-4.466115768966150e-04  1.581083390059539e-04  2.243898079467783e-03
-1.408337866731136e-04  6.452262426676194e-04  7.818174979533957e-04
-2.361869081495330e-04 -1.565824798268210e-04  1.610495838473309e-03
-2.810743377521645e-04 -6.692934312572026e-05  1.896561626455741e-03
-4.725411177416852e-04 -1.082203204251200e-03  3.350980716077636e-03
-1.115350412251249e-04  1.429920990929745e-03  5.501240325703713e-04
-1.321928387649160e-04 -2.509094702808891e-04  9.805324876091068e-04
-2.075082613486414e-04 -2.378899318346319e-04  1.512844870615741e-03
-2.869760005360745e-04 -5.170198047045249e-04  1.886601854055073e-03
-3.291505532244880e-05 -1.611016772803117e-04  1.796583720742200e-04
1.727894260137829e-05 1.460242550230331e-03 4.019986083302484e-04
 6.631118088771135e-06 -4.547250613971855e-05 -1.761155886426509e-04
 3.668215940274670e-05  3.284158454656649e-04 -5.755671385528154e-04
-9.287325929044147e-05 -3.488112205270937e-04  1.789045493540074e-03
 4.064501175191909e-07 -2.295253571660084e-04 -1.529576483701734e-04
 6.970972132185919e-06  6.477711137937167e-04 -1.174964089891298e-03
 1.201353719578574e-06  1.797883655837187e-05 -2.320793459735700e-04
 1.123235909786840e-04 -1.946185175610776e-04  2.169905465072612e-03
-5.023301996459435e-05  2.003742240310564e-04 -8.885471729907279e-04
 3.553083939053700e-06 -3.217624658682315e-04 -1.593442786671521e-04
-2.367840636953968e-04  1.356836562937397e-03 -1.008146491334686e-03
-5.357021010724205e-05 -2.555628508610081e-04 -3.608956991486876e-04
 4.213222497425743e-04 -3.784126467363277e-04  2.274509094609125e-03
-6.692158527021622e-05 -4.382406310769893e-04 -3.443030330134186e-04
-2.112709420149281e-05 -3.862620031132371e-04 -5.482735554801164e-05
-9.371378044742933e-05  1.319577114940214e-03 -9.022295465529072e-04
 7.835129573467127e-05 -1.074423491934868e-04  6.170313168397516e-04
-1.256749151362701e-05  4.183710424591628e-06 -9.578235398503968e-05
-5.965850832970866e-05 -3.426863451991481e-04 -3.660879285571088e-04
7.599687200604715e-05 2.005956869056507e-04 3.997857701124347e-04
-1.853643144470778e-04  6.290008972455847e-04 -1.056207976345421e-03
 8.054388525737674e-05 -6.893145434985145e-06  4.396213723175570e-04
 9.010150198323927e-04 -3.578681726899803e-04  3.268413896322435e-03
-2.604976592414578e-04  5.922684705917768e-04 -9.242940584098476e-04
1.037432744304218e-04 1.925017374625844e-04 3.862026901766842e-04
-2.569847797219598e-04  9.720999180555952e-04 -4.272414326485802e-04
1.083193088554772e-04 2.248525985447697e-05 2.247761208530460e-04
 1.583803717057762e-03 -5.439836498723738e-04  3.196345476425941e-03
-3.156068762331517e-04  4.028334198451951e-06 -7.681099401883508e-04
 6.642995303679483e-04 -3.842882101148774e-04  1.617590519542464e-03
-5.508319711290360e-05  8.761944987427545e-04 -1.360344232978775e-04
 8.448905860608590e-04 -9.862884793342944e-04  3.193113938889122e-03
 4.231483262341301e-04 -2.796267006320883e-04  1.585387034159949e-03
-2.424767117033289e-04  7.213775963686326e-05 -9.027913239947336e-04
4.247279655741466e-04 7.060599905282574e-04 1.171120846808114e-03
 1.010541223519117e-04 -2.116017135389758e-04  2.642830732352675e-04
 1.053251941014697e-03 -1.029000853835328e-03  2.799028979985719e-03
 4.289336894731246e-04 -1.142910200160752e-04  9.394671357555686e-04
-2.305200084024017e-04 -8.335855810244613e-05 -4.971613758480469e-04
4.809849201852987e-04 7.467916869335398e-04 1.006742552799413e-03
 6.188962605840950e-04 -1.505804976812344e-04  1.113099436926889e-03
-8.604098526106063e-05  3.914977030970305e-04 -1.665028923759459e-04
 5.306348545912116e-04 -7.062095722426624e-06  9.504873720362720e-04
2.514778039120909e-04 6.604852980898412e-04 4.091040620095783e-04
4.279945278604827e-04 5.330210764256547e-04 6.855311329550083e-04
 7.556047664943278e-04 -1.103224293543455e-04  1.191187680399850e-03
 9.665651185104293e-04 -3.285272575688640e-04  1.640570827742311e-03
6.724046213451196e-04 3.680369366329893e-04 1.144153621921801e-03
2.755803031164864e-04 6.242727509610360e-04 4.711988620654927e-04
 6.931988983351674e-04 -9.458932373563331e-05  1.092355249691184e-03
 5.701438350106757e-04 -1.316793004416403e-06  9.020788602199043e-04
 9.973662735728909e-04 -3.943528413354326e-04  1.559389801891353e-03
-1.776764294789262e-04 -2.174249516409310e-04 -2.754241720473139e-04
 3.025845039046084e-04 -7.183331444069385e-04  4.340684653334316e-04
 6.884851962362231e-04 -2.116813662693941e-04  1.033376423288334e-03
 1.187049188817189e-04 -2.443176156189481e-04  1.905128110226995e-04
-4.047755425077283e-04 -9.554630158664953e-04 -6.212799593870109e-04
-2.797968031919960e-04 -2.559215420704319e-04 -4.358665351769633e-04
-5.441469450161112e-04 -4.466276345941288e-04 -6.852634471520774e-04
-1.498205386543144e-03 -4.100727432123076e-04 -1.928667238206450e-03
-4.413851564257179e-05 -1.400578851017619e-04 -5.027428162684333e-05
-1.096741219864620e-03 -1.316482795697932e-04 -1.120721372190555e-03
-2.348620457430564e-03  3.591694940139118e-04 -2.416529069021628e-03
-7.123314118839364e-04 -3.223380252552738e-04 -7.217902258572950e-04
2.217934226911318e-04 8.011360074573400e-04 1.808121056172948e-04
-2.456288188228084e-03  2.846796919417603e-04 -2.000024754977117e-03
-1.210461028342222e-03 -1.503358667161019e-04 -9.856904557795363e-04
3.195150936409191e-04 2.483577628275665e-04 1.706167253967821e-04
-5.541279558794552e-04  4.940917740436253e-04 -3.172098467721074e-04
5.412743554783433e-04 9.549345552991066e-04 2.767220121644818e-04
-2.507048079966557e-03  2.213719271324642e-04 -1.553527833570656e-03
1.907209949980084e-03 1.005171159285678e-03 1.177649580470752e-03
7.225542849902591e-04 3.144112760345834e-04 4.463938683183144e-04
3.641796404368567e-04 3.757330295460817e-04 4.111011459350676e-04
-3.763718026436330e-04  5.330449632512004e-04 -4.017890592132625e-04
-2.380326939281264e-03  1.472245882273471e-04 -2.621819183129837e-03
2.580476752657677e-04 1.977965693138210e-04 1.974017576599823e-04
-4.246185913583431e-03 -5.429727710487462e-05 -3.187156652196906e-03
-2.530139811047434e-04  3.182338926774688e-04 -1.837734947328304e-04
-1.652189406135377e-03 -1.919744103395515e-04 -2.741347790003046e-04
-4.986428837350820e-03 -3.814772688881787e-04 -8.269533469370008e-04
3.451599820428701e-04 2.150818769078079e-04 5.762820325811344e-05
 3.978067574675430e-04 -5.948078497155411e-04  4.134004445380180e-05
 1.746662739669745e-03 -2.040524802311415e-04  1.779060184851879e-04
-5.466253713521354e-04 -1.520602952906560e-04 -5.535294051029934e-05
2.265980712556070e-03 2.862057657467241e-05 8.837898898657001e-04
 4.466596593896419e-03 -4.143166472555073e-04  1.738107375430031e-03
 8.818751761311455e-04 -5.664485852732085e-04  3.390720976607785e-04
3.781718012155390e-03 1.913677368147606e-04 1.952612502229138e-03
 1.820528961099585e-03 -6.060251183613566e-04  9.478416385942610e-04
 1.709536301460765e-03 -2.238088250416493e-05  8.839081660476355e-04
1.996478418936234e-03 2.178990555891096e-04 4.974602884032011e-04
1.271221445950263e-03 2.292153499202127e-04 3.142083932849768e-04
4.083362950202580e-03 3.886782093288641e-04 1.019047143599752e-03
-5.502335655083713e-04  5.742387537995473e-04 -1.502145888420175e-04
2.957467462228810e-03 1.198411781213722e-03 7.469357070083501e-04
2.365270916833655e-03 3.727589148214036e-04 6.056346623698076e-04
3.115067846962471e-03 7.496075991798979e-04 1.712537178760138e-03
1.259543572097941e-03 1.286647079479922e-03 7.027398372926207e-04
-7.408195558899731e-04  5.780930174352109e-04 -3.993560055100735e-04
 2.018361068011652e-03 -1.712536661371055e-06  5.172755743956694e-04
-5.587112494049373e-04  8.068558166623911e-04 -1.245811651482047e-04
3.090939718103438e-03 7.203614744296623e-04 8.088449759045440e-04
-2.271333585624583e-03  1.240556084363662e-04 -1.529208905963396e-04
 5.652449434657797e-04 -7.306516215618506e-05  3.663302653956510e-05
 2.520280766299979e-03 -1.601079902252546e-04  1.689243309795901e-04

VECTORS velocity double
0.000000000000000e+00 0.000000000000000e+00 0.000000000000000e+00
0.000000000000000e+00 0.000000000000000e+00 0.000000000000000e+00
0.000000000000000e+00 0.000000000000000e+00 0.000000000000000e+00
0.000000000000000e+00 0.000000000000000e+00 0.000000000000000e+00
0.000000000000000e+00 0.000000000000000e+00 0.000000000000000e+00
0.000000000000000e+00 0.000000000000000e+00 0.000000000000000e+00
0.000000000000000e+00 0.000000000000000e+00 0.000000000000000e+00
0.000000000000000e+00 0.000000000000000e+00 0.000000000000000e+00
0.000000000000000e+00 0.000000000000000e+00 0.000000000000000e+00
0.000000000000000e+00 0.000000000000000e+00 0.000000000000000e+00
0.000000000000000e+00 0.000000000000000e+00 0.000000000000000e+00
0.000000000000000e+00 0.000000000000000e+00 0.000000000000000e+00
0.000000000000000e+00 0.000000000000000e+00 0.000000000000000e+00
0.000000000000000e+00 0.000000000000000e+00 0.000000000000000e+00
0.000000000000000e+00 0.000000000000000e+00 0.000000000000000e+00
0.000000000000000e+00 0.000000000000000e+00 0.000000000000000e+00
0.000000000000000e+00 0.000000000000000e+00 0.000000000000000e+00
0.000000000000000e+00 0.000000000000000e+00 0.000000000000000e+00
0.000000000000000e+00 0.000000000000000e+00 0.000000000000000e+00
0.000000000000000e+00 0.000000000000000e+00 0.000000000000000e+00
0.000000000000000e+00 0.000000000000000e+00 0.000000000000000e+00
0.000000000000000e+00 0.000000000000000e+00 0.000000000000000e+00
0.000000000000000e+00 0.000000000000000e+00 0.000000000000000e+00
0.000000000000000e+00 0.000000000000000e+00 0.000000000000000e+00
0.000000000000000e+00 0.000000000000000e+00 0.000000000000000e+00
0.000000000000000e+00 0.000000000000000e+00 0.000000000000000e+00
0.000000000000000e+00 0.000000000000000e+00 0.000000000000000e+00
0.000000000000000e+00 0.000000000000000e+00 0.000000000000000e+00
0.000000000000000e+00 0.000000000000000e+00 0.000000000000000e+00
0.000000000000000e+00 0.000000000000000e+00 0.000000000000000e+00
0.000000000000000e+00 0.000000000000000e+00 0.000000000000000e+00
0.000000000000000e+00 0.000000000000000e+00 0.000000000000000e+00
0.000000000000000e+00 0.000000000000000e+00 0.000000000000000e+00
0.000000000000000e+00 0.000000000000000e+00 0.000000000000000e+00
0.000000000000000e+00 0.000000000000000e+00 0.000000000000000e+00
0.000000000000000e+00 0.000000000000000e+00 0.000000000000000e+00
0.000000000000000e+00 0.000000000000000e+00 0.000000000000000e+00
0.000000000000000e+00 0.000000000000000e+00 0.000000000000000e+00
0.000000000000000e+00 0.000000000000000e+00 0.000000000000000e+00
0.000000000000000e+00 0.000000000000000e+00 0.000000000000000e+00
0.000000000000000e+00 0.000000000000000e+00 0.000000000000000e+00
0.000000000000000e+00 0.000000000000000e+00 0.000000000000000e+00
0.000000000000000e+00 0.000000000000000e+00 0.000000000000000e+00
0.000000000000000e+00 0.000000000000000e+00 0.000000000000000e+00
0.000000000000000e+00 0.000000000000000e+00 0.000000000000000e+00
0.000000000000000e+00 0.000000000000000e+00 0.000000000000000e+00
0.000000000000000e+00 0.000000000000000e+00 0.000000000000000e+00
0.000000000000000e+00 0.000000000000000e+00 0.000000000000000e+00
0.000000000000000e+00 0.000000000000000e+00 0.000000000000000e+00
0.000000000000000e+00 0.000000000000000e+00 0.000000000000000e+00
0.000000000000000e+00 0.000000000000000e+00 0.000000000000000e+00
0.000000000000000e+00 0.000000000000000e+00 0.000000000000000e+00
0.000000000000000e+00 0.000000000000000e+00 0.000000000000000e+00
0.000000000000000e+00 0.000000000000000e+00 0.000000000000000e+00
0.000000000000000e+00 0.000000000000000e+00 0.000000000000000e+00
0.000000000000000e+00 0.000000000000000e+00 0.000000000000000e+00
0.000000000000000e+00 0.000000000000000e+00 0.000000000000000e+00
0.000000000000000e+00 0.000000000000000e+00 0.000000000000000e+00
0.000000000000000e+00 0.000000000000000e+00 0.000000000000000e+00
0.000000000000000e+00 0.000000000000000e+00 0.000000000000000e+00
0.000000000000000e+00 0.000000000000000e+00 0.000000000000000e+00
0.000000000000000e+00 0.000000000000000e+00 0.000000000000000e+00
0.000000000000000e+00 0.000000000000000e+00 0.000000000000000e+00
0.000000000000000e+00 0.000000000000000e+00 0.000000000000000e+00
0.000000000000000e+00 0.000000000000000e+00 0.000000000000000e+00
0.000000000000000e+00 0.000000000000000e+00 0.000000000000000e+00
0.000000000000000e+00 0.000000000000000e+00 0.000000000000000e+00
0.000000000000000e+00 0.000000000000000e+00 0.000000000000000e+00
0.000000000000000e+00 0.000000000000000e+00 0.000000000000000e+00
0.000000000000000e+00 0.000000000000000e+00 0.000000000000000e+00
0.000000000000000e+00 0.000000000000000e+00 0.000000000000000e+00
0.000000000000000e+00 0.000000000000000e+00 0.000000000000000e+00
0.000000000000000e+00 0.000000000000000e+00 0.000000000000000e+00
0.000000000000000e+00 0.000000000000000e+00 0.000000000000000e+00
0.000000000000000e+00 0.000000000000000e+00 0.000000000000000e+00
0.000000000000000e+00 0.000000000000000e+00 0.000000000000000e+00
0.000000000000000e+00 0.000000000000000e+00 0.000000000000000e+00
0.000000000000000e+00 0.000000000000000e+00 0.000000000000000e+00
0.000000000000000e+00 0.000000000000000e+00 0.000000000000000e+00
0.000000000000000e+00 0.000000000000000e+00 0.000000000000000e+00
0.000000000000000e+00 0.000000000000000e+00 0.000000000000000e+00
0.000000000000000e+00 0.000000000000000e+00 0.000000000000000e+00
0.000000000000000e+00 0.000000000000000e+00 0.000000000000000e+00
0.000000000000000e+00 0.000000000000000e+00 0.000000000000000e+00
0.000000000000000e+00 0.000000000000000e+00 0.000000000000000e+00
0.000000000000000e+00 0.000000000000000e+00 0.000000000000000e+00
0.000000000000000e+00 0.000000000000000e+00 0.000000000000000e+00
0.000000000000000e+00 0.000000000000000e+00 0.000000000000000e+00
0.000000000000000e+00 0.000000000000000e+00 0.000000000000000e+00
0.000000000000000e+00 0.000000000000000e+00 0.000000000000000e+00
0.000000000000000e+00 0.000000000000000e+00 0.000000000000000e+00
0.000000000000000e+00 0.000000000000000e+00 0.000000000000000e+00
0.000000000000000e+00 0.000000000000000e+00 0.000000000000000e+00
0.000000000000000e+00 0.000000000000000e+00 0.000000000000000e+00
0.000000000000000e+00 0.000000000000000e+00 0.000000000000000e+00
0.000000000000000e+00 0.000000000000000e+00 0.000000000000000e+00
0.000000000000000e+00 0.000000000000000e+00 0.000000000000000e+00
0.000000000000000e+00 0.000000000000000e+00 0.000000000000000e+00
0.000000000000000e+00 0.000000000000000e+00 0.000000000000000e+00
0.000000000000000e+00 0.000000000000000e+00 0.000000000000000e+00
0.000000000000000e+00 0.000000000000000e+00 0.000000000000000e+00
0.000000000000000e+00 0.000000000000000e+00 0.000000000000000e+00
0.000000000000000e+00 0.000000000000000e+00 0.000000000000000e+00
0.000000000000000e+00 0.000000000000000e+00 0.000000000000000e+00
0.000000000000000e+00 0.000000000000000e+00 0.000000000000000e+00
0.000000000000000e+00 0.000000000000000e+00 0.000000000000000e+00
0.000000000000000e+00 0.000000000000000e+00 0.000000000000000e+00
0.000000000000000e+00 0.000000000000000e+00 0.000000000000000e+00
0.000000000000000e+00 0.000000000000000e+00 0.000000000000000e+00
0.000000000000000e+00 0.000000000000000e+00 0.000000000000000e+00
0.000000000000000e+00 0.000000000000000e+00 0.000000000000000e+00
0.000000000000000e+00 0.000000000000000e+00 0.000000000000000e+00
0.000000000000000e+00 0.000000000000000e+00 0.000000000000000e+00
0.000000000000000e+00 0.000000000000000e+00 0.000000000000000e+00
0.000000000000000e+00 0.000000000000000e+00 0.000000000000000e+00
0.000000000000000e+00 0.000000000000000e+00 0.000000000000000e+00
0.000000000000000e+00 0.000000000000000e+00 0.000000000000000e+00
0.000000000000000e+00 0.000000000000000e+00 0.000000000000000e+00
0.000000000000000e+00 0.000000000000000e+00 0.000000000000000e+00
0.000000000000000e+00 0.000000000000000e+00 0.000000000000000e+00
0.000000000000000e+00 0.000000000000000e+00 0.000000000000000e+00
0.000000000000000e+00 0.000000000000000e+00 0.000000000000000e+00
0.000000000000000e+00 0.000000000000000e+00 0.000000000000000e+00
0.000000000000000e+00 0.000000000000000e+00 0.000000000000000e+00
0.000000000000000e+00 0.000000000000000e+00 0.000000000000000e+00
0.000000000000000e+00 0.000000000000000e+00 0.000000000000000e+00
0.000000000000000e+00 0.000000000000000e+00 0.000000000000000e+00
0.000000000000000e+00 0.000000000000000e+00 0.000000000000000e+00
0.000000000000000e+00 0.000000000000000e+00 0.000000000000000e+00
0.000000000000000e+00 0.000000000000000e+00 0.000000000000000e+00
0.000000000000000e+00 0.000000000000000e+00 0.000000000000000e+00
0.000000000000000e+00 0.000000000000000e+00 0.000000000000000e+00
0.000000000000000e+00 0.000000000000000e+00 0.000000000000000e+00
0.000000000000000e+00 0.000000000000000e+00 0.000000000000000e+00
0.000000000000000e+00 0.000000000000000e+00 0.000000000000000e+00
0.000000000000000e+00 0.000000000000000e+00 0.000000000000000e+00
0.000000000000000e+00 0.000000000000000e+00 0.000000000000000e+00
0.000000000000000e+00 0.000000000000000e+00 0.000000000000000e+00
0.000000000000000e+00 0.000000000000000e+00 0.000000000000000e+00
0.000000000000000e+00 0.000000000000000e+00 0.000000000000000e+00
0.000000000000000e+00 0.000000000000000e+00 0.000000000000000e+00
0.000000000000000e+00 0.000000000000000e+00 0.000000000000000e+00
0.000000000000000e+00 0.000000000000000e+00 0.000000000000000e+00
0.000000000000000e+00 0.000000000000000e+00 0.000000000000000e+00
0.000000000000000e+00 0.000000000000000e+00 0.000000000000000e+00
0.000000000000000e+00 0.000000000000000e+00 0.000000000000000e+00
0.000000000000000e+00 0.000000000000000e+00 0.000000000000000e+00
0.000000000000000e+00 0.000000000000000e+00 0.000000000000000e+00
0.000000000000000e+00 0.000000000000000e+00 0.000000000000000e+00
0.000000000000000e+00 0.000000000000000e+00 0.000000000000000e+00
0.000000000000000e+00 0.000000000000000e+00 0.000000000000000e+00
0.000000000000000e+00 0.000000000000000e+00 0.000000000000000e+00
0.000000000000000e+00 0.000000000000000e+00 0.000000000000000e+00
0.000000000000000e+00 0.000000000000000e+00 0.000000000000000e+00
0.000000000000000e+00 0.000000000000000e+00 0.000000000000000e+00
0.000000000000000e+00 0.000000000000000e+00 0.000000000000000e+00
0.000000000000000e+00 0.000000000000000e+00 0.000000000000000e+00
0.000000000000000e+00 0.000000000000000e+00 0.000000000000000e+00
0.000000000000000e+00 0.000000000000000e+00 0.000000000000000e+00
0.000000000000000e+00 0.000000000000000e+00 0.000000000000000e+00
0.000000000000000e+00 0.000000000000000e+00 0.000000000000000e+00
0.000000000000000e+00 0.000000000000000e+00 0.000000000000000e+00
0.000000000000000e+00 0.000000000000000e+00 0.000000000000000e+00
0.000000000000000e+00 0.000000000000000e+00 0.000000000000000e+00
0.000000000000000e+00 0.000000000000000e+00 0.000000000000000e+00
0.000000000000000e+00 0.000000000000000e+00 0.000000000000000e+00
0.000000000000000e+00 0.000000000000000e+00 0.000000000000000e+00
0.000000000000000e+00 0.000000000000000e+00 0.000000000000000e+00
 1.143489137321626e+00 -4.653902316934272e-03  1.704863493099145e-01
-6.205890035048939e-02  2.086104934866438e-04  1.158286013127632e-02
 3.504468877004602e+00 -1.406727873909901e-02  4.297894877452304e-01
-2.356191865230837e+00  1.043739417352986e-02 -7.531278786824480e-01
 1.263595313255798e+00 -5.542772636289466e-03  3.779847982095105e-01
 3.219855395927626e+00 -1.425963375891611e-02  1.027484333527084e+00
 1.705319027989475e+00 -6.663590358594705e-03  1.230172328348738e-01
 1.898576695452863e+00 -7.418846357258563e-03  1.370034918975280e-01
 1.441910089496713e+00 -5.634443549169702e-03  1.040783075275656e-01
 1.624449036987816e+00 -6.556710190078105e-03  2.162908116483875e-01
 2.386612906198943e+00 -9.623621405891809e-03  3.133226883877548e-01
 1.688531664329112e+00 -6.745903401908931e-03  1.919040140351394e-01
 3.947360184409072e+00 -1.582101864044921e-02  4.726991167720545e-01
 3.643712386388428e-01 -1.417734854008427e-03  2.341387307372439e-02
 1.255575135581712e+00 -5.037395179577975e-03  1.527494586619520e-01
 3.737852080809239e+00 -1.334471941664947e-02 -3.280045679485866e-01
 2.074267517035194e+00 -7.413058477420372e-03 -1.784208612245748e-01
 4.229438067226250e+00 -1.509341945381936e-02 -3.741465765981993e-01
 1.135122666531243e+00 -4.104616985386305e-03 -7.494155295051808e-02
 6.240331275267232e+00 -2.264852346873902e-02 -3.724602128559677e-01
 4.514131370921867e+00 -1.639227573599774e-02 -2.652669534713777e-01
 2.103071285684994e+00 -9.095053872780208e-03  5.674494929699675e-01
 3.810972836979664e+00 -1.638618628068514e-02  9.832759756124779e-01
 8.378531732449712e-01 -3.561261314065761e-03  1.966086795317866e-01
 4.996845913383852e-01 -2.051172361641367e-03  8.279272432527662e-02
-3.702615754300238e+00  1.520631293717615e-02 -6.169548919490752e-01
 9.541997594534327e-01 -3.918138189865060e-03  1.586752355131653e-01
-1.959398769861418e+00  6.570413651917149e-03  3.733332553943779e-01
-4.545062226706505e+00  1.534346682819678e-02  8.173680648776758e-01
 5.696208767917491e-01 -1.884554389976282e-03 -1.206384099982585e-01
-1.688887347357632e+00  5.394197753206583e-03  4.493308596470941e-01
-7.453418658685709e-01  2.379786721563327e-03  1.986723929482029e-01
-1.177063743829239e+00  3.759536340049512e-03  3.131261445782748e-01
 5.747954659505937e-01 -2.015612788474549e-03 -6.773641282645777e-02
 1.084618329151025e+00 -3.759770923803505e-03 -1.484875509649030e-01
-1.498745255927842e+00  5.261096666460582e-03  1.740096343804823e-01
-6.542651279189073e-01  2.254982801975559e-03  9.572805519730458e-02
-1.244204124491413e+00  4.316430351582154e-03  1.686937273227863e-01
 1.622518727404454e-01 -5.608548258685976e-04 -2.296277330398009e-02
-2.408534709521300e+00  7.712938197268676e-03  6.312052211773558e-01
-3.245246902161210e+00  1.045072879462910e-02  8.228260746944461e-01
-9.207117200833952e-01  3.075517485506130e-03  1.810610106602982e-01
-3.566810815582630e-02  1.101058329170608e-04  1.129794553055375e-02
-3.438985298895269e+00  1.045487922821081e-02  1.165660172609519e+00
-2.318231887989811e+00  6.997061060263607e-03  8.097603233823282e-01
 4.712801507514962e-01 -1.230381519482827e-03 -2.556452971446442e-01
-1.347738195644982e+00  3.431142500062241e-03  7.725125169435610e-01
 1.510943236763379e-01 -3.890243647649853e-04 -8.453948851089498e-02
 7.260116534785590e-01 -1.764284934521093e-03 -4.559692265288164e-01
 1.400139610030433e+00 -3.397414176485184e-03 -8.817571912069667e-01
 8.578523274329922e-01 -2.088512138531260e-03 -5.369512555346754e-01
 1.107774561092509e+00 -3.067121166680023e-03 -5.179606258499474e-01
 3.274858496423004e+00 -9.069852003276271e-03 -1.529953246805298e+00
 1.139961854215595e+00 -3.158303935613603e-03 -5.320317173912559e-01
 1.272167842978248e+00 -3.931395714556897e-03 -4.009375039806758e-01
 1.695133943397027e+00 -5.224340990702820e-03 -5.409467902579569e-01
 8.912893267091996e-01 -2.739889059306065e-03 -2.877586402433192e-01
 2.880583234173640e-01 -8.371650583126908e-04 -1.159144088986555e-01
-1.867512785658631e+00  5.430206172903487e-03  7.501698745185532e-01
 5.947886963284179e-01 -1.727771703652851e-03 -2.397328350377402e-01
-4.576205930667401e-01  1.102813310480855e-03  2.917923088427132e-01
-2.039383104641681e+00  4.934711858824870e-03  1.290877005553107e+00
 1.497019491281794e-01 -3.607223401253352e-04 -9.547437189236320e-02
-6.705790475872669e-01  1.407105125486706e-03  5.265894850788121e-01
-8.600025135256821e-01  1.804536511296085e-03  6.753600430353395e-01
-2.036854474253525e-01  4.335821083928580e-04  1.570203725859393e-01
-8.184069993976901e-01  1.751315566061472e-03  6.265539949557637e-01
-1.135196069495432e-01  2.460668217956665e-04  8.541742320342120e-02
-5.457500674228382e-01  1.171746890762792e-03  4.159694615835112e-01
-2.270737740321558e+00  5.336730054221024e-03  1.512099730353085e+00
-8.385325955090993e-01  1.966873841114043e-03  5.602144030607019e-01
-1.023177040240754e+00  2.421058315891501e-03  6.735831297861437e-01
-1.417730550343535e+00  3.464506795935835e-03  8.812676187841010e-01
-3.115551932522198e+00  7.716548734439427e-03  1.887790367467877e+00
-2.823613484288550e+00  6.989257684655684e-03  1.712898790030281e+00
 1.686702427849388e-01 -3.163910183834251e-04 -1.502422687716539e-01
-2.714877207694904e+00  4.885759899588612e-03  2.516270143102026e+00
-1.109866665159457e+00  2.043473944847105e-03  1.006812034267194e+00
-1.872696734373169e-01  5.105788358062290e-05  3.090911178153128e-01
-7.957968181195219e-01  2.632707002380642e-04  1.291529979398981e+00
 9.436901953372394e-02 -1.248553200917487e-05 -1.620337498275209e-01
 1.253318010755675e-01  5.170093616968468e-05 -2.475583103966186e-01
-1.213604472244141e-03  6.752055552455067e-06 -1.040059464487202e-03
-3.436953415497138e-02 -1.332166189871127e-05  6.748173751382895e-02
 3.168823980743490e-02 -2.561929428065139e-05 -4.425482923367246e-02
 5.872700713729059e-01 -3.882708020759797e-05 -1.026778278425306e+00
 2.529768062362530e-01 -4.283751305681323e-06 -4.481989966029663e-01
 2.377191573983346e-01 -3.022239416654289e-04 -2.798444280282367e-01
 1.390647097454242e+00 -1.796824635268202e-03 -1.623416317792016e+00
 8.522377440039822e-02 -1.301571401927550e-04 -8.999066765119342e-02
 1.586612011408342e+00 -3.035375319842937e-03 -1.385204653996657e+00
 1.032141772113623e+00 -1.964348826244524e-03 -9.059821606853402e-01
 1.435721226656774e-01 -2.660916254037114e-04 -1.294124606002980e-01
 5.748749624985560e-01 -8.091587998094189e-04 -6.396419210264951e-01
-4.454164794326909e-01  6.301480709104120e-04  4.940783821898204e-01
 9.182671563476279e-01 -1.279198480811000e-03 -1.028023874939991e+00
-5.946583286669847e-02 -1.408019131791041e-05  1.125057318770111e-01
-5.018829817426900e-01  1.509770451594248e-04  8.216624997821818e-01
 2.505222369165649e-01 -6.219045014791940e-05 -4.163873305173639e-01
-3.417336679304331e-02 -2.134510267922960e-05  7.093509159299312e-02
-2.230318533577928e-01 -1.467965474063866e-04  4.665053585760259e-01
-2.478796695588725e-02 -9.587077446954753e-06  4.865928399053731e-02
-1.212663899103936e-01 -1.464080827949918e-04  2.852067133974268e-01
-4.657524721337745e-02 -5.339397924567373e-05  1.081956682259409e-01
-5.276916307971292e-03 -4.289273817702355e-06  1.142423754599818e-02
 2.559046037025346e-01  1.527288437190466e-04 -5.278212560432745e-01
 5.848092014575996e-02  3.238748255614970e-05 -1.194290700223111e-01
-1.443863972871609e-01 -8.615781904598424e-05  2.978000969618213e-01
 1.170183171999934e-01  1.438396140308075e-04 -2.764290604244150e-01
 1.057148722797712e-01  1.247370380628789e-04 -2.472589222434543e-01
 2.001217712357448e-01  2.354423637754488e-04 -4.677428363605484e-01
-2.469954292417564e-02 -5.111018289447261e-05  6.818059018958321e-02
 5.906851193285694e-02  8.290208590779032e-05 -1.444147592642942e-01
 1.046765496638201e-01  1.569246232648725e-04 -2.606653699301517e-01
 6.639062316412367e-02  6.859404289954756e-05 -1.506652201993456e-01
-3.731702070776517e-03 -3.456630286501753e-06  8.279573719200618e-03
-4.600490929642771e-02 -4.110706304980989e-05  1.013575944617230e-01
 3.390100922188811e-03 -6.579387715605602e-06 -2.915336703635445e-03
-8.644499023011022e-02 -1.436449824788361e-04  2.219247048297187e-01
 3.057213681183622e-02  6.170815411261063e-05 -8.365479498165465e-02
 2.118931692319412e-01  6.806524292454363e-04 -6.996871412492993e-01
-3.973383292814380e-02 -1.299619853878595e-04  1.323070271767929e-01
-2.216873807906405e-03  5.104049009821665e-06  1.526509202319467e-03
 5.562267744114210e-03  9.910354301382914e-05 -5.686656934412010e-02
 2.305047707962814e-03  6.280556804232755e-05 -3.386723630984043e-02
 2.591087142446652e-02  5.210968306771975e-04 -2.930730206160524e-01
-1.344469047163595e-02 -2.303084308520801e-04  1.330758819213716e-01
 1.201282130755991e-02  2.124061841308282e-04 -1.220432956882602e-01
 8.263652402696995e-03  1.412706334748748e-04 -8.165816602779102e-02
 1.986216100508132e-01  6.932624864034095e-04 -6.820435874615828e-01
 1.206679983914637e-01  4.129438226225179e-04 -4.104586575132255e-01
-8.773418477147402e-02 -3.075902633707447e-04  3.019162478670964e-01
 7.917660089114989e-02  4.289370210322774e-04 -3.441948929121459e-01
 5.822798102473953e-02  3.253574386813338e-04 -2.578235578298053e-01
 1.109794282345968e-01  6.250965305468390e-04 -4.937593156623531e-01
 3.404605859852793e-02  3.189917268068122e-04 -2.117695396464408e-01
 1.646724662702052e-02  1.549408496747338e-04 -1.027369122737135e-01
 3.872719894257196e-02  3.639308132915855e-04 -2.413982645600956e-01
 1.888208049770453e-02  2.457217575251350e-04 -1.500576421561473e-01
 7.280217719939733e-03  1.607787492565272e-04 -8.915323078792156e-02
 1.231490551318214e-02  3.174606941403095e-04 -1.723684736162346e-01
 9.076766107768442e-05  1.265239980398368e-05 -6.157780972099859e-03
 7.321259018032770e-03  1.705681254862155e-04 -9.386566516613040e-02
 7.534951520051001e-03  2.554666188811179e-04 -1.344811681859185e-01
 2.539482445575184e-02  1.712750317401195e-04 -1.263666599577096e-01
 8.135508124970107e-03  1.707130021229572e-04 -9.538346478928537e-02
-1.565661541975225e-03  3.597107857766365e-05 -1.426100681518810e-02
 7.176254740075780e-03  1.801818557656783e-04 -9.816374724833865e-02
 3.517889297051227e-04  5.352183926175028e-06 -3.162600570996172e-03
 5.003225333826414e-03  1.722765203011393e-04 -9.054984695777510e-02
 3.422793005912471e-03  1.648041428995639e-04 -8.419579449699698e-02
 4.552884905562720e-04 -1.635238836738415e-05  6.939453891307183e-03
-5.253171020295508e-04  1.856661093153891e-04 -8.705617057443721e-02
-3.839455895802593e-04  1.063687354565475e-05 -4.357721449815920e-03
 4.606867242044878e-04 -1.351885207623680e-05  5.586973825479620e-03
-7.746147624491814e-03  2.283149342324502e-04 -9.441725657254155e-02
-2.400119618570147e-03  5.445931288674534e-05 -2.153786560150097e-02
 1.791938096631916e-04 -3.376176324618383e-06  1.281125556714966e-03
-8.636341616568539e-04  2.043125075064508e-05 -8.145769906365275e-03
-9.286065850929723e-04  2.349645548571024e-05 -9.482802120175110e-03
 4.453240023249819e-04 -8.675875905536838e-06  3.319126552679036e-03
-3.303579625165574e-03  6.222776311306572e-05 -2.361158784053577e-02
-1.742246748016604e-02  2.914041858837587e-04 -1.070953966591792e-01
 8.728156769116060e-03 -1.457946540156211e-04  5.356144663883956e-02
-1.198096966837246e-03  1.821066061996768e-05 -6.498133513725587e-03
-3.058543633563985e-02  3.780067027889404e-04 -1.247116932290376e-01
 2.666470076163314e-02 -3.243160950455042e-04  1.062444115238913e-01
-4.113834767862687e-02  4.919915433306375e-04 -1.599502360131736e-01
-5.499018247279546e-02  5.545982286324266e-04 -1.649684092200763e-01
 2.240593801293638e-02 -2.219403630536784e-04  6.530581660801049e-02
-6.211186303556744e-02  6.181103792948385e-04 -1.823935255999214e-01
-3.181460232797287e-01  2.919731025675961e-03 -8.175097551103941e-01
-7.211101543132610e-02  6.619022509374355e-04 -1.853516765735174e-01
-8.916826603216692e-02  8.185104927781212e-04 -2.292144140113903e-01
-2.817483697811460e-01  2.251385443314859e-03 -5.655444831625694e-01
-4.205987193766634e-01  3.365618601080339e-03 -8.464876657364089e-01
-5.882067381902712e-01  4.704995700033161e-03 -1.182950573178336e+00
-2.566104618791592e-01  2.310883533027505e-03 -6.384804486785608e-01
-4.011860509140589e-01  3.612119257391703e-03 -9.978587451656512e-01
-2.025729073064203e-01  1.813940434851359e-03 -4.991406077615363e-01
-1.743116794752855e-01  1.833071899130870e-03 -5.585046276079345e-01
-2.205047275658947e-01  2.314110727661091e-03 -7.042681638524176e-01
-1.443788800720655e-01  1.519522065394098e-03 -4.631788916961520e-01
-1.232387471014760e-02  1.323309383378076e-04 -4.078131815839267e-02
-1.037908442884485e-01  1.123917725912928e-03 -3.479291834783619e-01
-1.435810634790710e-01  1.557531418500348e-03 -4.826122210803163e-01
-4.793904966686393e-02  5.466543777587253e-04 -1.737527281338242e-01
 3.583868481724015e-02 -4.068925661857830e-04  1.290519761095045e-01
 3.679061407519862e-03 -4.102246364731211e-05  1.289369422563869e-02
-1.548588393076002e-01  1.333834669004517e-03 -3.565262668478241e-01
 3.113217207254606e-01 -2.656529364956100e-03  7.049183112732383e-01
-1.010062257233805e-01  8.646883339007611e-04 -2.300307549254545e-01
 3.800843376948939e-01 -2.540651342355617e-03  5.276227176577093e-01
 6.940298152518229e-01 -4.644518124677768e-03  9.659529927475982e-01
-4.625728476447948e-01  3.098500821296714e-03 -6.451925010737641e-01
 9.387551411753280e-01 -6.180799344432916e-03  1.258485319212340e+00
 1.761463055479767e-01 -1.161753244304243e-03  2.370874085026258e-01
 2.853684284830714e-01 -1.877184443361913e-03  3.817600168318207e-01
 2.866177263158240e-01 -2.138674749810549e-03  5.034623892410437e-01
 1.707730270600467e-01 -1.279911884627477e-03  3.026482420041791e-01
 5.762516212488074e-01 -4.315428813784605e-03  1.019603418904772e+00
-1.352912809127716e-01  1.023446780873055e-03 -2.442517647630059e-01
 4.129533731838288e-01 -3.101996272484553e-03  7.351580904313160e-01
 3.371724175607170e-01 -2.537696001659717e-03  6.025935380987807e-01
 3.855472123155561e-01 -2.414624274236929e-03  4.581734135573381e-01
 1.556149433726984e+00 -9.712410096640398e-03  1.833398161698838e+00
-1.259421100312918e-01  7.659889673817571e-04 -1.388760228276072e-01
 1.017604373765828e+00 -5.585784150575601e-03  8.361650980979773e-01
 2.144223117997785e+00 -1.179907365753588e-02  1.775702632911270e+00
 6.463531527497756e-01 -3.568095662315430e-03  5.406650033179434e-01
 5.296254089464535e-01 -2.821662996511356e-03  3.946580865361131e-01
 3.715182613326474e-01 -1.946260310399894e-03  2.611735143509945e-01
 8.024247701986239e-01 -4.301063692059734e-03  6.102694675581344e-01
-4.421594495079923e-01  2.455681958117461e-03 -3.768773009573848e-01
-1.975652309903661e-01  1.101154140359118e-03 -1.702484152978380e-01
 4.307657076165345e-01 -2.375894937497969e-03  3.593422744934499e-01
-4.924959013222339e-01  2.665775700915036e-03 -3.868601192018722e-01
 2.791094936501206e-01 -1.537047502567441e-03  2.317011197608408e-01
-3.817438305649463e-01  2.067449758804340e-03 -3.004090519179789e-01
 7.322644533855088e-02 -3.752950381724926e-04  4.753730660437161e-02
 6.911606190145979e-01 -3.558364575261329e-03  4.563082659070000e-01
-4.461863982337141e-01  2.304754556996402e-03 -2.981827564104936e-01
-4.707620380977565e-01  2.368547408223997e-03 -2.846776542856949e-01
 9.183162620466011e-01 -4.603319983424092e-03  5.472601177880941e-01
 1.022688551341074e-01 -5.072373109766678e-04  5.838003241911443e-02
 2.978047455625518e-01 -1.415107665488674e-03  1.406388475581730e-01
 7.306758771516388e-01 -3.462247887489799e-03  3.404302431309242e-01
-7.383867661294917e-01  3.495614671260054e-03 -3.425202044832068e-01
 7.204192670533119e-01 -3.391347384847249e-03  3.250829432974927e-01
 3.128059836349436e-01 -1.480171059016883e-03  1.447756848842603e-01
 2.122121933154383e-01 -1.005499853256488e-03  9.884826274562336e-02
-1.598182922298667e+00  7.525885182735858e-03 -7.223497722190396e-01
 1.615318757034156e+00 -7.598147798185739e-03  7.260994777318283e-01
 9.516283137957511e-01 -4.484055511101746e-03  4.314518727617877e-01
-1.223295375449926e+00  5.086304027267975e-03 -2.333774919844683e-01
 1.091440818673589e+00 -4.536778129737015e-03  2.076104193038423e-01
-2.130434584037052e+00  8.859872427042594e-03 -4.072928913945245e-01
-1.703856056397547e+00  7.034817775273049e-03 -3.015534333028928e-01
-3.596977209338081e+00  1.482595894359084e-02 -6.247046648543060e-01
-2.002147892905479e+00  8.235781528392064e-03 -3.398380699988812e-01
-3.579733898358299e+00  1.610949666179572e-02 -1.263688650875554e+00
-3.832346456181897e+00  1.724591517435485e-02 -1.352680490963140e+00
-1.556975756596544e+00  7.009684544897142e-03 -5.510488121686890e-01
-1.653073535442768e+00  7.325626534110100e-03 -5.297527703399141e-01
-1.807439919616158e+00  8.009732890090460e-03 -5.792355017587401e-01
-3.324239376608920e+00  1.473144820983789e-02 -1.065312382514884e+00
-6.578742631987505e-01  2.854656213438617e-03 -1.820465714952959e-01
 2.441828840919142e-01 -1.054533714977108e-03  6.518740648801905e-02
-1.421741544717201e+00  6.157214631692885e-03 -3.877250289319732e-01
-1.239229817938879e+00  5.097576954336788e-03 -2.103610439026841e-01
 1.386913830306616e+00 -5.705150688511178e-03  2.354661338713881e-01
-5.933499236996694e-01  2.440630620628459e-03 -1.006666813665014e-01
 3.927412128035157e-01 -1.493828705126044e-03  8.985602832374444e-03
-1.843891791482357e-01  7.043375414692264e-04 -5.638397501670074e-03
-1.623447107071095e+00  6.232943814745030e-03 -6.463424801547014e-02
-6.025549225290641e-01  2.406178134241807e-03 -6.795655349436180e-02
-8.189019330345864e-01  3.266992424443452e-03 -9.087643437667216e-02
 2.869070317316437e-01 -1.155954662040111e-03  3.721569996273975e-02
-3.011823643134875e+00  1.182872002748876e-02 -2.456622937078669e-01
 5.882258371955800e-01 -2.310067660632610e-03  4.790960212565040e-02
-3.017753193414775e-01  1.185480779568476e-03 -2.474728689298276e-02
-1.118543290404532e+00  3.946171663328268e-03  1.205254066715287e-01
-7.351795279980087e-01  2.557881227191651e-03  9.618347809426908e-02
-3.200975805162108e+00  1.115903374198808e-02  4.083550204324266e-01
-3.849640214512028e-01  1.380540155307772e-03  3.086297144599954e-02
-3.180594406770770e+00  1.145467415528365e-02  2.319714993976955e-01
-1.628699747004851e+00  5.858419632909569e-03  1.222089267348485e-01
-1.716903826056115e+00  6.797411408848874e-03 -1.658200997119842e-01
-1.568313997332770e+00  6.152250745389083e-03 -1.245138741485750e-01
-1.521394863628479e-01  5.526574242565646e-04  8.850427802317122e-03
-3.073330642700208e+00  1.131326406878598e-02  1.080887191520926e-01
 1.987451869368665e+00 -7.301578993994444e-03 -7.674536083562607e-02
-1.098984964996120e+00  4.038281951595393e-03  4.206395415433866e-02
-2.220768191500681e+00  6.906198382554584e-03  6.793634841997229e-01
-4.313789663615447e-01  1.337909312564622e-03  1.336724679370928e-01
-3.064167574307575e+00  9.422516432549448e-03  9.878462153290876e-01
-1.979763330700913e+00  6.169789455930277e-03  5.994408421496277e-01
-5.128275181063239e+00  1.596442109678500e-02  1.561043421134132e+00
-3.080067920911529e+00  9.605357630140653e-03  9.294921550934671e-01
-3.239574433686787e+00  1.221458672777947e-02 -2.319888766679688e-02
-6.659368706818622e+00  2.503436394788694e-02 -1.246857048016581e-02
-2.630629426625331e+00  9.878502885463339e-03  1.659069983126341e-04
-2.276600997228884e+00  8.857651242896060e-03 -1.461041996208933e-01
 7.871574943655563e-01 -3.064851766938373e-03  5.157407987079582e-02
-2.050955663428189e+00  7.953107784662971e-03 -1.190086012311142e-01
 9.853079577604658e-01 -3.159863763311672e-03 -2.560510699090537e-01
 3.348493442759395e+00 -1.074992598422001e-02 -8.647806610249701e-01
-1.944670424204450e+00  6.235453133369684e-03  5.058657141087222e-01
 2.766548757377788e+00 -8.285877571482690e-03 -9.968437169005659e-01
 9.491781630939099e-01 -2.836495018998001e-03 -3.450012472757349e-01
 3.999875077515497e-01 -1.203774273175747e-03 -1.413737311514293e-01
-1.029558932983530e+00  3.410616680561200e-03  2.159685350725671e-01
 8.951033237071697e-01 -2.965008225161162e-03 -1.878577788666198e-01
 3.027338642039171e+00 -1.002863904824628e-02 -6.350465331189421e-01
 1.166689153744485e+00 -3.478789540828882e-03 -4.277140644936646e-01
 2.198489954257206e+00 -6.560995347367087e-03 -8.033133567647284e-01
-6.240268148560943e-01  1.853894891981919e-03  2.319962039893630e-01
 1.674088859291596e+00 -4.674395791296465e-03 -7.641229722329043e-01
 2.047408618549152e+00 -5.714050303502133e-03 -9.358152646292404e-01
 1.004601318730004e+00 -2.801834784170194e-03 -4.600654425343011e-01
-7.607969732798614e-02  2.119538222447403e-04  3.495154949392455e-02
 1.800947563150960e+00 -4.883566053775783e-03 -8.907663789652639e-01
 1.597395113250480e+00 -4.332593692141791e-03 -7.896164257626554e-01
-2.257651319359959e-01  5.078038823988696e-04  1.611408736980215e-01
 9.565155288778874e-01 -2.289730163462489e-03 -6.171831539095031e-01
-1.034221958073438e-01  1.981145201233242e-04  9.017241628713892e-02
-1.108722350851110e+00  2.483211069884987e-03  7.963747583917130e-01
-3.156612785964149e-01  6.297001845968415e-04  2.633620648597954e-01
-3.809674297148034e-01  8.041501685002525e-04  2.969135254772819e-01
-5.854598988175682e-01  1.348172693945070e-03  4.030301285474862e-01
-1.461964562469557e+00  3.244743483423204e-03  1.064142473145847e+00
-1.246953234097566e+00  2.665817477512777e-03  9.558466894061525e-01
 1.022621640360390e+00 -2.501980004458274e-03 -6.342441733887850e-01
-1.795152380807805e+00  4.465815430985988e-03  1.078433391096637e+00
-7.907511967926698e-01  2.021015118686919e-03  4.495179563409091e-01
-5.894276279346180e-01  1.661468890769100e-03  2.616139107492154e-01
 1.589898133954935e+00 -4.533134799330981e-03 -6.812331977435713e-01
 1.823065136110323e+00 -5.179123820890074e-03 -7.900585092260722e-01
-2.512720296233629e+00  5.457654913469842e-03  1.885453299769393e+00
 1.844363323878988e+00 -4.021123191904117e-03 -1.376764383012575e+00
-3.282608166964681e-01  6.842437356613241e-04  2.599364374808915e-01
 1.230763287197856e+00 -8.167242046772887e-04 -1.803357391365885e+00
 4.008717382677506e-01 -2.676079236844869e-04 -5.866164237172147e-01
-1.043588475105997e+00  6.911950179594182e-04  1.529728624094306e+00
 3.713595855348051e-01 -5.845727706828620e-04 -3.838765710228074e-01
-9.236093871716673e-02  1.526872053713560e-04  9.201538397108083e-02
 1.996244946781950e+00 -3.172058301053836e-03 -2.049461695036667e+00
-1.635340662509739e+00  3.234678962825828e-03  1.377474048757798e+00
-5.993874226708313e-01  1.189419257026859e-03  5.030538982225923e-01
 4.955565334378413e-01 -9.770828404824946e-04 -4.188941770999008e-01
 3.381380853610866e-01 -5.207746474241440e-04 -3.549867133317801e-01
-1.149139796793822e-02  1.193949850085191e-05  1.479314820995603e-02
-1.169486882627780e+00  1.794711450001975e-03  1.230813428546987e+00
-1.309649923212712e-01  2.097371069852409e-04  1.336828315497619e-01
 3.576724428322505e-01 -5.609401974158559e-04 -3.707171960211739e-01
 3.805303962175649e-01 -5.914816375282931e-04 -3.969238345230321e-01
 1.342761461778314e-04  5.370347369686025e-06 -2.784095662951925e-03
 3.252839990442810e-01 -4.000076430855612e-04 -3.893440080579558e-01
-8.647678235186002e-02  9.420812993316368e-05  1.092576725037886e-01
 1.446978454997625e+00 -1.352989581394452e-03 -1.934013451471277e+00
 6.314810608284048e-01 -5.909759397400933e-04 -8.437866772202878e-01
 3.284301096529076e-02 -3.642927360086797e-05 -4.118692686720640e-02
-9.795924149767509e-01  1.433012497675276e-03  1.064270262132151e+00
 1.058170559424813e+00 -1.535226226266609e-03 -1.155676508682810e+00
 2.077053752847174e+00 -3.015054590167924e-03 -2.267686525308973e+00
-3.862904035424211e-01  3.299303429890938e-05  6.718546084528833e-01
 2.281780719105241e-01 -1.428527932310345e-05 -3.993241327759461e-01
-4.196997066864052e-01 -4.358908885004877e-06  7.490158566253600e-01
 1.972284922893749e-01  3.898276605679678e-04 -5.357600482221411e-01
 7.127067755990087e-02  1.374122887657685e-04 -1.919647954037547e-01
-1.504164646360404e-01 -2.962809662877909e-04  4.081137562156498e-01
-1.163351079698276e-01 -6.286295815864990e-05  2.368365883598073e-01
-1.387908400287016e-01 -7.101078709248243e-05  2.806630452348070e-01
 3.163208793438365e-01  1.708577457799316e-04 -6.439372842582314e-01
-4.952185477498800e-01 -1.094369201773850e-04  9.332173179816894e-01
-2.793912024035309e-01 -5.339866664133636e-05  5.225462750513581e-01
-1.401026279683278e-01 -2.904179197759954e-05  2.631076738859767e-01
-2.677805892124991e-01 -2.214450722663294e-04  5.815233168738229e-01
-1.948919609136235e-01 -1.858227851374717e-04  4.349194456617496e-01
-3.529842943923838e-01 -3.228394235473955e-04  7.812154091354591e-01
-5.465276218850860e-02 -7.021406856900917e-05  1.305428194752124e-01
-1.488997343233655e-01 -1.824838113570044e-04  3.514835181174455e-01
-2.227732515756652e-01 -2.838388699167569e-04  5.309923695559537e-01
-4.684833856027668e-02 -6.720763881651947e-06  8.656227320935050e-02
-1.194132380065563e-01 -8.111224540425007e-05  2.509635361259743e-01
-5.744734866805397e-02 -5.566534408927576e-05  1.286214672037410e-01
-1.049922121303162e-01 -7.431717266417265e-05  2.220777467715707e-01
-5.950295455855590e-03 -3.908379453897044e-06  1.244215339378752e-02
-2.594258394077365e-02 -6.312162555517183e-06  4.916213341607435e-02
-2.037663438705262e-01 -3.116032635673751e-04  5.103234325136786e-01
 2.366957591555318e-02  3.528147363013036e-05 -5.884597248157266e-02
-6.292639665547750e-02 -9.549159226785300e-05  1.572471662713478e-01
-2.483673697079683e-02 -1.150497287010166e-04  9.872705906603069e-02
 1.801245127470963e-02  8.242018110594177e-05 -7.111787516717420e-02
-6.926345855790687e-02 -3.252742399467642e-04  2.774242438962078e-01
 4.381613158726446e-03  3.392276689924644e-05 -2.387478235918093e-02
 7.645249124771347e-04  6.366230595260867e-06 -4.377735268515454e-03
-1.615502503049509e-02 -1.220846313269795e-04  8.660998786359424e-02
-8.058776611805379e-02 -4.873609420972962e-04  3.743947091414782e-01
-2.603264435478289e-02 -1.573320616614291e-04  1.208939360000558e-01
 4.097385536735046e-03  2.511862874841837e-05 -1.919646832507421e-02
-2.317730254569985e-02 -2.632733053029647e-04  1.660200055814376e-01
-2.305934023369365e-02 -2.620163484543481e-04  1.652143667026960e-01
-3.845145021320388e-02 -4.368899358783630e-04  2.754843767722751e-01
-8.568329619975910e-03 -1.014469349251107e-04  6.332711585953817e-02
-2.341079113920377e-02 -2.684314477114657e-04  1.688801037082634e-01
-2.377510092975251e-02 -2.724347728815928e-04  1.714257353157031e-01
-7.957236150492154e-02 -5.103607839631786e-04  3.834876789544495e-01
-5.056406728908725e-02 -3.453638943832136e-04  2.536653805477926e-01
-1.621531779230680e-02 -1.255031796360307e-04  8.833741464687765e-02
-2.074756750951786e-02 -2.213938612063314e-04  1.418481922204448e-01
-2.477200606780166e-02 -2.599963735628393e-04  1.673051322102555e-01
-4.116205324832870e-02 -4.670797650336495e-04  2.946161025323262e-01
-9.786210403336935e-03 -5.988520257316238e-05  4.579762601817920e-02
-1.103148676535107e-02 -1.325543406381424e-04  8.245331488378349e-02
-1.747467434212930e-02 -2.044364219066972e-04  1.279868536597180e-01
-2.511066245571242e-02 -2.565890552764136e-04  1.662930473636912e-01
-1.459140571326695e-03 -1.167216516422730e-05  8.128554606862112e-03
 1.049583978074853e-03 -7.886309485535452e-05  3.550691539579517e-02
 6.150450475736317e-05  3.126779603229332e-06 -1.591308000526329e-03
 7.677583701056023e-04  2.344879115708565e-05 -1.247927617738732e-02
-5.561055318023402e-03 -2.084494576565150e-04  1.086857499543164e-01
 8.743633414865903e-06  2.182897436124619e-06 -1.050082462315688e-03
 2.530271122950092e-04  1.371525539260393e-04 -6.544981073099962e-02
 7.079113030904659e-06  3.026436328065406e-06 -1.446890970605114e-03
 6.954988219229396e-03 -3.078888583173663e-04  1.335370660464886e-01
-3.021375286762197e-03  1.225201973720192e-04 -5.268769197306430e-02
 5.640448800486374e-05  3.753192440885155e-06 -1.879101646953396e-03
-1.712671578421024e-02  2.153737149973846e-04 -7.158930739976228e-02
-3.000593994813542e-03  5.463808409728916e-05 -2.055390977011551e-02
 4.410463960553584e-02 -6.665415559173293e-04  2.373939895497656e-01
-4.452042242690419e-03  6.613797858105410e-05 -2.342077385780037e-02
-9.134363653385240e-04  8.721130361511259e-06 -2.507462300762518e-03
-4.891876999267915e-03  1.130549615283403e-04 -4.487293805896946e-02
 5.704003159436794e-03 -1.157600026491943e-04  4.470955291449497e-02
-3.670210324995926e-04  7.274168290495822e-06 -2.794185465246124e-03
-3.329368721522753e-03  5.647786560019683e-05 -2.084069246761355e-02
 5.629839684090045e-03 -8.419541113211067e-05  2.988241692714169e-02
-1.937725387113832e-02  3.031126617323046e-04 -1.091653083636793e-01
 5.527926040289915e-03 -8.440929136145064e-05  3.016515754897165e-02
 1.423851089054934e-01 -1.623211139563792e-03  5.158676983866154e-01
-4.161535101503075e-02  4.656385700963525e-04 -1.466120706257011e-01
 1.337051240370408e-02 -1.558663376770938e-04  5.007251367395937e-02
-7.734642181415848e-02  5.592808051841620e-04 -1.273996221706510e-01
 3.606483917192232e-02 -2.934429191903011e-04  7.488329971100670e-02
 5.329728709103889e-01 -4.269033592100176e-03  1.074640019171347e+00
-8.426031180192527e-02  7.491265246052806e-04 -2.050666951096252e-01
 1.772254580066343e-01 -1.574636863571896e-03  4.308410813500262e-01
-1.309138780764603e-02  1.144131017268092e-04 -3.092371467499743e-02
 1.308831956075958e-01 -1.531407424869705e-03  4.928302221622926e-01
 6.571720420947857e-02 -7.652511721180425e-04  2.457101390454912e-01
-3.784606306049183e-02  4.391786834259028e-04 -1.407804676441673e-01
 9.752879000640795e-02 -9.365433344230047e-04  2.702732367138144e-01
 1.950389023582027e-02 -1.802162185831049e-04  5.069671040521356e-02
 2.453613714022262e-01 -2.293345374966275e-03  6.501890331667134e-01
 1.342034219930064e-01 -1.123754785344627e-03  2.937259364029736e-01
-7.106103200666924e-02  5.905702744931131e-04 -1.534146281591809e-01
 1.502603674615652e-01 -1.230766884085492e-03  3.158642822203948e-01
 2.494029954741236e-01 -1.882492768971278e-03  4.482843261851771e-01
-3.079154799794023e-02  2.398665323148793e-04 -5.887732675807383e-02
 2.144524367023143e-01 -1.615867227919900e-03  3.841272356413986e-01
 1.145165287018281e-01 -8.257102483493086e-04  1.875135924232863e-01
 2.003877839289370e-01 -1.431855892265632e-03  3.219515919859843e-01
 3.562643311710455e-01 -2.522579791893849e-03  5.614512902972983e-01
 4.149101141956074e-01 -3.042856127417593e-03  7.036478656343548e-01
 2.883183244741246e-01 -2.119364028245044e-03  4.912840333112359e-01
 1.175915903061272e-01 -8.683000968406876e-04  2.022250570049951e-01
 3.277248943236489e-01 -2.320077241415335e-03  5.162734050699214e-01
 2.698893143761430e-01 -1.914561868828389e-03  4.270225351790747e-01
 4.713144117654817e-01 -3.323393377977255e-03  7.362162529775543e-01
-8.401158871426208e-02  5.910965682261781e-04 -1.306156198089899e-01
 1.470139690189880e-01 -9.947033453945940e-04  2.097664820433461e-01
 3.448556780644249e-01 -2.386455414949841e-03  5.172433386581463e-01
 5.311262863439694e-02 -3.784266288590577e-04  8.481849682778590e-02
-1.917901606524114e-01  1.344910832022555e-03 -2.960478970464525e-01
-1.323184751495607e-01  9.327997169640452e-04 -2.065829835189539e-01
-3.238680758476754e-01  2.078317315034643e-03 -4.085623462748308e-01
-8.794026087555683e-01  5.692588360856798e-03 -1.132743010997521e+00
-2.103864086889687e-02  1.298801952366819e-04 -2.410997168354386e-02
-8.308043601648160e-01  4.911690741904043e-03 -8.491506563469838e-01
-1.740518933564461e+00  1.031403999451168e-02 -1.790396261419406e+00
-5.418745994251171e-01  3.194370299677469e-03 -5.494917582652429e-01
 1.998400115132660e-01 -1.095694148441526e-03  1.636123259510009e-01
-2.206138020080212e+00  1.207464458393705e-02 -1.796110013502924e+00
-1.111547910557526e+00  6.084410972423555e-03 -9.052812153880369e-01
 3.756289520190494e-01 -1.833778043348547e-03  2.005498931579395e-01
-6.402013604550664e-01  3.177411472658597e-03 -3.664600131668886e-01
 6.416757271780449e-01 -3.101445258005660e-03  3.278340522183715e-01
-2.665899942380649e+00  1.349693675383762e-02 -1.651914506451099e+00
 2.049341187265658e+00 -1.036650066831276e-02  1.265639784637526e+00
 7.955690912014701e-01 -4.024868709085159e-03  4.915760553194959e-01
 2.548896959453650e-01 -1.565511799928674e-03  2.882955319222845e-01
-2.669414620281615e-01  1.602249701867162e-03 -2.842575696912166e-01
-1.646422624191829e+00  1.000894692775639e-02 -1.813271771395426e+00
 2.489196794665711e-01 -1.336877660799689e-03  1.905659723316052e-01
-3.901574479897985e+00  2.083104820103302e-02 -2.928543904956661e+00
-2.495614114963882e-01  1.319258210490764e-03 -1.810736361345983e-01
-2.362746850581358e+00  9.699185546195116e-03 -3.916091472436829e-01
-6.611621280001298e+00  2.714070145352936e-02 -1.095683692560113e+00
 5.073805349221683e-01 -2.083126055197589e-03  8.423959107191342e-02
 5.980105546193916e-01 -2.380068395114492e-03  6.367032203352854e-02
 2.534091261931962e+00 -1.006198860782866e-02  2.586032412562971e-01
-8.146795257587678e-01  3.232614834393049e-03 -8.209889233968813e-02
 2.870087890584900e+00 -1.314003984194578e-02  1.119375117579568e+00
 5.400303871710030e+00 -2.471468257126989e-02  2.101754029395259e+00
 1.157053069446906e+00 -5.284849795841202e-03  4.453656158670480e-01
 4.250310364454702e+00 -2.059183182125376e-02  2.194520223796284e+00
 2.132243953304979e+00 -1.034992769780931e-02  1.110241375206595e+00
 2.007060231355524e+00 -9.726850173837202e-03  1.037744381519613e+00
 2.745837504999455e+00 -1.175437617637182e-02  6.838113630483454e-01
 1.781126943324231e+00 -7.616814721742224e-03  4.398531459367588e-01
 5.361119936228274e+00 -2.295449263766849e-02  1.337299474855606e+00
-7.808399182442303e-01  3.383955042329185e-03 -2.140474101366405e-01
 3.964542141668856e+00 -1.699689577667559e-02  9.993929672175980e-01
 3.214332258784983e+00 -1.380624047573321e-02  8.224413461872310e-01
 3.460876645609224e+00 -1.701130946102718e-02  1.902610012224066e+00
 1.446395212008538e+00 -7.134423604248946e-03  8.069682511915484e-01
-8.698376699694070e-01  4.256057870130849e-03 -4.689638321973528e-01
 2.766925416317926e+00 -1.188695040635958e-02  7.091104068470242e-01
-7.982535902992450e-01  3.376344705167035e-03 -1.794491624108924e-01
 4.130237984707962e+00 -1.778859942491549e-02  1.079705006309335e+00
-3.272114065929828e+00  1.275332784322238e-02 -2.206080824607120e-01
 8.481531196375504e-01 -3.301489904380975e-03  5.516644945194094e-02
 3.610661670496130e+00 -1.407068163571804e-02  2.424082185855209e-01

TENSORS stress double
0.000000000000000e+00 0.000000000000000e+00 0.000000000000000e+00
0.000000000000000e+00 0.000000000000000e+00 0.000000000000000e+00
0.000000000000000e+00 0.000000000000000e+00 0.000000000000000e+00

0.000000000000000e+00 0.000000000000000e+00 0.000000000000000e+00
0.000000000000000e+00 0.000000000000000e+00 0.000000000000000e+00
0.000000000000000e+00 0.000000000000000e+00 0.000000000000000e+00

0.000000000000000e+00 0.000000000000000e+00 0.000000000000000e+00
0.000000000000000e+00 0.000000000000000e+00 0.000000000000000e+00
0.000000000000000e+00 0.000000000000000e+00 0.000000000000000e+00

0.000000000000000e+00 0.000000000000000e+00 0.000000000000000e+00
0.000000000000000e+00 0.000000000000000e+00 0.000000000000000e+00
0.000000000000000e+00 0.000000000000000e+00 0.000000000000000e+00

0.000000000000000e+00 0.000000000000000e+00 0.000000000000000e+00
0.000000000000000e+00 0.000000000000000e+00 0.000000000000000e+00
0.000000000000000e+00 0.000000000000000e+00 0.000000000000000e+00

0.000000000000000e+00 0.000000000000000e+00 0.000000000000000e+00
0.000000000000000e+00 0.000000000000000e+00 0.000000000000000e+00
0.000000000000000e+00 0.000000000000000e+00 0.000000000000000e+00

0.000000000000000e+00 0.000000000000000e+00 0.000000000000000e+00
0.000000000000000e+00 0.000000000000000e+00 0.000000000000000e+00
0.000000000000000e+00 0.000000000000000e+00 0.000000000000000e+00

0.000000000000000e+00 0.000000000000000e+00 0.000000000000000e+00
0.000000000000000e+00 0.000000000000000e+00 0.000000000000000e+00
0.000000000000000e+00 0.000000000000000e+00 0.000000000000000e+00

0.000000000000000e+00 0.000000000000000e+00 0.000000000000000e+00
0.000000000000000e+00 0.000000000000000e+00 0.000000000000000e+00
0.000000000000000e+00 0.000000000000000e+00 0.000000000000000e+00

0.000000000000000e+00 0.000000000000000e+00 0.000000000000000e+00
0.000000000000000e+00 0.000000000000000e+00 0.000000000000000e+00
0.000000000000000e+00 0.000000000000000e+00 0.000000000000000e+00

0.000000000000000e+00 0.000000000000000e+00 0.000000000000000e+00
0.000000000000000e+00 0.000000000000000e+00 0.000000000000000e+00
0.000000000000000e+00 0.000000000000000e+00 0.000000000000000e+00

0.000000000000000e+00 0.000000000000000e+00 0.000000000000000e+00
0.000000000000000e+00 0.000000000000000e+00 0.000000000000000e+00
0.000000000000000e+00 0.000000000000000e+00 0.000000000000000e+00

0.000000000000000e+00 0.000000000000000e+00 0.000000000000000e+00
0.000000000000000e+00 0.000000000000000e+00 0.000000000000000e+00
0.000000000000000e+00 0.000000000000000e+00 0.000000000000000e+00

0.000000000000000e+00 0.000000000000000e+00 0.000000000000000e+00
0.000000000000000e+00 0.000000000000000e+00 0.000000000000000e+00
0.000000000000000e+00 0.000000000000000e+00 0.000000000000000e+00

0.000000000000000e+00 0.000000000000000e+00 0.000000000000000e+00
0.000000000000000e+00 0.000000000000000e+00 0.000000000000000e+00
0.000000000000000e+00 0.000000000000000e+00 0.000000000000000e+00

0.000000000000000e+00 0.000000000000000e+00 0.000000000000000e+00
0.000000000000000e+00 0.000000000000000e+00 0.000000000000000e+00
0.000000000000000e+00 0.000000000000000e+00 0.000000000000000e+00

0.000000000000000e+00 0.000000000000000e+00 0.000000000000000e+00
0.000000000000000e+00 0.000000000000000e+00 0.000000000000000e+00
0.000000000000000e+00 0.000000000000000e+00 0.000000000000000e+00

0.000000000000000e+00 0.000000000000000e+00 0.000000000000000e+00
0.000000000000000e+00 0.000000000000000e+00 0.000000000000000e+00
0.000000000000000e+00 0.000000000000000e+00 0.000000000000000e+00

0.000000000000000e+00 0.000000000000000e+00 0.000000000000000e+00
0.000000000000000e+00 0.000000000000000e+00 0.000000000000000e+00
0.000000000000000e+00 0.000000000000000e+00 0.000000000000000e+00

0.000000000000000e+00 0.000000000000000e+00 0.000000000000000e+00
0.000000000000000e+00 0.000000000000000e+00 0.000000000000000e+00
0.000000000000000e+00 0.000000000000000e+00 0.000000000000000e+00

0.000000000000000e+00 0.000000000000000e+00 0.000000000000000e+00
0.000000000000000e+00 0.000000000000000e+00 0.000000000000000e+00
0.000000000000000e+00 0.000000000000000e+00 0.000000000000000e+00

0.000000000000000e+00 0.000000000000000e+00 0.000000000000000e+00
0.000000000000000e+00 0.000000000000000e+00 0.000000000000000e+00
0.000000000000000e+00 0.000000000000000e+00 0.000000000000000e+00

0.000000000000000e+00 0.000000000000000e+00 0.000000000000000e+00
0.000000000000000e+00 0.000000000000000e+00 0.000000000000000e+00
0.000000000000000e+00 0.000000000000000e+00 0.000000000000000e+00

0.000000000000000e+00 0.000000000000000e+00 0.000000000000000e+00
0.000000000000000e+00 0.000000000000000e+00 0.000000000000000e+00
0.000000000000000e+00 0.000000000000000e+00 0.000000000000000e+00

0.000000000000000e+00 0.000000000000000e+00 0.000000000000000e+00
0.000000000000000e+00 0.000000000000000e+00 0.000000000000000e+00
0.000000000000000e+00 0.000000000000000e+00 0.000000000000000e+00

0.000000000000000e+00 0.000000000000000e+00 0.000000000000000e+00
0.000000000000000e+00 0.000000000000000e+00 0.000000000000000e+00
0.000000000000000e+00 0.000000000000000e+00 0.000000000000000e+00

0.000000000000000e+00 0.000000000000000e+00 0.000000000000000e+00
0.000000000000000e+00 0.000000000000000e+00 0.000000000000000e+00
0.000000000000000e+00 0.000000000000000e+00 0.000000000000000e+00

0.000000000000000e+00 0.000000000000000e+00 0.000000000000000e+00
0.000000000000000e+00 0.000000000000000e+00 0.000000000000000e+00
0.000000000000000e+00 0.000000000000000e+00 0.000000000000000e+00

0.000000000000000e+00 0.000000000000000e+00 0.000000000000000e+00
0.000000000000000e+00 0.000000000000000e+00 0.000000000000000e+00
0.000000000000000e+00 0.000000000000000e+00 0.000000000000000e+00

0.000000000000000e+00 0.000000000000000e+00 0.000000000000000e+00
0.000000000000000e+00 0.000000000000000e+00 0.000000000000000e+00
0.000000000000000e+00 0.000000000000000e+00 0.000000000000000e+00

0.000000000000000e+00 0.000000000000000e+00 0.000000000000000e+00
0.000000000000000e+00 0.000000000000000e+00 0.000000000000000e+00
0.000000000000000e+00 0.000000000000000e+00 0.000000000000000e+00

0.000000000000000e+00 0.000000000000000e+00 0.000000000000000e+00
0.000000000000000e+00 0.000000000000000e+00 0.000000000000000e+00
0.000000000000000e+00 0.000000000000000e+00 0.000000000000000e+00

0.000000000000000e+00 0.000000000000000e+00 0.000000000000000e+00
0.000000000000000e+00 0.000000000000000e+00 0.000000000000000e+00
0.000000000000000e+00 0.000000000000000e+00 0.000000000000000e+00

0.000000000000000e+00 0.000000000000000e+00 0.000000000000000e+00
0.000000000000000e+00 0.000000000000000e+00 0.000000000000000e+00
0.000000000000000e+00 0.000000000000000e+00 0.000000000000000e+00

0.000000000000000e+00 0.000000000000000e+00 0.000000000000000e+00
0.000000000000000e+00 0.000000000000000e+00 0.000000000000000e+00
0.000000000000000e+00 0.000000000000000e+00 0.000000000000000e+00

0.000000000000000e+00 0.000000000000000e+00 0.000000000000000e+00
0.000000000000000e+00 0.000000000000000e+00 0.000000000000000e+00
0.000000000000000e+00 0.000000000000000e+00 0.000000000000000e+00

0.000000000000000e+00 0.000000000000000e+00 0.000000000000000e+00
0.000000000000000e+00 0.000000000000000e+00 0.000000000000000e+00
0.000000000000000e+00 0.000000000000000e+00 0.000000000000000e+00

0.000000000000000e+00 0.000000000000000e+00 0.000000000000000e+00
0.000000000000000e+00 0.000000000000000e+00 0.000000000000000e+00
0.000000000000000e+00 0.000000000000000e+00 0.000000000000000e+00

0.000000000000000e+00 0.000000000000000e+00 0.000000000000000e+00
0.000000000000000e+00 0.000000000000000e+00 0.000000000000000e+00
0.000000000000000e+00 0.000000000000000e+00 0.000000000000000e+00

0.000000000000000e+00 0.000000000000000e+00 0.000000000000000e+00
0.000000000000000e+00 0.000000000000000e+00 0.000000000000000e+00
0.000000000000000e+00 0.000000000000000e+00 0.000000000000000e+00

0.000000000000000e+00 0.000000000000000e+00 0.000000000000000e+00
0.000000000000000e+00 0.000000000000000e+00 0.000000000000000e+00
0.000000000000000e+00 0.000000000000000e+00 0.000000000000000e+00

0.000000000000000e+00 0.000000000000000e+00 0.000000000000000e+00
0.000000000000000e+00 0.000000000000000e+00 0.000000000000000e+00
0.000000000000000e+00 0.000000000000000e+00 0.000000000000000e+00

0.000000000000000e+00 0.000000000000000e+00 0.000000000000000e+00
0.000000000000000e+00 0.000000000000000e+00 0.000000000000000e+00
0.000000000000000e+00 0.000000000000000e+00 0.000000000000000e+00

0.000000000000000e+00 0.000000000000000e+00 0.000000000000000e+00
0.000000000000000e+00 0.000000000000000e+00 0.000000000000000e+00
0.000000000000000e+00 0.000000000000000e+00 0.000000000000000e+00

0.000000000000000e+00 0.000000000000000e+00 0.000000000000000e+00
0.000000000000000e+00 0.000000000000000e+00 0.000000000000000e+00
0.000000000000000e+00 0.000000000000000e+00 0.000000000000000e+00

0.000000000000000e+00 0.000000000000000e+00 0.000000000000000e+00
0.000000000000000e+00 0.000000000000000e+00 0.000000000000000e+00
0.000000000000000e+00 0.000000000000000e+00 0.000000000000000e+00

0.000000000000000e+00 0.000000000000000e+00 0.000000000000000e+00
0.000000000000000e+00 0.000000000000000e+00 0.000000000000000e+00
0.000000000000000e+00 0.000000000000000e+00 0.000000000000000e+00

0.000000000000000e+00 0.000000000000000e+00 0.000000000000000e+00
0.000000000000000e+00 0.000000000000000e+00 0.000000000000000e+00
0.000000000000000e+00 0.000000000000000e+00 0.000000000000000e+00

0.000000000000000e+00 0.000000000000000e+00 0.000000000000000e+00
0.000000000000000e+00 0.000000000000000e+00 0.000000000000000e+00
0.000000000000000e+00 0.000000000000000e+00 0.000000000000000e+00

0.000000000000000e+00 0.000000000000000e+00 0.000000000000000e+00
0.000000000000000e+00 0.000000000000000e+00 0.000000000000000e+00
0.000000000000000e+00 0.000000000000000e+00 0.000000000000000e+00

0.000000000000000e+00 0.000000000000000e+00 0.000000000000000e+00
0.000000000000000e+00 0.000000000000000e+00 0.000000000000000e+00
0.000000000000000e+00 0.000000000000000e+00 0.000000000000000e+00

0.000000000000000e+00 0.000000000000000e+00 0.000000000000000e+00
0.000000000000000e+00 0.000000000000000e+00 0.000000000000000e+00
0.000000000000000e+00 0.000000000000000e+00 0.000000000000000e+00

0.000000000000000e+00 0.000000000000000e+00 0.000000000000000e+00
0.000000000000000e+00 0.000000000000000e+00 0.000000000000000e+00
0.000000000000000e+00 0.000000000000000e+00 0.000000000000000e+00

0.000000000000000e+00 0.000000000000000e+00 0.000000000000000e+00
0.000000000000000e+00 0.000000000000000e+00 0.000000000000000e+00
0.000000000000000e+00 0.000000000000000e+00 0.000000000000000e+00

0.000000000000000e+00 0.000000000000000e+00 0.000000000000000e+00
0.000000000000000e+00 0.000000000000000e+00 0.000000000000000e+00
0.000000000000000e+00 0.000000000000000e+00 0.000000000000000e+00

0.000000000000000e+00 0.000000000000000e+00 0.000000000000000e+00
0.000000000000000e+00 0.000000000000000e+00 0.000000000000000e+00
0.000000000000000e+00 0.000000000000000e+00 0.000000000000000e+00

0.000000000000000e+00 0.000000000000000e+00 0.000000000000000e+00
0.000000000000000e+00 0.000000000000000e+00 0.000000000000000e+00
0.000000000000000e+00 0.000000000000000e+00 0.000000000000000e+00

0.000000000000000e+00 0.000000000000000e+00 0.000000000000000e+00
0.000000000000000e+00 0.000000000000000e+00 0.000000000000000e+00
0.000000000000000e+00 0.000000000000000e+00 0.000000000000000e+00

0.000000000000000e+00 0.000000000000000e+00 0.000000000000000e+00
0.000000000000000e+00 0.000000000000000e+00 0.000000000000000e+00
0.000000000000000e+00 0.000000000000000e+00 0.000000000000000e+00

0.000000000000000e+00 0.000000000000000e+00 0.000000000000000e+00
0.000000000000000e+00 0.000000000000000e+00 0.000000000000000e+00
0.000000000000000e+00 0.000000000000000e+00 0.000000000000000e+00

0.000000000000000e+00 0.000000000000000e+00 0.000000000000000e+00
0.000000000000000e+00 0.000000000000000e+00 0.000000000000000e+00
0.000000000000000e+00 0.000000000000000e+00 0.000000000000000e+00

0.000000000000000e+00 0.000000000000000e+00 0.000000000000000e+00
0.000000000000000e+00 0.000000000000000e+00 0.000000000000000e+00
0.000000000000000e+00 0.000000000000000e+00 0.000000000000000e+00

0.000000000000000e+00 0.000000000000000e+00 0.000000000000000e+00
0.000000000000000e+00 0.000000000000000e+00 0.000000000000000e+00
0.000000000000000e+00 0.000000000000000e+00 0.000000000000000e+00

0.000000000000000e+00 0.000000000000000e+00 0.000000000000000e+00
0.000000000000000e+00 0.000000000000000e+00 0.000000000000000e+00
0.000000000000000e+00 0.000000000000000e+00 0.000000000000000e+00

0.000000000000000e+00 0.000000000000000e+00 0.000000000000000e+00
0.000000000000000e+00 0.000000000000000e+00 0.000000000000000e+00
0.000000000000000e+00 0.000000000000000e+00 0.000000000000000e+00

0.000000000000000e+00 0.000000000000000e+00 0.000000000000000e+00
0.000000000000000e+00 0.000000000000000e+00 0.000000000000000e+00
0.000000000000000e+00 0.000000000000000e+00 0.000000000000000e+00

0.000000000000000e+00 0.000000000000000e+00 0.000000000000000e+00
0.000000000000000e+00 0.000000000000000e+00 0.000000000000000e+00
0.000000000000000e+00 0.000000000000000e+00 0.000000000000000e+00

0.000000000000000e+00 0.000000000000000e+00 0.000000000000000e+00
0.000000000000000e+00 0.000000000000000e+00 0.000000000000000e+00
0.000000000000000e+00 0.000000000000000e+00 0.000000000000000e+00

0.000000000000000e+00 0.000000000000000e+00 0.000000000000000e+00
0.000000000000000e+00 0.000000000000000e+00 0.000000000000000e+00
0.000000000000000e+00 0.000000000000000e+00 0.000000000000000e+00

0.000000000000000e+00 0.000000000000000e+00 0.000000000000000e+00
0.000000000000000e+00 0.000000000000000e+00 0.000000000000000e+00
0.000000000000000e+00 0.000000000000000e+00 0.000000000000000e+00

0.000000000000000e+00 0.000000000000000e+00 0.000000000000000e+00
0.000000000000000e+00 0.000000000000000e+00 0.000000000000000e+00
0.000000000000000e+00 0.000000000000000e+00 0.000000000000000e+00

0.000000000000000e+00 0.000000000000000e+00 0.000000000000000e+00
0.000000000000000e+00 0.000000000000000e+00 0.000000000000000e+00
0.000000000000000e+00 0.000000000000000e+00 0.000000000000000e+00

0.000000000000000e+00 0.000000000000000e+00 0.000000000000000e+00
0.000000000000000e+00 0.000000000000000e+00 0.000000000000000e+00
0.000000000000000e+00 0.000000000000000e+00 0.000000000000000e+00

0.000000000000000e+00 0.000000000000000e+00 0.000000000000000e+00
0.000000000000000e+00 0.000000000000000e+00 0.000000000000000e+00
0.000000000000000e+00 0.000000000000000e+00 0.000000000000000e+00

0.000000000000000e+00 0.000000000000000e+00 0.000000000000000e+00
0.000000000000000e+00 0.000000000000000e+00 0.000000000000000e+00
0.000000000000000e+00 0.000000000000000e+00 0.000000000000000e+00

0.000000000000000e+00 0.000000000000000e+00 0.000000000000000e+00
0.000000000000000e+00 0.000000000000000e+00 0.000000000000000e+00
0.000000000000000e+00 0.000000000000000e+00 0.000000000000000e+00

0.000000000000000e+00 0.000000000000000e+00 0.000000000000000e+00
0.000000000000000e+00 0.000000000000000e+00 0.000000000000000e+00
0.000000000000000e+00 0.000000000000000e+00 0.000000000000000e+00

0.000000000000000e+00 0.000000000000000e+00 0.000000000000000e+00
0.000000000000000e+00 0.000000000000000e+00 0.000000000000000e+00
0.000000000000000e+00 0.000000000000000e+00 0.000000000000000e+00

0.000000000000000e+00 0.000000000000000e+00 0.000000000000000e+00
0.000000000000000e+00 0.000000000000000e+00 0.000000000000000e+00
0.000000000000000e+00 0.000000000000000e+00 0.000000000000000e+00

0.000000000000000e+00 0.000000000000000e+00 0.000000000000000e+00
0.000000000000000e+00 0.000000000000000e+00 0.000000000000000e+00
0.000000000000000e+00 0.000000000000000e+00 0.000000000000000e+00

0.000000000000000e+00 0.000000000000000e+00 0.000000000000000e+00
0.000000000000000e+00 0.000000000000000e+00 0.000000000000000e+00
0.000000000000000e+00 0.000000000000000e+00 0.000000000000000e+00

0.000000000000000e+00 0.000000000000000e+00 0.000000000000000e+00
0.000000000000000e+00 0.000000000000000e+00 0.000000000000000e+00
0.000000000000000e+00 0.000000000000000e+00 0.000000000000000e+00

0.000000000000000e+00 0.000000000000000e+00 0.000000000000000e+00
0.000000000000000e+00 0.000000000000000e+00 0.000000000000000e+00
0.000000000000000e+00 0.000000000000000e+00 0.000000000000000e+00

0.000000000000000e+00 0.000000000000000e+00 0.000000000000000e+00
0.000000000000000e+00 0.000000000000000e+00 0.000000000000000e+00
0.000000000000000e+00 0.000000000000000e+00 0.000000000000000e+00

0.000000000000000e+00 0.000000000000000e+00 0.000000000000000e+00
0.000000000000000e+00 0.000000000000000e+00 0.000000000000000e+00
0.000000000000000e+00 0.000000000000000e+00 0.000000000000000e+00

0.000000000000000e+00 0.000000000000000e+00 0.000000000000000e+00
0.000000000000000e+00 0.000000000000000e+00 0.000000000000000e+00
0.000000000000000e+00 0.000000000000000e+00 0.000000000000000e+00

0.000000000000000e+00 0.000000000000000e+00 0.000000000000000e+00
0.000000000000000e+00 0.000000000000000e+00 0.000000000000000e+00
0.000000000000000e+00 0.000000000000000e+00 0.000000000000000e+00

0.000000000000000e+00 0.000000000000000e+00 0.000000000000000e+00
0.000000000000000e+00 0.000000000000000e+00 0.000000000000000e+00
0.000000000000000e+00 0.000000000000000e+00 0.000000000000000e+00

0.000000000000000e+00 0.000000000000000e+00 0.000000000000000e+00
0.000000000000000e+00 0.000000000000000e+00 0.000000000000000e+00
0.000000000000000e+00 0.000000000000000e+00 0.000000000000000e+00

0.000000000000000e+00 0.000000000000000e+00 0.000000000000000e+00
0.000000000000000e+00 0.000000000000000e+00 0.000000000000000e+00
0.000000000000000e+00 0.000000000000000e+00 0.000000000000000e+00

0.000000000000000e+00 0.000000000000000e+00 0.000000000000000e+00
0.000000000000000e+00 0.000000000000000e+00 0.000000000000000e+00
0.000000000000000e+00 0.000000000000000e+00 0.000000000000000e+00

0.000000000000000e+00 0.000000000000000e+00 0.000000000000000e+00
0.000000000000000e+00 0.000000000000000e+00 0.000000000000000e+00
0.000000000000000e+00 0.000000000000000e+00 0.000000000000000e+00

0.000000000000000e+00 0.000000000000000e+00 0.000000000000000e+00
0.000000000000000e+00 0.000000000000000e+00 0.000000000000000e+00
0.000000000000000e+00 0.000000000000000e+00 0.000000000000000e+00

0.000000000000000e+00 0.000000000000000e+00 0.000000000000000e+00
0.000000000000000e+00 0.000000000000000e+00 0.000000000000000e+00
0.000000000000000e+00 0.000000000000000e+00 0.000000000000000e+00

0.000000000000000e+00 0.000000000000000e+00 0.000000000000000e+00
0.000000000000000e+00 0.000000000000000e+00 0.000000000000000e+00
0.000000000000000e+00 0.000000000000000e+00 0.000000000000000e+00

0.000000000000000e+00 0.000000000000000e+00 0.000000000000000e+00
0.000000000000000e+00 0.000000000000000e+00 0.000000000000000e+00
0.000000000000000e+00 0.000000000000000e+00 0.000000000000000e+00

0.000000000000000e+00 0.000000000000000e+00 0.000000000000000e+00
0.000000000000000e+00 0.000000000000000e+00 0.000000000000000e+00
0.000000000000000e+00 0.000000000000000e+00 0.000000000000000e+00

0.000000000000000e+00 0.000000000000000e+00 0.000000000000000e+00
0.000000000000000e+00 0.000000000000000e+00 0.000000000000000e+00
0.000000000000000e+00 0.000000000000000e+00 0.000000000000000e+00

0.000000000000000e+00 0.000000000000000e+00 0.000000000000000e+00
0.000000000000000e+00 0.000000000000000e+00 0.000000000000000e+00
0.000000000000000e+00 0.000000000000000e+00 0.000000000000000e+00

0.000000000000000e+00 0.000000000000000e+00 0.000000000000000e+00
0.000000000000000e+00 0.000000000000000e+00 0.000000000000000e+00
0.000000000000000e+00 0.000000000000000e+00 0.000000000000000e+00

0.000000000000000e+00 0.000000000000000e+00 0.000000000000000e+00
0.000000000000000e+00 0.000000000000000e+00 0.000000000000000e+00
0.000000000000000e+00 0.000000000000000e+00 0.000000000000000e+00

0.000000000000000e+00 0.000000000000000e+00 0.000000000000000e+00
0.000000000000000e+00 0.000000000000000e+00 0.000000000000000e+00
0.000000000000000e+00 0.000000000000000e+00 0.000000000000000e+00

0.000000000000000e+00 0.000000000000000e+00 0.000000000000000e+00
0.000000000000000e+00 0.000000000000000e+00 0.000000000000000e+00
0.000000000000000e+00 0.000000000000000e+00 0.000000000000000e+00

0.000000000000000e+00 0.000000000000000e+00 0.000000000000000e+00
0.000000000000000e+00 0.000000000000000e+00 0.000000000000000e+00
0.000000000000000e+00 0.000000000000000e+00 0.000000000000000e+00

0.000000000000000e+00 0.000000000000000e+00 0.000000000000000e+00
0.000000000000000e+00 0.000000000000000e+00 0.000000000000000e+00
0.000000000000000e+00 0.000000000000000e+00 0.000000000000000e+00

0.000000000000000e+00 0.000000000000000e+00 0.000000000000000e+00
0.000000000000000e+00 0.000000000000000e+00 0.000000000000000e+00
0.000000000000000e+00 0.000000000000000e+00 0.000000000000000e+00

0.000000000000000e+00 0.000000000000000e+00 0.000000000000000e+00
0.000000000000000e+00 0.000000000000000e+00 0.000000000000000e+00
0.000000000000000e+00 0.000000000000000e+00 0.000000000000000e+00

0.000000000000000e+00 0.000000000000000e+00 0.000000000000000e+00
0.000000000000000e+00 0.000000000000000e+00 0.000000000000000e+00
0.000000000000000e+00 0.000000000000000e+00 0.000000000000000e+00

0.000000000000000e+00 0.000000000000000e+00 0.000000000000000e+00
0.000000000000000e+00 0.000000000000000e+00 0.000000000000000e+00
0.000000000000000e+00 0.000000000000000e+00 0.000000000000000e+00

0.000000000000000e+00 0.000000000000000e+00 0.000000000000000e+00
0.000000000000000e+00 0.000000000000000e+00 0.000000000000000e+00
0.000000000000000e+00 0.000000000000000e+00 0.000000000000000e+00

0.000000000000000e+00 0.000000000000000e+00 0.000000000000000e+00
0.000000000000000e+00 0.000000000000000e+00 0.000000000000000e+00
0.000000000000000e+00 0.000000000000000e+00 0.000000000000000e+00

0.000000000000000e+00 0.000000000000000e+00 0.000000000000000e+00
0.000000000000000e+00 0.000000000000000e+00 0.000000000000000e+00
0.000000000000000e+00 0.000000000000000e+00 0.000000000000000e+00

0.000000000000000e+00 0.000000000000000e+00 0.000000000000000e+00
0.000000000000000e+00 0.000000000000000e+00 0.000000000000000e+00
0.000000000000000e+00 0.000000000000000e+00 0.000000000000000e+00

0.000000000000000e+00 0.000000000000000e+00 0.000000000000000e+00
0.000000000000000e+00 0.000000000000000e+00 0.000000000000000e+00
0.000000000000000e+00 0.000000000000000e+00 0.000000000000000e+00

0.000000000000000e+00 0.000000000000000e+00 0.000000000000000e+00
0.000000000000000e+00 0.000000000000000e+00 0.000000000000000e+00
0.000000000000000e+00 0.000000000000000e+00 0.000000000000000e+00

0.000000000000000e+00 0.000000000000000e+00 0.000000000000000e+00
0.000000000000000e+00 0.000000000000000e+00 0.000000000000000e+00
0.000000000000000e+00 0.000000000000000e+00 0.000000000000000e+00

0.000000000000000e+00 0.000000000000000e+00 0.000000000000000e+00
0.000000000000000e+00 0.000000000000000e+00 0.000000000000000e+00
0.000000000000000e+00 0.000000000000000e+00 0.000000000000000e+00

0.000000000000000e+00 0.000000000000000e+00 0.000000000000000e+00
0.000000000000000e+00 0.000000000000000e+00 0.000000000000000e+00
0.000000000000000e+00 0.000000000000000e+00 0.000000000000000e+00

0.000000000000000e+00 0.000000000000000e+00 0.000000000000000e+00
0.000000000000000e+00 0.000000000000000e+00 0.000000000000000e+00
0.000000000000000e+00 0.000000000000000e+00 0.000000000000000e+00

0.000000000000000e+00 0.000000000000000e+00 0.000000000000000e+00
0.000000000000000e+00 0.000000000000000e+00 0.000000000000000e+00
0.000000000000000e+00 0.000000000000000e+00 0.000000000000000e+00

0.000000000000000e+00 0.000000000000000e+00 0.000000000000000e+00
0.000000000000000e+00 0.000000000000000e+00 0.000000000000000e+00
0.000000000000000e+00 0.000000000000000e+00 0.000000000000000e+00

0.000000000000000e+00 0.000000000000000e+00 0.000000000000000e+00
0.000000000000000e+00 0.000000000000000e+00 0.000000000000000e+00
0.000000000000000e+00 0.000000000000000e+00 0.000000000000000e+00

0.000000000000000e+00 0.000000000000000e+00 0.000000000000000e+00
0.000000000000000e+00 0.000000000000000e+00 0.000000000000000e+00
0.000000000000000e+00 0.000000000000000e+00 0.000000000000000e+00

0.000000000000000e+00 0.000000000000000e+00 0.000000000000000e+00
0.000000000000000e+00 0.000000000000000e+00 0.000000000000000e+00
0.000000000000000e+00 0.000000000000000e+00 0.000000000000000e+00

0.000000000000000e+00 0.000000000000000e+00 0.000000000000000e+00
0.000000000000000e+00 0.000000000000000e+00 0.000000000000000e+00
0.000000000000000e+00 0.000000000000000e+00 0.000000000000000e+00

0.000000000000000e+00 0.000000000000000e+00 0.000000000000000e+00
0.000000000000000e+00 0.000000000000000e+00 0.000000000000000e+00
0.000000000000000e+00 0.000000000000000e+00 0.000000000000000e+00

0.000000000000000e+00 0.000000000000000e+00 0.000000000000000e+00
0.000000000000000e+00 0.000000000000000e+00 0.000000000000000e+00
0.000000000000000e+00 0.000000000000000e+00 0.000000000000000e+00

0.000000000000000e+00 0.000000000000000e+00 0.000000000000000e+00
0.000000000000000e+00 0.000000000000000e+00 0.000000000000000e+00
0.000000000000000e+00 0.000000000000000e+00 0.000000000000000e+00

0.000000000000000e+00 0.000000000000000e+00 0.000000000000000e+00
0.000000000000000e+00 0.000000000000000e+00 0.000000000000000e+00
0.000000000000000e+00 0.000000000000000e+00 0.000000000000000e+00

0.000000000000000e+00 0.000000000000000e+00 0.000000000000000e+00
0.000000000000000e+00 0.000000000000000e+00 0.000000000000000e+00
0.000000000000000e+00 0.000000000000000e+00 0.000000000000000e+00

0.000000000000000e+00 0.000000000000000e+00 0.000000000000000e+00
0.000000000000000e+00 0.000000000000000e+00 0.000000000000000e+00
0.000000000000000e+00 0.000000000000000e+00 0.000000000000000e+00

0.000000000000000e+00 0.000000000000000e+00 0.000000000000000e+00
0.000000000000000e+00 0.000000000000000e+00 0.000000000000000e+00
0.000000000000000e+00 0.000000000000000e+00 0.000000000000000e+00

0.000000000000000e+00 0.000000000000000e+00 0.000000000000000e+00
0.000000000000000e+00 0.000000000000000e+00 0.000000000000000e+00
0.000000000000000e+00 0.000000000000000e+00 0.000000000000000e+00

0.000000000000000e+00 0.000000000000000e+00 0.000000000000000e+00
0.000000000000000e+00 0.000000000000000e+00 0.000000000000000e+00
0.000000000000000e+00 0.000000000000000e+00 0.000000000000000e+00

0.000000000000000e+00 0.000000000000000e+00 0.000000000000000e+00
0.000000000000000e+00 0.000000000000000e+00 0.000000000000000e+00
0.000000000000000e+00 0.000000000000000e+00 0.000000000000000e+00

0.000000000000000e+00 0.000000000000000e+00 0.000000000000000e+00
0.000000000000000e+00 0.000000000000000e+00 0.000000000000000e+00
0.000000000000000e+00 0.000000000000000e+00 0.000000000000000e+00

0.000000000000000e+00 0.000000000000000e+00 0.000000000000000e+00
0.000000000000000e+00 0.000000000000000e+00 0.000000000000000e+00
0.000000000000000e+00 0.000000000000000e+00 0.000000000000000e+00

0.000000000000000e+00 0.000000000000000e+00 0.000000000000000e+00
0.000000000000000e+00 0.000000000000000e+00 0.000000000000000e+00
0.000000000000000e+00 0.000000000000000e+00 0.000000000000000e+00

0.000000000000000e+00 0.000000000000000e+00 0.000000000000000e+00
0.000000000000000e+00 0.000000000000000e+00 0.000000000000000e+00
0.000000000000000e+00 0.000000000000000e+00 0.000000000000000e+00

0.000000000000000e+00 0.000000000000000e+00 0.000000000000000e+00
0.000000000000000e+00 0.000000000000000e+00 0.000000000000000e+00
0.000000000000000e+00 0.000000000000000e+00 0.000000000000000e+00

0.000000000000000e+00 0.000000000000000e+00 0.000000000000000e+00
0.000000000000000e+00 0.000000000000000e+00 0.000000000000000e+00
0.000000000000000e+00 0.000000000000000e+00 0.000000000000000e+00

0.000000000000000e+00 0.000000000000000e+00 0.000000000000000e+00
0.000000000000000e+00 0.000000000000000e+00 0.000000000000000e+00
0.000000000000000e+00 0.000000000000000e+00 0.000000000000000e+00

0.000000000000000e+00 0.000000000000000e+00 0.000000000000000e+00
0.000000000000000e+00 0.000000000000000e+00 0.000000000000000e+00
0.000000000000000e+00 0.000000000000000e+00 0.000000000000000e+00

0.000000000000000e+00 0.000000000000000e+00 0.000000000000000e+00
0.000000000000000e+00 0.000000000000000e+00 0.000000000000000e+00
0.000000000000000e+00 0.000000000000000e+00 0.000000000000000e+00

0.000000000000000e+00 0.000000000000000e+00 0.000000000000000e+00
0.000000000000000e+00 0.000000000000000e+00 0.000000000000000e+00
0.000000000000000e+00 0.000000000000000e+00 0.000000000000000e+00

0.000000000000000e+00 0.000000000000000e+00 0.000000000000000e+00
0.000000000000000e+00 0.000000000000000e+00 0.000000000000000e+00
0.000000000000000e+00 0.000000000000000e+00 0.000000000000000e+00

0.000000000000000e+00 0.000000000000000e+00 0.000000000000000e+00
0.000000000000000e+00 0.000000000000000e+00 0.000000000000000e+00
0.000000000000000e+00 0.000000000000000e+00 0.000000000000000e+00

0.000000000000000e+00 0.000000000000000e+00 0.000000000000000e+00
0.000000000000000e+00 0.000000000000000e+00 0.000000000000000e+00
0.000000000000000e+00 0.000000000000000e+00 0.000000000000000e+00

0.000000000000000e+00 0.000000000000000e+00 0.000000000000000e+00
0.000000000000000e+00 0.000000000000000e+00 0.000000000000000e+00
0.000000000000000e+00 0.000000000000000e+00 0.000000000000000e+00

0.000000000000000e+00 0.000000000000000e+00 0.000000000000000e+00
0.000000000000000e+00 0.000000000000000e+00 0.000000000000000e+00
0.000000000000000e+00 0.000000000000000e+00 0.000000000000000e+00

0.000000000000000e+00 0.000000000000000e+00 0.000000000000000e+00
0.000000000000000e+00 0.000000000000000e+00 0.000000000000000e+00
0.000000000000000e+00 0.000000000000000e+00 0.000000000000000e+00

0.000000000000000e+00 0.000000000000000e+00 0.000000000000000e+00
0.000000000000000e+00 0.000000000000000e+00 0.000000000000000e+00
0.000000000000000e+00 0.000000000000000e+00 0.000000000000000e+00

0.000000000000000e+00 0.000000000000000e+00 0.000000000000000e+00
0.000000000000000e+00 0.000000000000000e+00 0.000000000000000e+00
0.000000000000000e+00 0.000000000000000e+00 0.000000000000000e+00

0.000000000000000e+00 0.000000000000000e+00 0.000000000000000e+00
0.000000000000000e+00 0.000000000000000e+00 0.000000000000000e+00
0.000000000000000e+00 0.000000000000000e+00 0.000000000000000e+00

0.000000000000000e+00 0.000000000000000e+00 0.000000000000000e+00
0.000000000000000e+00 0.000000000000000e+00 0.000000000000000e+00
0.000000000000000e+00 0.000000000000000e+00 0.000000000000000e+00

0.000000000000000e+00 0.000000000000000e+00 0.000000000000000e+00
0.000000000000000e+00 0.000000000000000e+00 0.000000000000000e+00
0.000000000000000e+00 0.000000000000000e+00 0.000000000000000e+00

0.000000000000000e+00 0.000000000000000e+00 0.000000000000000e+00
0.000000000000000e+00 0.000000000000000e+00 0.000000000000000e+00
0.000000000000000e+00 0.000000000000000e+00 0.000000000000000e+00

0.000000000000000e+00 0.000000000000000e+00 0.000000000000000e+00
0.000000000000000e+00 0.000000000000000e+00 0.000000000000000e+00
0.000000000000000e+00 0.000000000000000e+00 0.000000000000000e+00

0.000000000000000e+00 0.000000000000000e+00 0.000000000000000e+00
0.000000000000000e+00 0.000000000000000e+00 0.000000000000000e+00
0.000000000000000e+00 0.000000000000000e+00 0.000000000000000e+00

0.000000000000000e+00 0.000000000000000e+00 0.000000000000000e+00
0.000000000000000e+00 0.000000000000000e+00 0.000000000000000e+00
0.000000000000000e+00 0.000000000000000e+00 0.000000000000000e+00

0.000000000000000e+00 0.000000000000000e+00 0.000000000000000e+00
0.000000000000000e+00 0.000000000000000e+00 0.000000000000000e+00
0.000000000000000e+00 0.000000000000000e+00 0.000000000000000e+00

0.000000000000000e+00 0.000000000000000e+00 0.000000000000000e+00
0.000000000000000e+00 0.000000000000000e+00 0.000000000000000e+00
0.000000000000000e+00 0.000000000000000e+00 0.000000000000000e+00

0.000000000000000e+00 0.000000000000000e+00 0.000000000000000e+00
0.000000000000000e+00 0.000000000000000e+00 0.000000000000000e+00
0.000000000000000e+00 0.000000000000000e+00 0.000000000000000e+00

0.000000000000000e+00 0.000000000000000e+00 0.000000000000000e+00
0.000000000000000e+00 0.000000000000000e+00 0.000000000000000e+00
0.000000000000000e+00 0.000000000000000e+00 0.000000000000000e+00

0.000000000000000e+00 0.000000000000000e+00 0.000000000000000e+00
0.000000000000000e+00 0.000000000000000e+00 0.000000000000000e+00
0.000000000000000e+00 0.000000000000000e+00 0.000000000000000e+00

0.000000000000000e+00 0.000000000000000e+00 0.000000000000000e+00
0.000000000000000e+00 0.000000000000000e+00 0.000000000000000e+00
0.000000000000000e+00 0.000000000000000e+00 0.000000000000000e+00

0.000000000000000e+00 0.000000000000000e+00 0.000000000000000e+00
0.000000000000000e+00 0.000000000000000e+00 0.000000000000000e+00
0.000000000000000e+00 0.000000000000000e+00 0.000000000000000e+00

0.000000000000000e+00 0.000000000000000e+00 0.000000000000000e+00
0.000000000000000e+00 0.000000000000000e+00 0.000000000000000e+00
0.000000000000000e+00 0.000000000000000e+00 0.000000000000000e+00

 8.993615304185723e-02  5.024370198835790e-02 -2.938177751373621e-03
 5.024370198835790e-02  2.190246633143183e-02  1.707886934417196e-02
-2.938177751373621e-03  1.707886934417196e-02  5.374721459900073e-02

 5.862474364911983e-02 -2.938582493677561e-03  1.164696705016409e-03
-2.938582493677561e-03  7.936603451503365e-03  8.843158198015785e-03
 1.164696705016409e-03  8.843158198015785e-03  3.311273303669116e-02

-1.103547249460735e-02  1.606510589868229e-01  5.921200801594223e-03
 1.606510589868229e-01 -1.752674860985569e-02 -1.297978571151782e-02
 5.921200801594223e-03 -1.297978571151782e-02 -2.432813595643789e-03

 5.449389109495256e-03 -1.195971467649007e-01 -1.036336813096097e-03
-1.195971467649007e-01 -9.319867393367041e-03  9.567967636359133e-02
-1.036336813096097e-03  9.567967636359133e-02  6.711929870150946e-03

6.450712195063704e-02 6.231028257250897e-02 8.789655387070699e-03
6.231028257250897e-02 8.217615477922062e-03 4.527339278114394e-02
8.789655387070699e-03 4.527339278114394e-02 2.861525914327971e-02

-4.838701918302616e-03  1.658883767179752e-01  7.875755911385613e-03
 1.658883767179752e-01 -1.542207257510534e-02 -1.123189517627881e-02
 7.875755911385613e-03 -1.123189517627881e-02 -6.994352740508189e-04

-3.143923337152393e-02  7.485691856745218e-02  1.531042358322063e-03
 7.485691856745218e-02 -2.067299759427780e-02  2.827665578917831e-02
 1.531042358322063e-03  2.827665578917831e-02 -2.090608689975297e-02

 4.472712402125859e-02  8.331049742768962e-02 -1.742994860786396e-03
 8.331049742768962e-02  6.152107914352601e-03  2.515454868209160e-02
-1.742994860786396e-03  2.515454868209160e-02  2.523031244868952e-02

 8.356992132955622e-02  6.262194850494376e-02 -3.478210180257451e-03
 6.262194850494376e-02  2.040019278843429e-02  1.926472557897182e-02
-3.478210180257451e-03  1.926472557897182e-02  5.176373411998602e-02

 9.720342980576079e-03  7.231810565285580e-02 -3.334687294658189e-03
 7.231810565285580e-02  6.097609594328015e-03  1.180945797854388e-02
-3.334687294658189e-03  1.180945797854388e-02  4.804259668787195e-03

 7.005024179912333e-03  1.075835075188820e-01 -4.387542935146579e-04
 1.075835075188820e-01 -1.437044129999631e-03  1.996219799757339e-02
-4.387542935146579e-04  1.996219799757339e-02 -2.295768832250938e-03

-4.059024370706600e-02  7.524583610823816e-02  1.877583890464970e-03
 7.524583610823816e-02 -2.289720986064213e-02  2.778155070636705e-02
 1.877583890464970e-03  2.778155070636705e-02 -2.596949007285632e-02

-2.912018130903396e-02  1.823014920916736e-01 -3.442409227355228e-03
 1.823014920916736e-01  5.819607896811946e-04 -7.738234168958109e-05
-3.442409227355228e-03 -7.738234168958109e-05 -1.215884918270339e-02

-6.143149646054505e-02  1.601591038161001e-02 -4.263987443773432e-03
 1.601591038161001e-02 -1.227269776357784e-02  1.160552780635414e-03
-4.263987443773432e-03  1.160552780635414e-03 -2.425957377505521e-02

-1.385819695938964e-03  5.542159979369427e-02 -3.779330502770588e-03
 5.542159979369427e-02  4.006785740852769e-03  9.343148648757566e-03
-3.779330502770588e-03  9.343148648757566e-03  7.159253821642262e-04

-5.894775507885532e-02  1.703738808571786e-01 -3.431720357048963e-04
 1.703738808571786e-01 -1.118612922495032e-02 -1.700784290207417e-03
-3.431720357048963e-04 -1.700784290207417e-03 -3.071847534247594e-02

-7.512119688768251e-02  9.208594203939008e-02 -3.196176541831138e-04
 9.208594203939008e-02 -1.526369294517704e-02  5.866202087910503e-03
-3.196176541831138e-04  5.866202087910503e-03 -3.568806081487268e-02

-2.996698956858498e-02  1.943092949233017e-01 -2.384261378033541e-03
 1.943092949233017e-01  5.215182733710322e-04  4.058568711651128e-03
-2.384261378033541e-03  4.058568711651128e-03 -1.327144938694632e-02

 2.558231046416114e-02  4.912562082064639e-02 -7.603639561961696e-03
 4.912562082064639e-02  1.095843801621083e-02  3.040389871318455e-02
-7.603639561961696e-03  3.040389871318455e-02  1.241719454264172e-02

-4.949510415301771e-02  2.953987584357896e-01 -8.946446915122178e-04
 2.953987584357896e-01 -9.848411824241263e-03  7.733118423280125e-04
-8.946446915122178e-04  7.733118423280125e-04 -2.120322788185360e-02

-5.570768083765801e-02  2.071932767843674e-01 -3.420793837606490e-04
 2.071932767843674e-01 -1.047047293338942e-02 -3.000148927305977e-03
-3.420793837606490e-04 -3.000148927305977e-03 -2.873967818932589e-02

-3.098486131039923e-02  1.018172033434754e-01  7.641112934272045e-03
 1.018172033434754e-01 -2.049802830675227e-02 -3.512567706328747e-02
 7.641112934272045e-03 -3.512567706328747e-02 -2.806843057465648e-02

 1.702061061255862e-02  1.892320018757160e-01  2.570262648200633e-03
 1.892320018757160e-01  2.651138036401594e-04  1.069679340958277e-02
 2.570262648200633e-03  1.069679340958277e-02 -5.127590443873846e-06

 3.490893578188003e-02  3.922814334586005e-02 -7.832689781392886e-03
 3.922814334586005e-02  1.201212922109430e-02  3.975523080596196e-02
-7.832689781392886e-03  3.975523080596196e-02  1.563278627531420e-02

-1.789634271360168e-02  2.228626701128825e-02 -3.420820336549568e-03
 2.228626701128825e-02 -1.576108724480412e-02 -3.230761363600832e-02
-3.420820336549568e-03 -3.230761363600832e-02 -1.471255427786667e-02

 5.878890920833662e-02 -1.737143119896156e-01  4.436681494064864e-03
-1.737143119896156e-01  6.579522579426765e-03 -4.748295324516926e-02
 4.436681494064864e-03 -4.748295324516926e-02  9.389903152939709e-03

-2.334655053257902e-02  4.276837680966366e-02  7.432207218773943e-03
 4.276837680966366e-02 -1.920089999157159e-02 -4.223363473909054e-02
 7.432207218773943e-03 -4.223363473909054e-02 -2.577737202161086e-02

 3.527883387730537e-02 -9.003013287057982e-02  5.601725108674479e-03
-9.003013287057982e-02  1.687957030085193e-02 -6.806231476774961e-03
 5.601725108674479e-03 -6.806231476774961e-03  3.405448522517794e-02

-2.702688244687382e-03 -2.175571464200686e-01  1.318362570699620e-03
-2.175571464200686e-01 -1.750287052194915e-03 -2.337597130382378e-03
 1.318362570699620e-03 -2.337597130382378e-03  7.658457644148671e-03

-3.086335461660497e-02  2.579739540661042e-02 -4.686768882487028e-03
 2.579739540661042e-02 -1.815660580812163e-02 -1.765335826375894e-02
-4.686768882487028e-03 -1.765335826375894e-02 -1.665939609683574e-02

 3.030624552601195e-02 -8.136795932545665e-02  6.007116904457319e-03
-8.136795932545665e-02  1.680790545363732e-02 -7.931518156266765e-02
 6.007116904457319e-03 -7.931518156266765e-02  3.510867135473857e-02

-4.392229206344895e-02 -3.516140285357094e-02  1.150908661540017e-02
-3.516140285357094e-02 -6.643065831579794e-03 -4.761235934493472e-02
 1.150908661540017e-02 -4.761235934493472e-02  7.134972214764457e-03

 2.710536748376767e-02 -5.625641875460433e-02  7.216561275405439e-03
-5.625641875460433e-02  1.525321893141175e-02 -1.254781308569291e-02
 7.216561275405439e-03 -1.254781308569291e-02  3.261764110135436e-02

-1.348597534152954e-02  2.521527184244968e-02 -5.261851824749007e-03
 2.521527184244968e-02 -1.558597462929923e-02 -6.096440407574683e-02
-5.261851824749007e-03 -6.096440407574683e-02 -3.239901375517927e-03

 7.050268252299346e-03  4.791991299175045e-02  2.182248859608209e-04
 4.791991299175045e-02  6.705690818438873e-05 -6.727793832507016e-02
 2.182248859608209e-04 -6.727793832507016e-02  1.459009059702359e-02

 3.850413863868744e-02 -6.667686387786463e-02  4.141353226975314e-03
-6.667686387786463e-02  1.831977686666036e-02 -8.066070558897698e-02
 4.141353226975314e-03 -8.066070558897698e-02  3.701219383897875e-02

-4.087840927453883e-02 -2.866398755505057e-02 -1.130221009981720e-02
-2.866398755505057e-02 -2.917855474690826e-02 -4.722079898307029e-02
-1.130221009981720e-02 -4.722079898307029e-02 -1.504391151914734e-02

 7.656393628755064e-02 -5.551785618779082e-02 -1.158595933329756e-02
-5.551785618779082e-02  8.388620502124954e-03 -5.786635006021038e-02
-1.158595933329756e-02 -5.786635006021038e-02  2.770038898732700e-02

-1.005955952267150e-04  7.107386592787703e-03 -6.828935192078809e-03
 7.107386592787703e-03 -1.320582829027232e-02 -6.032641295469935e-02
-6.828935192078809e-03 -6.032641295469935e-02  4.777078381744013e-04

 4.225868819325473e-02 -1.162822419169351e-01  4.570501359575489e-03
-1.162822419169351e-01  1.794528025596817e-02 -3.966626900876961e-02
 4.570501359575489e-03 -3.966626900876961e-02  3.590408873734161e-02

 2.383685439498371e-02 -1.584746590387507e-01 -2.498570544239972e-03
-1.584746590387507e-01  2.638013782132352e-03 -5.253889345187056e-02
-2.498570544239972e-03 -5.253889345187056e-02  2.251594965489907e-02

-5.218371383965921e-02 -4.246432106200722e-02 -1.034957766917983e-02
-4.246432106200722e-02 -3.103917160565079e-02 -4.626110205683293e-02
-1.034957766917983e-02 -4.626110205683293e-02 -1.681178023539833e-02

 6.266080088296187e-04 -1.796919561571292e-03  1.018136673932393e-02
-1.796919561571292e-03  9.086902417927459e-03  1.250952391440765e-02
 1.018136673932393e-02  1.250952391440765e-02  5.824867113750729e-03

-5.276590535665026e-02 -1.815390901672941e-01  1.518865809477579e-02
-1.815390901672941e-01 -7.690105409823165e-03 -2.880416665666357e-02
 1.518865809477579e-02 -2.880416665666357e-02 -3.752843628337104e-03

 2.841086545868643e-02 -1.205947295757042e-01  6.979722615162125e-03
-1.205947295757042e-01  1.536162831739388e-02 -3.652940597241546e-02
 6.979722615162125e-03 -3.652940597241546e-02  3.044189906041709e-02

-6.056056777153357e-02  3.026502105825811e-02 -2.346033574234158e-03
 3.026502105825811e-02 -1.395092686649160e-02 -4.634097300343207e-02
-2.346033574234158e-03 -4.634097300343207e-02 -2.044313772690315e-02

-6.025861202309702e-02 -8.766819794137531e-02  5.087157645171630e-03
-8.766819794137531e-02 -1.275681761969307e-02 -2.935601155603203e-02
 5.087157645171630e-03 -2.935601155603203e-02 -2.030685178812160e-02

4.727100048109852e-04 9.667587389832638e-03 9.142930762930506e-03
9.667587389832638e-03 8.132338483000429e-03 1.399421937082990e-02
9.142930762930506e-03 1.399421937082990e-02 3.236905429540362e-03

-3.060734134765677e-02  5.083062817172228e-02 -6.921493569689403e-03
 5.083062817172228e-02 -5.168365219680473e-03 -1.550013605917264e-01
-6.921493569689403e-03 -1.550013605917264e-01 -1.039617445244226e-02

-2.833512868610329e-02  9.923519543402229e-02 -7.642050367120551e-03
 9.923519543402229e-02 -4.599737458061142e-03 -9.965369210742156e-02
-7.642050367120551e-03 -9.965369210742156e-02 -9.486104232404154e-03

-5.439874547527639e-02  6.021170224871508e-02 -4.025735649553733e-03
 6.021170224871508e-02 -1.229804530065667e-02 -5.378020380549392e-02
-4.025735649553733e-03 -5.378020380549392e-02 -1.818354786050044e-02

 1.319531668530834e-02  6.374647417924934e-02 -3.489714282395883e-03
 6.374647417924934e-02  7.698042718515171e-03 -1.491787242384370e-01
-3.489714282395883e-03 -1.491787242384370e-01  4.570832754068654e-03

-1.207606982636339e-02  1.962045416155046e-01 -3.209068151391425e-03
 1.962045416155046e-01 -3.446642296342500e-04 -1.388253936906959e-01
-3.209068151391425e-03 -1.388253936906959e-01 -4.336065590476054e-03

-2.933148996010280e-02  6.578059982881883e-02 -6.210142899882014e-03
 6.578059982881883e-02 -4.963353902595114e-03 -1.585939704096071e-01
-6.210142899882014e-03 -1.585939704096071e-01 -1.011415976718914e-02

-2.554083636092077e-02  6.340752609891777e-02 -5.642441839398018e-03
 6.340752609891777e-02 -8.516297450516601e-03 -6.637213727507756e-02
-5.642441839398018e-03 -6.637213727507756e-02 -7.392115428513342e-03

-6.241987988113214e-04  8.506266421767560e-02 -4.541210013438127e-03
 8.506266421767560e-02  1.156065037947609e-03 -1.018545619728149e-01
-4.541210013438127e-03 -1.018545619728149e-01  5.874462659088192e-04

 1.527999488648101e-02  4.411631131069255e-02 -3.785410011963555e-03
 4.411631131069255e-02  8.161242555158448e-03 -1.445275972844932e-01
-3.785410011963555e-03 -1.445275972844932e-01  5.566856791547988e-03

-7.274990587351732e-03  1.536158871467995e-02 -3.546506080172339e-03
 1.536158871467995e-02 -6.846193993557172e-04 -4.501995938933388e-03
-3.546506080172339e-03 -4.501995938933388e-03  6.903982029130915e-04

 2.403543403944786e-03 -1.015543905219812e-01 -7.181295634969376e-03
-1.015543905219812e-01  1.183028006442624e-03 -4.999888798673580e-02
-7.181295634969376e-03 -4.999888798673580e-02  2.927490390658259e-03

-2.431360888082626e-02  3.183312231085167e-02 -6.120725854399913e-03
 3.183312231085167e-02 -8.200279758413401e-03 -6.091664056778474e-02
-6.120725854399913e-03 -6.091664056778474e-02 -6.682432402257533e-03

 2.387403484480175e-02 -3.231854915530507e-02 -1.088774667802142e-03
-3.231854915530507e-02  9.195350956532164e-03 -4.574713665723961e-02
-1.088774667802142e-03 -4.574713665723961e-02  1.767626938379894e-03

-6.921878473446866e-03 -1.466149966313035e-01  5.498020531187663e-04
-1.466149966313035e-01  4.876108256874023e-04 -4.378934609907463e-02
 5.498020531187663e-04 -4.378934609907463e-02 -2.953131008158314e-03

-9.829724745680257e-03  1.058857006083607e-02 -2.421845150797030e-03
 1.058857006083607e-02 -1.100479088650113e-03 -2.540929472849140e-03
-2.421845150797030e-03 -2.540929472849140e-03 -4.192262593967439e-04

-6.495939499275908e-03 -5.779005566668491e-02 -8.087362327667737e-03
-5.779005566668491e-02  1.891421728233649e-03 -1.334666583304129e-01
-8.087362327667737e-03 -1.334666583304129e-01 -2.441340290202509e-03

-2.667528071550424e-03 -7.443621406294505e-02 -2.921658307976646e-03
-7.443621406294505e-02  2.053172819998762e-03 -1.011281537960909e-01
-2.921658307976646e-03 -1.011281537960909e-01 -4.957474114763527e-03

 2.475958775959609e-02 -1.770611402182255e-02 -1.665189143589413e-03
-1.770611402182255e-02  9.313999121150144e-03 -5.191859428839170e-02
-1.665189143589413e-03 -5.191859428839170e-02  1.286992467308634e-03

-5.135689072061847e-02 -6.845815361662400e-02 -1.466873175540619e-02
-6.845815361662400e-02 -9.399759266529776e-03 -1.814662943800038e-01
-1.466873175540619e-02 -1.814662943800038e-01 -5.540398255122583e-03

 6.319524149900841e-03 -9.513034800616882e-03 -1.775664286526897e-02
-9.513034800616882e-03  6.540129125822637e-03 -1.547326659079512e-01
-1.775664286526897e-02 -1.547326659079512e-01  6.074113573030689e-03

-3.295594234784423e-03 -4.544306168616608e-02 -1.016460545819979e-02
-4.544306168616608e-02  2.995217819562766e-03 -1.393983583453091e-01
-1.016460545819979e-02 -1.393983583453091e-01 -4.662925431723517e-04

-5.367596578791128e-02 -1.720776175872706e-01 -1.034678877516365e-02
-1.720776175872706e-01 -2.491359433067087e-03 -1.729135691876326e-01
-1.034678877516365e-02 -1.729135691876326e-01 -2.273550776661492e-02

-2.296550407085789e-02 -6.180894327886028e-02 -1.822824295615367e-02
-6.180894327886028e-02  2.096983024837548e-03 -1.747061951851309e-01
-1.822824295615367e-02 -1.747061951851309e-01 -5.281428735728545e-03

-5.565521305927818e-02 -7.525251486257120e-02 -1.461449773876351e-02
-7.525251486257120e-02 -1.034013995498593e-02 -1.841038428596533e-01
-1.461449773876351e-02 -1.841038428596533e-01 -7.214050307448126e-03

 1.870759389879443e-02 -9.856092423039998e-02 -2.106576885757682e-02
-9.856092423039998e-02  2.733363551393449e-02 -2.456539589468900e-02
-2.106576885757682e-02 -2.456539589468900e-02 -3.770718387659892e-02

-7.434834289405523e-02 -2.219213961182269e-01 -2.847319484660868e-03
-2.219213961182269e-01 -1.561959191428668e-03 -1.117781707941060e-01
-2.847319484660868e-03 -1.117781707941060e-01 -4.489098086873283e-02

-6.431859612696580e-02 -2.000270291420818e-01 -7.814901823904831e-03
-2.000270291420818e-01 -3.919035867635533e-03 -1.660929656831787e-01
-7.814901823904831e-03 -1.660929656831787e-01 -2.890990051945951e-02

-4.610720737444906e-02  1.765012611200680e-02 -3.654992984285321e-02
 1.765012611200680e-02 -7.404763717354783e-03  4.639101984247093e-02
-3.654992984285321e-02  4.639101984247093e-02 -4.421391282005301e-02

-8.901777572597852e-02 -2.970876923361616e-01 -2.034530545721549e-02
-2.970876923361616e-01 -1.053799775272879e-02 -1.721393907712163e-02
-2.034530545721549e-02 -1.721393907712163e-02 -6.380600964619260e-02

 1.521435982207805e-02 -1.160982259215444e-01 -2.389955444950406e-02
-1.160982259215444e-01  2.489744335728211e-02 -1.343836134382255e-02
-2.389955444950406e-02 -1.343836134382255e-02 -4.172317403655010e-02

-7.636668614302308e-02 -5.180017797447474e-02 -3.824546396026633e-02
-5.180017797447474e-02  1.545341668324553e-03 -7.439781527448479e-02
-3.824546396026633e-02 -7.439781527448479e-02 -1.137045622773099e-02

-5.410915239716353e-02 -2.188007322349098e-01 -5.480893336570897e-02
-2.188007322349098e-01  4.866371933342092e-04 -5.887482935382592e-02
-5.480893336570897e-02 -5.887482935382592e-02 -2.720979214534845e-02

-3.887203746615218e-02  2.675468463834129e-02 -4.194032489157298e-02
 2.675468463834129e-02 -5.967001085334067e-03  3.922702659097491e-02
-4.194032489157298e-02  3.922702659097491e-02 -3.912423850547899e-02

-5.365849258581927e-02  5.078111641814430e-02 -3.131745736599843e-02
 5.078111641814430e-02  9.087218523598681e-03 -1.217956045505177e-01
-3.131745736599843e-02 -1.217956045505177e-01  1.533244335013002e-03

-5.961829016598282e-03  4.695092398893184e-04 -6.130960303587251e-02
 4.695092398893184e-04  2.118255219581710e-02 -1.038544799526443e-01
-6.130960303587251e-02 -1.038544799526443e-01  2.764161663418115e-03

-6.740854751240034e-02 -1.530464460641030e-02 -3.914570137941321e-02
-1.530464460641030e-02  4.917344153303998e-03 -7.778829125263699e-02
-3.914570137941321e-02 -7.778829125263699e-02 -7.185503126323680e-03

 1.371358608994952e-02  9.228142949934364e-03 -4.085987451586997e-02
 9.228142949934364e-03  1.070400360836032e-02 -2.038021341336319e-01
-4.085987451586997e-02 -2.038021341336319e-01 -1.109244323600357e-02

-3.148329794729598e-03  1.889007185065394e-01 -4.638888166614295e-02
 1.889007185065394e-01  1.279385411453412e-02 -1.379776542202251e-01
-4.638888166614295e-02 -1.379776542202251e-01 -4.830906562034417e-03

-5.601073691866108e-02  8.154867034260609e-02 -2.841733560993287e-02
 8.154867034260609e-02  7.070944855117576e-03 -1.242642163623723e-01
-2.841733560993287e-02 -1.242642163623723e-01  3.410794131002952e-04

-3.065496421252550e-02  3.536420065827114e-02 -1.651359030530454e-02
 3.536420065827114e-02  3.349386599202038e-03 -1.844101906957186e-01
-1.651359030530454e-02 -1.844101906957186e-01 -1.777916553249818e-02

-2.000618340883070e-02  2.110300377616620e-01 -2.429361940890645e-02
 2.110300377616620e-01  4.004516263359439e-03 -1.749258718638495e-01
-2.429361940890645e-02 -1.749258718638495e-01 -1.793232701199420e-02

 1.083885862960423e-02  1.225885455352469e-02 -3.721317794399330e-02
 1.225885455352469e-02  9.637055505996760e-03 -2.098258308229145e-01
-3.721317794399330e-02 -2.098258308229145e-01 -1.250745288755527e-02

-4.063848227571729e-02  1.576092179262794e-01 -9.793306072845035e-03
 1.576092179262794e-01  8.716154097618830e-03 -4.979486413487210e-03
-9.793306072845035e-03 -4.979486413487210e-03 -2.537948863998729e-02

-5.105362568570363e-02  1.016542141742796e-01 -9.159580185217285e-03
 1.016542141742796e-01  3.024001742899295e-03 -8.728645412193459e-02
-9.159580185217285e-03 -8.728645412193459e-02 -2.351429762391992e-02

-3.500962499472572e-02  1.448844396385927e-02 -1.456161047984860e-02
 1.448844396385927e-02  3.209505441312342e-03 -1.747595343421306e-01
-1.456161047984860e-02 -1.747595343421306e-01 -1.850534883218667e-02

 8.357802162376258e-03  7.936495662523510e-02 -2.617584480146451e-02
 7.936495662523510e-02  1.576694630901311e-02  3.004252389769007e-02
-2.617584480146451e-02  3.004252389769007e-02 -2.416634665902846e-02

-5.383553678953310e-02 -6.097348377042663e-02 -2.565705005001737e-03
-6.097348377042663e-02  2.609867091391775e-03 -3.533436909146406e-03
-2.565705005001737e-03 -3.533436909146406e-03 -3.240371669219905e-02

-4.194992490904562e-02  1.283980195420411e-01 -8.419182850729396e-03
 1.283980195420411e-01  8.265867573006559e-03  3.977795461797546e-03
-8.419182850729396e-03  3.977795461797546e-03 -2.660278573409915e-02

-9.571866461502107e-02 -1.885979116718578e-02  1.324647741864730e-02
-1.885979116718578e-02 -7.199422267927156e-03 -3.736816414324814e-02
 1.324647741864730e-02 -3.736816414324814e-02  5.405811700979588e-03

-5.227276602328560e-02 -1.372416575302775e-01 -1.268139205036162e-02
-1.372416575302775e-01  9.942390070367564e-04 -3.409885329638494e-02
-1.268139205036162e-02 -3.409885329638494e-02 -1.061860834641722e-02

 9.025414492506578e-03  6.888606906138714e-02 -2.863884051347348e-02
 6.888606906138714e-02  1.493678016533751e-02  2.483080064133715e-02
-2.863884051347348e-02  2.483080064133715e-02 -2.169116361098558e-02

-2.780449978305061e-02 -1.748180957726300e-02 -2.210970951878668e-03
-1.748180957726300e-02  7.499304574861076e-03 -7.699258867373590e-02
-2.210970951878668e-03 -7.699258867373590e-02  3.490318437186215e-03

-3.242494192218724e-02 -1.022772270412537e-01 -8.446165361580871e-03
-1.022772270412537e-01  8.480822181669564e-03 -7.584343364489619e-02
-8.446165361580871e-03 -7.584343364489619e-02  1.030011476427114e-02

-9.043910605892781e-02 -1.186541914381600e-02  1.377295196436527e-02
-1.186541914381600e-02 -5.274443580438618e-03 -4.255249573560313e-02
 1.377295196436527e-02 -4.255249573560313e-02  8.573073645303030e-03

-1.622058563783709e-03 -7.116880708420995e-02 -1.562997807566419e-02
-7.116880708420995e-02  1.186617057079541e-02 -1.056190818739859e-01
-1.562997807566419e-02 -1.056190818739859e-01 -1.027264513858099e-02

-2.448071364126150e-02 -2.974546584480861e-02  4.030490246115616e-04
-2.974546584480861e-02  6.450941766131883e-03 -9.355169189442740e-02
 4.030490246115616e-04 -9.355169189442740e-02 -5.591043587415836e-03

-2.838135098261998e-02 -3.318614944755317e-03 -1.087061980571596e-04
-3.318614944755317e-03  6.888200313406975e-03 -7.827572968471977e-02
-1.087061980571596e-04 -7.827572968471977e-02  1.478408275642630e-03

-3.575458359289158e-02  1.147332617048845e-01  7.719818577741341e-03
 1.147332617048845e-01  4.377715747845775e-03 -5.242303584167121e-02
 7.719818577741341e-03 -5.242303584167121e-02 -3.784083043641921e-03

-3.208998103261614e-02  2.854598151081002e-02  4.185839397891970e-03
 2.854598151081002e-02  5.491403062267773e-03 -7.821348538008092e-02
 4.185839397891970e-03 -7.821348538008092e-02 -8.210196068380828e-03

-2.652602635905756e-03 -6.436667935615549e-02 -1.543873628810353e-02
-6.436667935615549e-02  1.198536878842548e-02 -1.035810971461186e-01
-1.543873628810353e-02 -1.035810971461186e-01 -1.060469072482630e-02

 5.470931301664020e-03  6.912739318282794e-02 -2.186315304139848e-02
 6.912739318282794e-02  1.341047094474235e-02 -5.907040323466514e-02
-2.186315304139848e-02 -5.907040323466514e-02 -5.394588948365516e-03

-2.405354230714681e-02  6.196629137626890e-02 -1.022383667178892e-03
 6.196629137626890e-02  6.771504591341854e-03 -5.670187473641395e-02
-1.022383667178892e-03 -5.670187473641395e-02 -5.685644836035049e-03

-3.444179570713676e-02  1.176150404516898e-01  6.998353297105912e-03
 1.176150404516898e-01  4.578174981638663e-03 -4.990340397490918e-02
 6.998353297105912e-03 -4.990340397490918e-02 -3.467945592932924e-03

-5.237801243412501e-02 -1.954276072114698e-02  2.156445226332407e-02
-1.954276072114698e-02  3.500833414258086e-03 -7.954944023318221e-02
 2.156445226332407e-02 -7.954944023318221e-02  1.550933854762791e-02

-1.361980179649881e-02  3.767327041214241e-02 -8.190937558447251e-03
 3.767327041214241e-02  1.126178538214305e-02 -6.982667725900010e-02
-8.190937558447251e-03 -6.982667725900010e-02  5.880243905707084e-03

 7.381303998947426e-03  6.785370065017153e-02 -2.324625187945544e-02
 6.785370065017153e-02  1.405170518434074e-02 -6.050027446779715e-02
-2.324625187945544e-02 -6.050027446779715e-02 -4.059237912032053e-03

-3.527199089522923e-02  3.863984725994461e-02  1.436881018621305e-02
 3.863984725994461e-02  7.159737150157696e-03 -4.265468807960502e-02
 1.436881018621305e-02 -4.265468807960502e-02  7.851918620007631e-03

-1.399353013922099e-02 -2.256304663326218e-03 -3.685061550478612e-03
-2.256304663326218e-03  1.218359053663556e-02 -6.315000584303559e-02
-3.685061550478612e-03 -6.315000584303559e-02  1.612654984155972e-02

-5.095759300031581e-02 -2.552443363042973e-02  2.138500711284359e-02
-2.552443363042973e-02  3.704805528046186e-03 -7.890822006259572e-02
 2.138500711284359e-02 -7.890822006259572e-02  1.700768898993277e-02

 8.115223665911725e-03  1.465457822837321e-03 -5.050170127809955e-02
 1.465457822837321e-03  1.880490927725626e-02 -2.673737230732534e-02
-5.050170127809955e-02 -2.673737230732534e-02 -2.265126888096895e-02

-2.962867455195018e-02 -6.260659809959913e-02  1.866183086151557e-03
-6.260659809959913e-02  9.574246443370901e-03 -4.366017322074112e-02
 1.866183086151557e-03 -4.366017322074112e-02 -1.092733768945225e-02

-3.915086772797228e-02  2.795818196712872e-02  1.693821089889194e-02
 2.795818196712872e-02  6.559861108569771e-03 -4.082851818680931e-02
 1.693821089889194e-02 -4.082851818680931e-02  4.443770716975070e-03

-3.509859818896930e-02  2.637198354035400e-01 -2.398681795134790e-02
 2.637198354035400e-01  1.486886187945471e-04  1.189873581529914e-03
-2.398681795134790e-02  1.189873581529914e-03 -2.677448962215057e-03

-5.695590535796648e-02 -4.910406564374931e-02 -9.757853377652229e-03
-4.910406564374931e-02  1.383462487358672e-03 -2.119041625577265e-02
-9.757853377652229e-03 -2.119041625577265e-02 -1.839566588734760e-02

 2.393573254334685e-03 -1.146768317329169e-03 -5.226548990672489e-02
-1.146768317329169e-03  1.721979972366122e-02 -2.432215268407708e-02
-5.226548990672489e-02 -2.432215268407708e-02 -2.334996104323956e-02

-5.571603642429965e-02  5.301182586792095e-02  4.326661768614971e-03
 5.301182586792095e-02  1.368106010678787e-02 -4.173104964319666e-02
 4.326661768614971e-03 -4.173104964319666e-02  3.855464049747614e-03

-5.179386169636878e-02  3.161152207881614e-02 -2.510353463527452e-02
 3.161152207881614e-02  7.466922711881152e-03 -3.446622985130461e-02
-2.510353463527452e-02 -3.446622985130461e-02 -1.270540697725166e-04

-3.326835009330618e-02  2.731290249849845e-01 -2.772499630378911e-02
 2.731290249849845e-01  6.719990658817986e-04 -3.868659063827913e-03
-2.772499630378911e-02 -3.868659063827913e-03 -2.121557986182678e-04

-2.329396833940245e-02 -1.226287362974671e-01 -1.075080306811952e-02
-1.226287362974671e-01  1.251806959997849e-02 -7.218147411489613e-02
-1.075080306811952e-02 -7.218147411489613e-02  7.969211202953588e-03

-2.066995701616851e-02  1.126721256249984e-01 -3.802596888103189e-02
 1.126721256249984e-01  1.780151033134987e-02 -4.711583051769930e-02
-3.802596888103189e-02 -4.711583051769930e-02  5.571708777718634e-03

-5.043028091026257e-02  7.544079431666145e-02  1.932891263538170e-03
 7.544079431666145e-02  1.485979601577268e-02 -4.203348007984779e-02
 1.932891263538170e-03 -4.203348007984779e-02  4.559810526946246e-03

-7.960267455535162e-03  2.719702667492505e-01 -5.527072610709368e-03
 2.719702667492505e-01  1.016940648856092e-02 -8.537707542121971e-03
-5.527072610709368e-03 -8.537707542121971e-03  3.082290848821345e-03

 3.441891227782778e-03  1.630916272656435e-01 -2.828298432247373e-02
 1.630916272656435e-01  1.255236923586456e-02 -4.007669602751424e-02
-2.828298432247373e-02 -4.007669602751424e-02  7.559260609655087e-03

-1.935791766790219e-02 -1.195166894917092e-01 -8.742260440673076e-03
-1.195166894917092e-01  1.097312550317900e-02 -7.444253850372209e-02
-8.742260440673076e-03 -7.444253850372209e-02  8.989004962722957e-03

 5.508697178148443e-03  1.805433599998395e-01 -3.335766469243297e-02
 1.805433599998395e-01  1.379390316224278e-02 -5.413811337997614e-03
-3.335766469243297e-02 -5.413811337997614e-03 -1.142233683092496e-02

-3.896223235017550e-03  1.349181336737056e-01 -5.883565127609422e-03
 1.349181336737056e-01  1.128021655863784e-02 -1.044955247674941e-02
-5.883565127609422e-03 -1.044955247674941e-02 -4.388298244643010e-03

-9.617677069280163e-03  2.592885917709420e-01 -1.437005349765193e-03
 2.592885917709420e-01  1.006094833455794e-02 -5.646817152826031e-03
-1.437005349765193e-03 -5.646817152826031e-03  1.676492037237388e-03

 6.681694976319466e-03  1.504628758662062e-01 -8.571698586833347e-02
 1.504628758662062e-01  1.159811303920467e-02 -7.635637699647180e-03
-8.571698586833347e-02 -7.635637699647180e-03 -1.104456860912433e-02

-1.960307856336888e-02  7.287183797277082e-02 -4.551502450401359e-03
 7.287183797277082e-02  7.147699358634472e-03 -1.293773698777482e-02
-4.551502450401359e-03 -1.293773698777482e-02 -1.217799754684429e-02

 2.194228732732663e-03  1.714652641056403e-01 -3.125398592704009e-02
 1.714652641056403e-01  1.281796158398351e-02 -6.096279580895844e-03
-3.125398592704009e-02 -6.096279580895844e-03 -1.194430172486885e-02

-4.403226875944057e-02  1.326205745598705e-01  6.832285676012688e-02
 1.326205745598705e-01  6.693538859471678e-03 -1.303688603892799e-02
 6.832285676012688e-02 -1.303688603892799e-02  1.308774412265603e-02

-2.306834677248620e-02  7.850466255696056e-02 -3.255158214502779e-02
 7.850466255696056e-02  8.821626169596142e-03 -1.385944222456774e-02
-3.255158214502779e-02 -1.385944222456774e-02  1.813415912481623e-03

 5.964279734128499e-03  1.517309109131467e-01 -9.213819136806867e-02
 1.517309109131467e-01  1.135333430794800e-02 -7.685945115375994e-03
-9.213819136806867e-02 -7.685945115375994e-03 -8.969107017708828e-03

-2.152664673731364e-02  3.560559204151412e-02  7.227410555672971e-02
 3.560559204151412e-02  3.416708638059002e-03 -9.660754498906575e-03
 7.227410555672971e-02 -9.660754498906575e-03  1.253942022770701e-02

-6.903858497335787e-03  9.615297124119870e-02 -3.239177417634885e-02
 9.615297124119870e-02  1.152625772285508e-02 -1.103739121328650e-02
-3.239177417634885e-02 -1.103739121328650e-02  1.079747849113961e-02

-4.019593809332612e-02  1.375216994846380e-01  6.514595761765703e-02
 1.375216994846380e-01  7.582100816714344e-03 -1.195285062579411e-02
 6.514595761765703e-02 -1.195285062579411e-02  1.342702517412224e-02

-3.247658163785251e-03  1.028499168666854e-01 -1.150064786197615e-01
 1.028499168666854e-01  1.913132385313955e-02 -5.680269447453795e-03
-1.150064786197615e-01 -5.680269447453795e-03 -1.509600728185080e-02

-1.572592106332757e-02  7.618405892994451e-02  1.604033797282500e-02
 7.618405892994451e-02  8.196537010655805e-03 -8.054616211705796e-03
 1.604033797282500e-02 -8.054616211705796e-03 -2.564107854196497e-03

-2.320308740618855e-02  3.261323059941846e-02  8.407647113154440e-02
 3.261323059941846e-02  2.198351016899229e-03 -8.963683959019407e-03
 8.407647113154440e-02 -8.963683959019407e-03  1.167909352125560e-02

-5.385245046374283e-02  9.995076771870290e-02  4.129973146451728e-04
 9.995076771870290e-02  8.448601418870990e-03  7.526357397044332e-03
 4.129973146451728e-04  7.526357397044332e-03  3.227208642246829e-03

-5.393571651146441e-02  2.039142568477664e-02  4.757648796078905e-02
 2.039142568477664e-02  9.226405815720469e-03  2.018606651422834e-03
 4.757648796078905e-02  2.018606651422834e-03 -5.738125427454607e-03

-1.013176625851849e-02  9.216303714236457e-02 -1.082847072977747e-01
 9.216303714236457e-02  1.864918896623854e-02 -3.414363219839987e-03
-1.082847072977747e-01 -3.414363219839987e-03 -1.451691749830873e-02

-4.155062221890073e-02  9.128152396188680e-02  7.857516508021865e-02
 9.128152396188680e-02  8.370744914724957e-03  2.602469253966109e-03
 7.857516508021865e-02  2.602469253966109e-03  3.608705825331575e-03

-6.377935804071773e-02 -1.769746023998828e-02  2.743631553940877e-02
-1.769746023998828e-02  6.282092404874821e-03  5.277547545495432e-03
 2.743631553940877e-02  5.277547545495432e-03  3.567596797348448e-03

-5.504411080349744e-02  9.454230186792163e-02 -7.067385886963656e-03
 9.454230186792163e-02  7.722798720867444e-03  7.597612345565024e-03
-7.067385886963656e-03  7.597612345565024e-03  4.829122233268355e-03

-2.958309374761454e-02  1.469928764685165e-02 -9.542830146066274e-03
 1.469928764685165e-02  1.074131512591781e-02  1.274818114812668e-02
-9.542830146066274e-03  1.274818114812668e-02  3.292427924669397e-04

-4.099602033271462e-02 -1.987878356090500e-02 -9.462716471329654e-03
-1.987878356090500e-02  9.585413986128697e-03  9.298642636321224e-03
-9.462716471329654e-03  9.298642636321224e-03 -3.759197352277649e-04

-3.724222338064121e-02  9.248100873190195e-02  7.232990465131493e-02
 9.248100873190195e-02  9.457045501086132e-03  2.761497619144612e-03
 7.232990465131493e-02  2.761497619144612e-03  2.272376584712392e-03

-9.045634193889018e-03  3.359206015821274e-02  8.143173403848902e-03
 3.359206015821274e-02  1.095073918176935e-02  2.101362937933187e-02
 8.143173403848902e-03  2.101362937933187e-02 -7.598728180200504e-04

-2.213185481274745e-02 -3.959325655451498e-03 -1.754223217140947e-02
-3.959325655451498e-03  9.662954146258972e-03  1.912013235473771e-02
-1.754223217140947e-02  1.912013235473771e-02  2.156592453797937e-04

-2.695039164694815e-02  1.806358922739247e-02 -9.887539450367914e-03
 1.806358922739247e-02  1.071687317366729e-02  1.397268072971098e-02
-9.887539450367914e-03  1.397268072971098e-02  3.568303323663737e-04

-2.532453380508380e-02  1.468066321654555e-02 -2.734798738182334e-02
 1.468066321654555e-02  8.450677848402061e-03  2.878533118924283e-02
-2.734798738182334e-02  2.878533118924283e-02  8.216927041854071e-03

-8.815887997324313e-03 -7.006540919647130e-03  1.241745983300983e-03
-7.006540919647130e-03  1.059285503897924e-02  2.753159558753053e-02
 1.241745983300983e-03  2.753159558753053e-02  3.403901551291027e-03

-6.760739888816965e-03  3.291635014012861e-02  1.133828560789980e-02
 3.291635014012861e-02  1.112193271171003e-02  2.212657167768330e-02
 1.133828560789980e-02  2.212657167768330e-02 -5.896333212575386e-04

-2.944791813975551e-02  7.539550385216620e-02 -6.071604962568524e-03
 7.539550385216620e-02  6.914864205736948e-03  2.084400625714447e-02
-6.071604962568524e-03  2.084400625714447e-02  6.630646459937085e-03

-1.757763700660338e-02 -3.757023410243503e-02  9.862139784469653e-03
-3.757023410243503e-02  1.062767885636993e-02  3.230559041701579e-02
 9.862139784469653e-03  3.230559041701579e-02  6.934037410821858e-03

-2.692090900859712e-02  9.078498046461603e-03 -2.577449877048110e-02
 9.078498046461603e-03  8.401345723391332e-03  2.971156397453155e-02
-2.577449877048110e-02  2.971156397453155e-02  8.705366401050260e-03

-3.250606868327308e-03  5.734762060591533e-02  2.737706843463741e-02
 5.734762060591533e-02  1.222580390379381e-02  2.016019024837089e-02
 2.737706843463741e-02  2.016019024837089e-02 -7.880547193382569e-03

-3.134322634447746e-02 -4.883055722688308e-02  1.418242980716077e-03
-4.883055722688308e-02  6.807366222965379e-03  3.058116895215314e-02
 1.418242980716077e-03  3.058116895215314e-02 -1.940191254257246e-03

-3.241466545109943e-02  7.400013432602782e-02 -8.517234581921036e-03
 7.400013432602782e-02  6.125083568814047e-03  2.010928386786707e-02
-8.517234581921036e-03  2.010928386786707e-02  5.884999881692754e-03

-4.059143765702695e-02  5.482282247212654e-02 -2.019099702942614e-02
 5.482282247212654e-02  5.566479575123894e-03  2.797220755035681e-02
-2.019099702942614e-02  2.797220755035681e-02  5.104416917274558e-03

-3.048247216595574e-02 -2.658638392376212e-02 -9.882885261193859e-03
-2.658638392376212e-02  7.286841267176864e-03  3.542806943791377e-02
-9.882885261193859e-03  3.542806943791377e-02 -1.816389916374783e-03

-2.714639676913951e-03  6.050442994830422e-02  2.515412266552412e-02
 6.050442994830422e-02  1.255140865788689e-02  2.032124187105774e-02
 2.515412266552412e-02  2.032124187105774e-02 -8.157744409304798e-03

-2.984810618202570e-02  2.307922676640391e-01 -4.461148714848802e-03
 2.307922676640391e-01  8.044649416986667e-03 -4.462120130260488e-03
-4.461148714848802e-03 -4.462120130260488e-03 -9.291368997680272e-04

-3.306763515636868e-02  5.188885617357607e-02 -1.014333077387572e-02
 5.188885617357607e-02  7.121193440164219e-03  2.581773547647159e-02
-1.014333077387572e-02  2.581773547647159e-02  3.563146716961971e-03

-4.063262999525284e-02  6.422808099413839e-02 -1.952432438386887e-02
 6.422808099413839e-02  5.568442626552452e-03  2.678650884280184e-02
-1.952432438386887e-02  2.678650884280184e-02  5.760356231186565e-03

-5.171634401300071e-03  1.186097917843445e-01  1.563572751886304e-02
 1.186097917843445e-01  1.110794074977420e-02  6.807427845901341e-02
 1.563572751886304e-02  6.807427845901341e-02 -1.141925909687317e-02

-3.841596281479542e-02  1.785008921929929e-01 -8.237547919538651e-03
 1.785008921929929e-01  5.387073743527405e-03  3.160728257982316e-02
-8.237547919538651e-03  3.160728257982316e-02 -7.701057583754306e-03

-3.142749260508243e-02  2.508884667016404e-01 -4.622022845007230e-03
 2.508884667016404e-01  7.839964051574470e-03 -5.427477808903080e-03
-4.622022845007230e-03 -5.427477808903080e-03 -2.297842097969061e-03

-2.248673738358581e-02  1.719655817317624e-01  3.384259634421479e-03
 1.719655817317624e-01  4.399555824929864e-03  6.268658162208228e-02
 3.384259634421479e-03  6.268658162208228e-02  1.059967249429526e-03

-2.745941501855463e-02  2.704005252627861e-01  3.627971819106761e-03
 2.704005252627861e-01  4.671529365700160e-03  5.059350127632197e-02
 3.627971819106761e-03  5.059350127632197e-02 -6.256088818382979e-03

-3.230924041709260e-03  1.342185524389774e-01  1.770611444450896e-02
 1.342185524389774e-01  1.081313582679384e-02  6.886517827043702e-02
 1.770611444450896e-02  6.886517827043702e-02 -1.113398693098021e-02

-1.427685048915484e-02  2.049761315127856e-01  9.538024064447061e-03
 2.049761315127856e-01  8.544264213124505e-03  4.466827367991739e-02
 9.538024064447061e-03  4.466827367991739e-02  3.122839382358804e-03

-4.754314213530166e-03  2.590993023289436e-01  2.156588072928237e-02
 2.590993023289436e-01  1.002608741972116e-02  4.204225025027324e-02
 2.156588072928237e-02  4.204225025027324e-02  1.690845676919991e-03

-1.845577685792588e-02  1.697335077173706e-01  6.439739599265755e-03
 1.697335077173706e-01  5.309521610245001e-03  6.133114043314174e-02
 6.439739599265755e-03  6.133114043314174e-02  1.758320048231178e-03

 3.341817802633161e-04  2.147436570563496e-02  2.864769744411802e-02
 2.147436570563496e-02  1.216318553267913e-02  7.373329760572686e-02
 2.864769744411802e-02  7.373329760572686e-02 -3.409875622535507e-03

 7.997119580246346e-03  1.346065237709820e-01  3.288787485525335e-02
 1.346065237709820e-01  1.304347017893222e-02  5.685188844983860e-02
 3.288787485525335e-02  5.685188844983860e-02 -1.310951279162351e-03

-1.224565704494199e-02  1.872430248179562e-01  1.117666454501894e-02
 1.872430248179562e-01  8.984274256686617e-03  4.709362342962119e-02
 1.117666454501894e-02  4.709362342962119e-02  2.709545615252177e-03

-2.703504767671631e-02  7.310001465462294e-02  1.538526731575317e-02
 7.310001465462294e-02  6.220582380014486e-03  3.831878860646763e-02
 1.538526731575317e-02  3.831878860646763e-02  7.907489516833247e-04

-1.540105164343585e-03 -5.429778055348015e-02  3.579440720406334e-02
-5.429778055348015e-02  1.302999203382675e-02  7.327084774250908e-02
 3.579440720406334e-02  7.327084774250908e-02 -3.014325325866127e-03

-1.120744218668553e-03 -7.491516492329717e-03  2.909800722345543e-02
-7.491516492329717e-03  1.226982530466958e-02  7.707023863936323e-02
 2.909800722345543e-02  7.707023863936323e-02 -3.686993970641316e-03

-1.052335338972878e-02  8.587871314829032e-02  2.608279554199281e-02
 8.587871314829032e-02  4.995876830762701e-03 -9.318876799579878e-03
 2.608279554199281e-02 -9.318876799579878e-03 -8.050619812478564e-03

-2.372051552920792e-02 -1.712832907931031e-01  2.979543870759482e-02
-1.712832907931031e-01  6.136846370909564e-03  5.058035553261366e-02
 2.979543870759482e-02  5.058035553261366e-02 -6.409310425499573e-03

-3.099800193262939e-02  5.548272342134219e-02  1.438678749725545e-02
 5.548272342134219e-02  4.791038064870774e-03  3.499544062719043e-02
 1.438678749725545e-02  3.499544062719043e-02  6.112998080520710e-04

-1.921311134729245e-02 -7.606339894019044e-02  1.662489932369212e-02
-7.606339894019044e-02  9.908443556725890e-03  9.907064281175237e-02
 1.662489932369212e-02  9.907064281175237e-02 -1.296674128092449e-02

-3.483558542180856e-02 -1.402954949390467e-01  1.514832575894621e-02
-1.402954949390467e-01  4.294911807529422e-03  6.589589885883933e-02
 1.514832575894621e-02  6.589589885883933e-02 -1.456827759780089e-02

-1.230010530874460e-02  9.311523987346404e-02  2.353080664281821e-02
 9.311523987346404e-02  4.899083516246971e-03 -1.089319717675680e-02
 2.353080664281821e-02 -1.089319717675680e-02 -8.870090311490466e-03

-4.522530509489010e-02 -1.783145461905423e-01  1.820280478346131e-03
-1.783145461905423e-01  4.586945827532549e-03  1.982044705840403e-01
 1.820280478346131e-03  1.982044705840403e-01 -6.942828315522734e-03

-3.473413269678218e-02 -3.337578214737653e-02  6.409531549816560e-03
-3.337578214737653e-02  6.288550761523406e-03  1.427404268904857e-01
 6.409531549816560e-03  1.427404268904857e-01 -8.639271488725083e-03

-1.844536346269008e-02 -5.321132425735005e-02  1.547003470217148e-02
-5.321132425735005e-02  1.015862336806414e-02  1.063055345214392e-01
 1.547003470217148e-02  1.063055345214392e-01 -1.203819825244670e-02

 1.080464166066379e-02 -9.150167284050111e-02  1.741554407874435e-02
-9.150167284050111e-02  1.117874393620995e-02  1.358488781027112e-01
 1.741554407874435e-02  1.358488781027112e-01 -8.595115922454179e-03

-2.575533878785887e-02 -5.454951477825888e-02  2.754806326326650e-03
-5.454951477825888e-02  5.320310353464796e-03  1.583174856886118e-01
 2.754806326326650e-03  1.583174856886118e-01 -8.673695334591230e-03

-4.455325743106330e-02 -1.864003768075505e-01  9.371637401190330e-04
-1.864003768075505e-01  4.401646322579660e-03  1.997807961177160e-01
 9.371637401190330e-04  1.997807961177160e-01 -7.042954257117834e-03

-6.770353762172236e-02  4.466817235941187e-02 -3.658780490914769e-03
 4.466817235941187e-02 -5.670826183759762e-03  2.147974159253770e-02
-3.658780490914769e-03  2.147974159253770e-02  2.594629234113800e-03

-2.387851477480799e-02 -1.352184336773645e-01  6.864685205012600e-03
-1.352184336773645e-01  4.539773866078101e-03  9.370031378063097e-02
 6.864685205012600e-03  9.370031378063097e-02 -1.311924439208414e-03

 1.184484080734374e-02 -1.106095019935335e-01  1.814580897403221e-02
-1.106095019935335e-01  1.125095400110021e-02  1.296527204262420e-01
 1.814580897403221e-02  1.296527204262420e-01 -7.547931671020252e-03

-5.046588694024650e-02 -5.789669973682107e-02  1.338306063055270e-02
-5.789669973682107e-02 -3.088967148766380e-03  2.374379475185057e-02
 1.338306063055270e-02  2.374379475185057e-02 -1.239566403278479e-02

-4.086624256429329e-02 -2.399272196468824e-01  1.749287776881888e-02
-2.399272196468824e-01  7.095517168474190e-04  6.031699042301957e-02
 1.749287776881888e-02  6.031699042301957e-02 -2.020734126809716e-03

-6.857081013191456e-02  1.908059429342002e-02 -8.407404803759273e-04
 1.908059429342002e-02 -6.278670416266145e-03  1.806800115978129e-02
-8.407404803759273e-04  1.806800115978129e-02  2.497184903029282e-03

-7.595508352674435e-03 -9.297520160094670e-02  4.861475884600964e-03
-9.297520160094670e-02  1.430210942240708e-02  1.156924692947657e-01
 4.861475884600964e-03  1.156924692947657e-01 -2.536177299656221e-02

-7.792602930133113e-02 -2.010583915741776e-01  3.442724263689008e-03
-2.010583915741776e-01 -6.462418916776909e-03  1.055421056534340e-01
 3.442724263689008e-03  1.055421056534340e-01 -3.165937141931718e-02

-5.735261448918433e-02 -5.885887478418372e-02  1.162010884946746e-02
-5.885887478418372e-02 -4.389044635932150e-03  2.936993107144042e-02
 1.162010884946746e-02  2.936993107144042e-02 -1.648349430466686e-02

-3.182566282831935e-02 -4.363765879026708e-02 -2.342079194621280e-03
-4.363765879026708e-02 -2.760913448117624e-03  1.576008496390429e-01
-2.342079194621280e-03  1.576008496390429e-01 -9.661342792752563e-03

-7.335666539457880e-02 -3.012646811076182e-02 -7.287013559385877e-03
-3.012646811076182e-02 -8.776781795238001e-03  1.358746734706451e-01
-7.287013559385877e-03  1.358746734706451e-01 -2.702592691616700e-02

-9.112881200530259e-03 -6.713496658077713e-02  2.573344523096248e-03
-6.713496658077713e-02  1.344355819675124e-02  1.172393890753960e-01
 2.573344523096248e-03  1.172393890753960e-01 -2.478723863286022e-02

-2.067835639726882e-03  4.170341635785246e-02  1.067281320263759e-03
 4.170341635785246e-02 -3.810130025020927e-04  9.269306769545262e-02
 1.067281320263759e-03  9.269306769545262e-02  8.154321329266401e-03

-6.629341097060345e-03  1.906326975783535e-02  4.265305498547914e-04
 1.906326975783535e-02  3.109191602838461e-04  1.220531058957280e-01
 4.265305498547914e-04  1.220531058957280e-01  2.740049209786418e-03

-2.107577243005323e-02 -4.019287944703903e-02 -1.554879695707916e-03
-4.019287944703903e-02 -1.242239901255547e-03  1.559414039283624e-01
-1.554879695707916e-03  1.559414039283624e-01 -5.610032274078426e-03

 9.226574768808476e-03  4.251085059914654e-02  4.001257040777080e-03
 4.251085059914654e-02 -2.193010184195301e-03  6.214870473673953e-02
 4.001257040777080e-03  6.214870473673953e-02  1.375221611926355e-02

 4.491466263946179e-02 -2.510654047396896e-02  6.640356069311026e-03
-2.510654047396896e-02  9.324274586596841e-03  8.983085399939138e-02
 6.640356069311026e-03  8.983085399939138e-02  2.113467319508141e-02

5.816639273751948e-03 3.327773622093572e-02 1.773831236455009e-03
3.327773622093572e-02 9.436290856473190e-04 8.980827416268521e-02
1.773831236455009e-03 8.980827416268521e-02 1.065480984844565e-02

 1.604429070800143e-02 -5.403925006481940e-03  3.652836591759291e-03
-5.403925006481940e-03 -7.452178043058282e-05  8.718363430339139e-02
 3.652836591759291e-03  8.718363430339139e-02  5.549736292978654e-03

 5.436820486668034e-02 -5.066460751262879e-02  6.182845864396183e-03
-5.066460751262879e-02  9.812774762976553e-03  9.913611264750941e-02
 6.182845864396183e-03  9.913611264750941e-02  1.853935553483910e-02

 1.415203879658380e-02  3.277112279973763e-02  4.509697140095386e-03
 3.277112279973763e-02 -1.372336790532957e-03  6.457479658817586e-02
 4.509697140095386e-03  6.457479658817586e-02  1.410569391895642e-02

 1.204400899293827e-02  3.166353903198457e-02 -1.585937051387447e-03
 3.166353903198457e-02  3.713318148401747e-03  5.152767317512527e-02
-1.585937051387447e-03  5.152767317512527e-02 -3.107329502544269e-03

 1.009295907638333e-02 -6.176328490931343e-02  1.994327319265603e-03
-6.176328490931343e-02  1.453298001973040e-03  9.242969335173415e-02
 1.994327319265603e-03  9.242969335173415e-02 -1.800690756671342e-03

 9.585276389397927e-03 -6.822658611311317e-03  3.453353807468465e-03
-6.822658611311317e-03 -1.339104708875775e-03  8.649919305295892e-02
 3.453353807468465e-03  8.649919305295892e-02  2.641114974709271e-03

-2.556341763151768e-02 -1.689796489919057e-02  1.676625132111385e-04
-1.689796489919057e-02 -4.648088004148525e-03  9.595705343311914e-02
 1.676625132111385e-04  9.595705343311914e-02 -1.350674221997356e-02

-2.145258880014769e-02 -4.154388568611438e-02 -7.888319849644629e-04
-4.154388568611438e-02 -4.054088658251687e-03  8.466573360476413e-02
-7.888319849644629e-04  8.466573360476413e-02 -1.281866653033820e-02

 9.626579686009272e-03  4.200599592544603e-02 -1.619670223387485e-03
 4.200599592544603e-02  3.669242007181508e-03  4.999506907457164e-02
-1.619670223387485e-03  4.999506907457164e-02 -3.730969876655497e-03

 1.398671429721393e-02 -4.059575284043539e-02 -4.785980987920389e-03
-4.059575284043539e-02  7.296989061896255e-03  8.932623991386557e-02
-4.785980987920389e-03  8.932623991386557e-02  4.760977034514395e-03

-2.891330507479188e-02 -1.754665153948794e-02 -3.585891481421691e-03
-1.754665153948794e-02 -5.505351010748063e-03  9.762182706581368e-02
-3.585891481421691e-03  9.762182706581368e-02 -1.234899161032033e-02

-2.685128330966310e-02 -1.187746552682543e-02 -2.006605675947917e-04
-1.187746552682543e-02 -4.945973259068725e-03  9.695423542667457e-02
-2.006605675947917e-04  9.695423542667457e-02 -1.358486836460242e-02

-1.625105007868013e-02  9.119365571598798e-02  4.171660600734385e-03
 9.119365571598798e-02 -7.404421869395312e-03 -1.213307020424725e-02
 4.171660600734385e-03 -1.213307020424725e-02 -3.095965208635366e-03

-5.279134182013559e-03 -9.203552147764051e-02 -1.613122769201043e-03
-9.203552147764051e-02 -1.193154067227435e-03  4.816242817972582e-02
-1.613122769201043e-03  4.816242817972582e-02  1.282962387934509e-03

 1.737932409778819e-02 -5.373794654118400e-02 -4.726069062592720e-03
-5.373794654118400e-02  7.925627539080212e-03  8.394180810846938e-02
-4.726069062592720e-03  8.394180810846938e-02  6.918933542663447e-03

-1.655901102921253e-02  5.571502595425461e-02  4.263330941268162e-03
 5.571502595425461e-02 -1.093181626686828e-02  5.651644276942337e-02
 4.263330941268162e-03  5.651644276942337e-02 -9.371483759972831e-03

 2.531210834934626e-02 -4.965700835882850e-02  5.598821703056406e-03
-4.965700835882850e-02  2.765758263817994e-03  4.007342164221998e-02
 5.598821703056406e-03  4.007342164221998e-02  8.455527210405942e-03

-1.121575260164051e-02  9.843847237684419e-02  4.765213397781800e-03
 9.843847237684419e-02 -6.880524817482935e-03 -9.271021846782848e-03
 4.765213397781800e-03 -9.271021846782848e-03 -2.055770560765859e-03

 1.415146379896550e-02  7.742716489533538e-02 -1.152519513678314e-03
 7.742716489533538e-02  8.033339678421368e-03  1.039605785943258e-01
-1.152519513678314e-03  1.039605785943258e-01  8.386442686824289e-03

-1.018443141998145e-03  1.687843195277789e-01  5.917340193452668e-04
 1.687843195277789e-01 -9.611426258297771e-04  7.340070914007436e-02
 5.917340193452668e-04  7.340070914007436e-02 -1.434520657150430e-04

-2.128447262517676e-02  9.144861624796627e-02  3.626959788812568e-03
 9.144861624796627e-02 -1.181002499462356e-02  5.918100483645586e-02
 3.626959788812568e-03  5.918100483645586e-02 -1.117018467923051e-02

-2.787728197252834e-02  1.915797579789963e-01 -1.600741179506389e-03
 1.915797579789963e-01 -5.660357323710151e-03  3.819775634468431e-02
-1.600741179506389e-03  3.819775634468431e-02 -1.237954413547586e-02

-3.215207647230679e-02  2.060578381502922e-01 -3.504714989543348e-03
 2.060578381502922e-01 -6.689006668984789e-03  6.754260680592845e-02
-3.504714989543348e-03  6.754260680592845e-02 -1.195511906824647e-02

 9.511399996717742e-03  8.034610032996083e-02 -1.868654400520688e-03
 8.034610032996083e-02  6.969250619930078e-03  1.053933190499667e-01
-1.868654400520688e-03  1.053933190499667e-01  6.260751372977785e-03

-3.489891428641988e-03  8.300235381346738e-02 -2.044792874794858e-03
 8.300235381346738e-02  1.333070606928277e-03  2.504956906687524e-02
-2.044792874794858e-03  2.504956906687524e-02 -4.899792854446500e-04

-3.377718966128703e-02  9.110452901062358e-02 -1.857101275398734e-03
 9.110452901062358e-02 -7.917946109412866e-03  3.319971761392224e-02
-1.857101275398734e-03  3.319971761392224e-02 -1.402477500660926e-02

-2.809598209903860e-02  1.719241725781164e-01 -1.295675843551892e-03
 1.719241725781164e-01 -5.810581831041395e-03  3.448346593495951e-02
-1.295675843551892e-03  3.448346593495951e-02 -1.268863129175428e-02

-1.409652251436403e-02  3.138911839563904e-02  3.239978289668644e-03
 3.138911839563904e-02 -8.166657108540845e-03  1.057039136007715e-02
 3.239978289668644e-03  1.057039136007715e-02 -8.398338759685570e-03

-6.719580751426505e-03 -1.151215524053864e-02  2.588470859965782e-04
-1.151215524053864e-02 -2.929627733248945e-03  2.792362513829424e-02
 2.588470859965782e-04  2.792362513829424e-02 -2.665842977243300e-03

-2.656274899865978e-04  6.842053835555562e-02 -1.882756294067891e-03
 6.842053835555562e-02  1.928481596449372e-03  2.504408657384715e-02
-1.882756294067891e-03  2.504408657384715e-02  1.159521122459172e-03

-1.628633549884982e-02  5.584529937143126e-02  9.012737526801417e-04
 5.584529937143126e-02 -9.588551433737635e-03  1.333666168436867e-02
 9.012737526801417e-04  1.333666168436867e-02 -1.055122373519395e-02

 1.546925557074835e-02 -6.264841727486298e-02  2.745352268749554e-03
-6.264841727486298e-02  2.377461830395502e-04  1.888775087651352e-02
 2.745352268749554e-03  1.888775087651352e-02  2.161326514608048e-03

-1.154577374433154e-02  2.649085389032568e-02  3.327330580324256e-03
 2.649085389032568e-02 -7.940151288753926e-03  1.003851320556852e-02
 3.327330580324256e-03  1.003851320556852e-02 -7.869572337911288e-03

 3.119593350939005e-02 -1.687664859782314e-02 -2.058722678960906e-03
-1.687664859782314e-02  1.252379003202358e-02  2.948476206914842e-02
-2.058722678960906e-03  2.948476206914842e-02  2.174682016722197e-02

-9.018347314783483e-03  7.882488209373326e-03 -8.470047591525511e-04
 7.882488209373326e-03 -3.313282224354473e-03  2.528292536271043e-02
-8.470047591525511e-04  2.528292536271043e-02 -4.400135300961508e-04

-2.168552112142392e-02  7.078131827152170e-02  2.882376631642370e-04
 7.078131827152170e-02 -1.075348788007590e-02  1.498338005255164e-02
 2.882376631642370e-04  1.498338005255164e-02 -1.196124667204384e-02

-1.223725736114872e-02  2.626562957138496e-02 -1.807375288556914e-04
 2.626562957138496e-02 -7.171738692263422e-03  1.166638135393935e-02
-1.807375288556914e-04  1.166638135393935e-02 -8.353097738349205e-03

-8.619182655776264e-03  3.577795129358478e-02 -1.784336292016002e-03
 3.577795129358478e-02 -2.828920030119326e-03  2.093820042030111e-02
-1.784336292016002e-03  2.093820042030111e-02  6.440350452747491e-04

 3.187793337780331e-02 -1.256335836904325e-02 -2.326613515586981e-03
-1.256335836904325e-02  1.274935684753951e-02  2.901663000366473e-02
-2.326613515586981e-03  2.901663000366473e-02  2.207764992756792e-02

-5.261464875366326e-02  1.353615415726631e-01 -1.498987952884184e-03
 1.353615415726631e-01 -2.274515757977090e-02  9.830865061914286e-03
-1.498987952884184e-03  9.830865061914286e-03 -3.329910949457888e-02

 8.438268624704296e-03 -2.541117884059415e-02  3.159625200533866e-04
-2.541117884059415e-02 -2.934352250403745e-03  6.088720329262506e-03
 3.159625200533866e-04  6.088720329262506e-03 -7.487547038920602e-03

-7.796908778573830e-03  1.299177462953281e-02  1.130692551721642e-04
 1.299177462953281e-02 -6.519636170702711e-03  9.640956790103636e-03
 1.130692551721642e-04  9.640956790103636e-03 -8.479678030438250e-03

 2.719291968862486e-02  4.903299237198841e-02  2.353109500634624e-03
 4.903299237198841e-02  1.435703029738885e-02 -3.210986882226901e-03
 2.353109500634624e-03 -3.210986882226901e-03  2.266809325862926e-02

-1.778935001521429e-02  3.226361230359802e-02  4.779838361091938e-04
 3.226361230359802e-02 -5.453143896282970e-03  8.512409582613177e-03
 4.779838361091938e-04  8.512409582613177e-03 -7.304999096531687e-03

-5.842445147890974e-02  1.461219057060719e-01 -1.902139289176294e-03
 1.461219057060719e-01 -2.375042218811040e-02  1.275631745235470e-02
-1.902139289176294e-03  1.275631745235470e-02 -3.419981989388261e-02

 2.741216482142637e-02  1.643885193226194e-02 -2.062855063413844e-03
 1.643885193226194e-02  1.339842070839935e-02 -8.455432674821718e-03
-2.062855063413844e-03 -8.455432674821718e-03  2.614164173861937e-02

-3.579907756060238e-02  1.430262661732059e-01  2.027867492132477e-03
 1.430262661732059e-01 -4.957840794821997e-03 -9.303924053256496e-03
 2.027867492132477e-03 -9.303924053256496e-03  2.835622317351889e-03

 2.198672406009432e-02  7.123962555267008e-02  2.506946137583617e-03
 7.123962555267008e-02  1.357648403661181e-02 -5.678795268333404e-03
 2.506946137583617e-03 -5.678795268333404e-03  2.287423588729171e-02

-3.355388518435463e-02  7.569531195066091e-02  7.831932936277374e-04
 7.569531195066091e-02 -2.322460322138386e-02 -1.377949784246203e-02
 7.831932936277374e-04 -1.377949784246203e-02 -2.583040514577515e-02

 1.576096661939988e-02  6.869980694311689e-02 -3.478743178268823e-04
 6.869980694311689e-02  2.565642955691202e-04 -1.010423996035876e-02
-3.478743178268823e-04 -1.010423996035876e-02  6.198662373142160e-03

 3.635617867171915e-02  6.383062256318338e-03 -2.760407345410711e-03
 6.383062256318338e-03  1.471217452386508e-02 -6.848436301258701e-03
-2.760407345410711e-03 -6.848436301258701e-03  2.768621500113906e-02

-1.799660215502173e-02  1.370518031793070e-01 -7.684653100118820e-03
 1.370518031793070e-01 -1.435383224217356e-02  4.292348652197296e-02
-7.684653100118820e-03  4.292348652197296e-02 -1.250233222989306e-02

 5.328431816327669e-02 -8.719653014972811e-02 -3.690018046129889e-03
-8.719653014972811e-02  4.330397652314928e-03  4.565180016366689e-03
-3.690018046129889e-03  4.565180016366689e-03  8.898802681376952e-03

-2.685717379022400e-02  4.752514710280824e-02 -3.932867079798267e-05
 4.752514710280824e-02 -2.220100640101804e-02 -1.144954333493499e-02
-3.932867079798267e-05 -1.144954333493499e-02 -2.446516503607263e-02

 3.915986103263949e-02  1.116960318591010e-01  7.074925465001616e-03
 1.116960318591010e-01  1.563048430813056e-02 -1.975578457658180e-02
 7.074925465001616e-03 -1.975578457658180e-02  2.803306040404756e-02

4.809106735630063e-03 2.115129464801987e-02 1.066939070557397e-03
2.115129464801987e-02 4.036896618053574e-04 1.945998978812153e-02
1.066939070557397e-03 1.945998978812153e-02 7.971602156251941e-03

-2.847100892999088e-02  1.575302182862287e-01 -7.616558488462991e-03
 1.575302182862287e-01 -1.571629576863929e-02  4.989564469493615e-02
-7.616558488462991e-03  4.989564469493615e-02 -1.393063417589436e-02

 5.197977653400008e-03  9.845743999244602e-02  3.504659001765063e-03
 9.845743999244602e-02  8.553275378766257e-03 -9.104928519788184e-02
 3.504659001765063e-03 -9.104928519788184e-02  1.326726510456036e-02

-4.240395972024367e-02  2.701931362269057e-01  9.896013771854052e-03
 2.701931362269057e-01 -7.492420631279329e-03 -6.587167118148543e-02
 9.896013771854052e-03 -6.587167118148543e-02 -2.510367599539199e-03

 2.953112111978855e-02  1.560031008146893e-01  8.291998651212161e-03
 1.560031008146893e-01  1.353431980712932e-02 -3.078813686228396e-02
 8.291998651212161e-03 -3.078813686228396e-02  2.521546885336628e-02

-6.358802339832247e-02  1.447730170658078e-01 -2.603085180722147e-03
 1.447730170658078e-01 -2.479406018988135e-02 -3.501454080512365e-02
-2.603085180722147e-03 -3.501454080512365e-02 -4.184819863706973e-02

-2.022714831124129e-02  3.158146408150443e-01 -9.442009503695755e-04
 3.158146408150443e-01 -5.393238483871769e-03 -4.222890471902725e-02
-9.442009503695755e-04 -4.222890471902725e-02 -1.259298085296526e-02

 8.542639354910070e-03  1.161311900632981e-01  1.333508009863146e-03
 1.161311900632981e-01  9.183398138107621e-03 -8.099374863773590e-02
 1.333508009863146e-03 -8.099374863773590e-02  1.254659342367306e-02

-5.615372463342864e-03  1.005940562862695e-01 -4.135730476144787e-03
 1.005940562862695e-01  8.190104449115202e-04 -1.964564430398092e-02
-4.135730476144787e-03 -1.964564430398092e-02 -4.256628283843115e-03

-2.250214587495681e-03 -3.393524018326639e-02 -2.840313914349579e-03
-3.393524018326639e-02 -2.289965917005133e-03 -4.299928941279695e-02
-2.840313914349579e-03 -4.299928941279695e-02 -1.125538469046695e-02

-5.894495370102242e-02  9.045314170857614e-02 -2.603168954635345e-03
 9.045314170857614e-02 -2.368434182065672e-02 -3.601920195773285e-02
-2.603168954635345e-03 -3.601920195773285e-02 -4.081469580128173e-02

 3.392665582384092e-03 -4.664201059859178e-02  1.402115197480850e-03
-4.664201059859178e-02  6.489975314883447e-03 -3.075537017520548e-02
 1.402115197480850e-03 -3.075537017520548e-02  8.510539986949713e-04

-3.471192807670706e-02 -1.647515737740698e-01  8.884102748247879e-04
-1.647515737740698e-01 -6.085237523185004e-03 -1.760750739328022e-02
 8.884102748247879e-04 -1.760750739328022e-02 -1.289726855860670e-02

-1.115028908585375e-02  9.356174830427938e-02 -3.425214162971099e-03
 9.356174830427938e-02 -5.602783818758063e-05 -7.714531001094234e-03
-3.425214162971099e-03 -7.714531001094234e-03 -5.220494560544354e-03

-5.121848469289369e-02 -1.462397909906217e-01 -5.406741145940358e-03
-1.462397909906217e-01 -1.316734309608700e-02 -1.227310651602737e-01
-5.406741145940358e-03 -1.227310651602737e-01 -2.703674410018974e-02

-3.077809947140059e-02 -4.861490841813177e-02 -1.607647105299176e-03
-4.861490841813177e-02 -5.665123904649398e-03 -8.377081800309005e-02
-1.607647105299176e-03 -8.377081800309005e-02 -1.660910099639823e-02

 6.090168089467896e-03 -2.038466974856311e-02  1.054878267625908e-03
-2.038466974856311e-02  7.106626430996540e-03 -3.857215771816747e-02
 1.054878267625908e-03 -3.857215771816747e-02  9.596488106579896e-04

 1.514111393300123e-02  4.712680317004385e-02 -1.528654733904481e-03
 4.712680317004385e-02  6.114405508269282e-03 -4.630946577846710e-02
-1.528654733904481e-03 -4.630946577846710e-02  2.577459956770331e-03

-1.638945381636676e-02 -4.086137453017472e-02 -3.867513750474429e-03
-4.086137453017472e-02 -3.151647800149054e-03 -8.732860643127811e-02
-3.867513750474429e-03 -8.732860643127811e-02 -1.186617204411913e-02

-4.838638956396770e-02 -1.432524080968333e-01 -5.686497558324205e-03
-1.432524080968333e-01 -1.263229471891204e-02 -1.224323516046759e-01
-5.686497558324205e-03 -1.224323516046759e-01 -2.615684478773962e-02

-7.004031520229442e-03 -6.048262610232483e-02 -4.445137495087018e-03
-6.048262610232483e-02 -4.755181003307639e-03 -5.882992189099614e-02
-4.445137495087018e-03 -5.882992189099614e-02 -4.389993222684517e-03

 7.520856551882097e-04 -1.160410129503142e-01 -3.674790470667461e-03
-1.160410129503142e-01 -4.551883113264048e-04 -6.007231593778824e-02
-3.674790470667461e-03 -6.007231593778824e-02 -2.511851339421826e-03

 1.700657242993074e-02  3.213892231524977e-02 -1.418709902453084e-03
 3.213892231524977e-02  6.254631113643790e-03 -4.225635810075271e-02
-1.418709902453084e-03 -4.225635810075271e-02  3.495207226265757e-03

 3.719338077545586e-02 -9.641603616911316e-02 -7.422999969673677e-03
-9.641603616911316e-02  7.401348986517590e-03 -8.381108653598378e-02
-7.422999969673677e-03 -8.381108653598378e-02  1.597213312471517e-02

 2.495911700045020e-02 -1.186677861090451e-01 -6.240166264701627e-03
-1.186677861090451e-01  4.342998732264189e-03 -8.216082262485506e-02
-6.240166264701627e-03 -8.216082262485506e-02  9.322040087083988e-03

-3.694947112785894e-03 -5.711281409395243e-02 -4.660278760339198e-03
-5.711281409395243e-02 -4.059450150627383e-03 -6.108128780769224e-02
-4.660278760339198e-03 -6.108128780769224e-02 -2.610733916398732e-03

-5.685092012705702e-02  4.654976680425607e-03 -1.106643343187211e-02
 4.654976680425607e-03 -1.837500376872730e-02 -3.920167674609931e-02
-1.106643343187211e-02 -3.920167674609931e-02 -2.455628404808560e-03

 3.218369746693148e-02 -1.085188201207827e-01 -1.435375685484915e-02
-1.085188201207827e-01  6.136408354382904e-03 -7.327461235245662e-02
-1.435375685484915e-02 -7.327461235245662e-02  1.896250437444185e-02

 3.956204791696535e-02 -9.593705157969874e-02 -8.613492534777712e-03
-9.593705157969874e-02  7.997470430459133e-03 -8.278008801163893e-02
-8.613492534777712e-03 -8.278008801163893e-02  1.761611794608645e-02

-2.819789045686823e-02  1.678610814983291e-02  4.896627337542809e-03
 1.678610814983291e-02 -1.638869225950288e-03 -5.725293641267718e-02
 4.896627337542809e-03 -5.725293641267718e-02 -6.165751733679907e-04

-7.334325864889755e-03 -6.846944149087539e-02 -7.164297752223995e-03
-6.846944149087539e-02  1.262147328433885e-03 -6.060765770877558e-02
-7.164297752223995e-03 -6.060765770877558e-02  1.142451973294218e-02

-6.148220731793841e-02  8.493588709372833e-03 -1.028037236833158e-02
 8.493588709372833e-03 -1.841903033285984e-02 -3.731648280044305e-02
-1.028037236833158e-02 -3.731648280044305e-02 -2.562519887203683e-03

 5.014234358734243e-02  8.866728711120632e-02  1.726391730333219e-02
 8.866728711120632e-02  2.198478877804096e-02 -8.747720685169842e-02
 1.726391730333219e-02 -8.747720685169842e-02 -4.796367785165360e-03

-6.668331262269257e-02  2.701020204591062e-02  2.553612973781470e-02
 2.701020204591062e-02 -1.189686097669577e-02 -7.813556402080024e-02
 2.553612973781470e-02 -7.813556402080024e-02 -2.503961869723885e-02

-4.055654257991838e-02  3.154773115443819e-02  9.489734694088032e-03
 3.154773115443819e-02 -4.589561371287020e-03 -5.879215675198882e-02
 9.489734694088032e-03 -5.879215675198882e-02 -6.651920175430271e-03

-8.094372378970660e-02  4.698459919023385e-02  5.027353386931012e-03
 4.698459919023385e-02 -9.883433854023111e-03 -1.662263855963024e-01
 5.027353386931012e-03 -1.662263855963024e-01 -2.366889039847418e-02

-7.000302905029084e-02  1.211107661717524e-01  2.103479848035570e-02
 1.211107661717524e-01 -9.657684783854896e-03 -1.210174212606893e-01
 2.103479848035570e-02 -1.210174212606893e-01 -2.884716738712803e-02

 5.163407192961995e-02  1.044106429663660e-01  1.640884315108394e-02
 1.044106429663660e-01  2.275616160187980e-02 -9.209725438194387e-02
 1.640884315108394e-02 -9.209725438194387e-02 -4.820108464789447e-03

-4.508130064435940e-02 -6.980917994314262e-02 -1.232787332589715e-02
-6.980917994314262e-02 -5.350080599067558e-03 -1.869256409640271e-01
-1.232787332589715e-02 -1.869256409640271e-01 -1.390769323698150e-02

-2.747482714768944e-02  1.237168204658622e-01 -8.808675155317764e-03
 1.237168204658622e-01  2.438143160260861e-03 -1.641658033576973e-01
-8.808675155317764e-03 -1.641658033576973e-01 -6.852547866544167e-03

-7.144788764185163e-02  5.293381184846566e-02  6.697627839782867e-04
 5.293381184846566e-02 -7.351154200785646e-03 -1.707496852954996e-01
 6.697627839782867e-04 -1.707496852954996e-01 -1.989947314203428e-02

 3.890483470865404e-02  3.236987719981323e-02 -1.227645514465332e-02
 3.236987719981323e-02  1.008920644884995e-02  3.201197294962164e-02
-1.227645514465332e-02  3.201197294962164e-02  4.782245113729269e-03

 6.383991332223865e-03 -8.856294491788808e-02 -1.213917179216268e-02
-8.856294491788808e-02  4.998382179677141e-03 -9.172863560118058e-02
-1.213917179216268e-02 -9.172863560118058e-02 -2.488110856645452e-03

-4.075347927551691e-02 -1.019811353280085e-01 -1.261392926065248e-02
-1.019811353280085e-01 -5.258562519959856e-03 -1.791099664385059e-01
-1.261392926065248e-02 -1.791099664385059e-01 -1.364685999419400e-02

-1.023177521454725e-02  2.143162356384559e-01 -1.257893117318356e-02
 2.143162356384559e-01 -6.376892653679336e-03  1.125360656960634e-01
-1.257893117318356e-02  1.125360656960634e-01 -1.976653720639382e-03

 1.387288354619961e-02 -1.547994169378835e-01 -1.875499807649344e-02
-1.547994169378835e-01  7.212063922525520e-04  5.731739882291390e-02
-1.875499807649344e-02  5.731739882291390e-02 -1.896672620676410e-03

 4.084048895186276e-02  2.744855574354666e-02 -1.377215386429675e-02
 2.744855574354666e-02  9.520135386130940e-03  5.267902357961715e-02
-1.377215386429675e-02  5.267902357961715e-02  4.625426336657714e-03

 2.647018841654779e-03 -2.793418443810093e-01 -1.788596469924772e-02
-2.793418443810093e-01  6.948496344415009e-03 -2.129951443005559e-01
-1.788596469924772e-02 -2.129951443005559e-01 -2.179310408878977e-03

 1.522534220854354e-02 -8.879189420806609e-02 -2.359844375431071e-02
-8.879189420806609e-02  8.091298753137443e-03 -7.271441421802083e-02
-2.359844375431071e-02 -7.271441421802083e-02  1.873503828535205e-03

-9.377066152191844e-03  2.357316983785482e-01 -1.321676679047775e-02
 2.357316983785482e-01 -4.723482004780434e-03  9.698612026011212e-02
-1.321676679047775e-02  9.698612026011212e-02 -1.014280934786401e-03

 2.955365244719509e-02 -4.515595766693923e-02 -1.135812277213819e-02
-4.515595766693923e-02  1.046028073853248e-02 -1.896941126793576e-01
-1.135812277213819e-02 -1.896941126793576e-01  2.143059181895885e-03

 2.521096420698985e-02  1.122522085149434e-02 -1.444842523678457e-02
 1.122522085149434e-02  1.006430174142428e-02 -1.958243746523274e-01
-1.444842523678457e-02 -1.958243746523274e-01  6.755347283210191e-04

 4.227224372699871e-03 -2.506692618683135e-01 -1.631536346624732e-02
-2.506692618683135e-01  6.871977440562825e-03 -2.270718689935340e-01
-1.631536346624732e-02 -2.270718689935340e-01 -2.146877823313936e-03

-3.621697269783695e-02  1.560137158979727e-01  1.065830665592947e-03
 1.560137158979727e-01 -4.147331582485080e-03 -4.319693271124871e-02
 1.065830665592947e-03 -4.319693271124871e-02 -7.893065215601823e-05

 1.213772854799785e-02  5.578751703882929e-02 -8.080787878227124e-03
 5.578751703882929e-02  7.008407006627504e-03 -1.076687100572933e-01
-8.080787878227124e-03 -1.076687100572933e-01  5.188525024841347e-03

 2.827734092222585e-02 -4.627228714511037e-02 -1.054759921050470e-02
-4.627228714511037e-02  1.019357554223610e-02 -1.794032863764375e-01
-1.054759921050470e-02 -1.794032863764375e-01  2.963124849347300e-03

 6.912817958104487e-03 -4.205907034825062e-02 -1.419775438684196e-03
-4.205907034825062e-02  9.220906474853669e-03 -9.643458728802731e-02
-1.419775438684196e-03 -9.643458728802731e-02 -9.847271376722274e-03

-1.385139123671917e-02  1.706370053917779e-03  3.819227320955085e-04
 1.706370053917779e-03  3.445159039393595e-03 -7.477294979343821e-02
 3.819227320955085e-04 -7.477294979343821e-02 -3.282372467918140e-03

-4.082936836747209e-02  1.485508033227420e-01  2.515251784583197e-03
 1.485508033227420e-01 -4.714952681020027e-03 -3.963271839315458e-02
 2.515251784583197e-03 -3.963271839315458e-02 -1.270057202911899e-03

 2.616336367348866e-02  1.637367182863170e-02 -1.066886631990054e-02
 1.637367182863170e-02  1.507988726765493e-02 -7.146114790206178e-02
-1.066886631990054e-02 -7.146114790206178e-02 -1.531475325854825e-02

-1.997459078151038e-02 -4.404629017270252e-02  5.938788001037395e-03
-4.404629017270252e-02  2.097225978526677e-03 -9.205063245381122e-02
 5.938788001037395e-03 -9.205063245381122e-02 -2.266870240094062e-02

 4.506444586911702e-03 -4.712453198196809e-02 -4.495701740338908e-04
-4.712453198196809e-02  8.675120191581247e-03 -9.844498988548335e-02
-4.495701740338908e-04 -9.844498988548335e-02 -1.279527824915474e-02

-8.065125329831813e-02  8.139854292384119e-06  5.765600637114547e-03
 8.139854292384119e-06 -9.157006674018676e-03 -8.469630721177461e-02
 5.765600637114547e-03 -8.469630721177461e-02 -2.603011697959762e-03

-3.240071610200758e-02 -4.920577696263898e-02 -4.370689979937952e-03
-4.920577696263898e-02  1.483424506728987e-03 -8.361669692351702e-02
-4.370689979937952e-03 -8.361669692351702e-02 -9.305430416241522e-03

 2.567974487010141e-02  1.396920327344233e-02 -1.261570017200959e-02
 1.396920327344233e-02  1.513320944541498e-02 -7.048565100530067e-02
-1.261570017200959e-02 -7.048565100530067e-02 -1.351509950578032e-02

-4.025271506986625e-02 -2.780346474395088e-01 -6.052743098397460e-03
-2.780346474395088e-01  2.519480107593708e-03 -1.717645462447392e-01
-6.052743098397460e-03 -1.717645462447392e-01 -6.921586260048323e-03

-3.455757670024140e-02 -1.185861278447522e-01 -9.971947018275185e-03
-1.185861278447522e-01  4.597953668524166e-03 -1.370298967410212e-01
-9.971947018275185e-03 -1.370298967410212e-01  3.600674030625822e-03

-7.888248701593027e-02 -5.910834582642404e-03  4.643151150597304e-03
-5.910834582642404e-03 -8.085881952604039e-03 -9.136228033549298e-02
 4.643151150597304e-03 -9.136228033549298e-02 -2.982641340061261e-04

 3.902174422541632e-02  1.317045759745288e-01 -3.278195358297501e-02
 1.317045759745288e-01  1.775961216484367e-02  2.022835114695023e-02
-3.278195358297501e-02  2.022835114695023e-02 -1.922087801248704e-02

-2.275831514087274e-02 -1.429322442019857e-01 -8.535705104310220e-03
-1.429322442019857e-01  5.007718005451291e-03 -8.224314925855687e-02
-8.535705104310220e-03 -8.224314925855687e-02 -2.023851062144179e-02

-4.116774823406519e-02 -2.876094161561622e-01 -4.969731683503916e-03
-2.876094161561622e-01  1.942235550705908e-03 -1.647708906660968e-01
-4.969731683503916e-03 -1.647708906660968e-01 -1.059442154045806e-02

-4.585689787287182e-02  1.214927642536251e-01 -6.328656987773809e-03
 1.214927642536251e-01 -3.385500089901271e-03 -5.289468818770769e-03
-6.328656987773809e-03 -5.289468818770769e-03 -6.085641572157858e-03

-2.770798152232580e-02 -7.149276599289971e-02 -1.757239530640210e-02
-7.149276599289971e-02 -6.455353857531945e-04 -7.420389650759432e-03
-1.757239530640210e-02 -7.420389650759432e-03 -1.868133190398567e-02

 3.773262301721639e-02  1.345022157044453e-01 -3.473222896147489e-02
 1.345022157044453e-01  1.612320379312305e-02  2.815303503912365e-02
-3.473222896147489e-02  2.815303503912365e-02 -1.933597124431063e-02

-2.533497163946924e-02 -1.607761523749769e-01 -1.095660862968239e-02
-1.607761523749769e-01  9.185636771428163e-03 -1.385273683032079e-01
-1.095660862968239e-02 -1.385273683032079e-01  5.117542654902567e-03

-1.467156094120810e-02 -5.727081268429734e-02 -2.499928081067923e-02
-5.727081268429734e-02  1.048730864594872e-02 -8.995099090461189e-02
-2.499928081067923e-02 -8.995099090461189e-02  2.280680785804763e-03

-4.144782225230855e-02  1.224897068263414e-01 -8.414977988990499e-03
 1.224897068263414e-01 -9.581810523691629e-04 -1.714693049152350e-02
-8.414977988990499e-03 -1.714693049152350e-02 -2.982718060324308e-03

-9.117270751464691e-03  5.016118194803841e-02 -4.173106875263093e-03
 5.016118194803841e-02  6.488070033467660e-03 -9.435347720595910e-02
-4.173106875263093e-03 -9.435347720595910e-02  9.440945126642062e-03

 1.036468030348958e-02  5.952348375643454e-02 -2.193513078937641e-02
 5.952348375643454e-02  1.278738712046406e-02 -1.065268275573580e-01
-2.193513078937641e-02 -1.065268275573580e-01  8.497247302499339e-03

-2.093101498387711e-02 -1.371422936842032e-01 -1.063536516548616e-02
-1.371422936842032e-01  9.144042639661235e-03 -1.397260876516357e-01
-1.063536516548616e-02 -1.397260876516357e-01  6.182953091797062e-03

-3.289713899219848e-02  1.814957671501649e-01  1.489239439847513e-02
 1.814957671501649e-01  4.709232200215316e-03 -3.009348994064093e-02
 1.489239439847513e-02 -3.009348994064093e-02  4.193602782839375e-03

-4.167151064090070e-03  1.010232809310747e-01 -3.510034027149676e-03
 1.010232809310747e-01  9.108420593628173e-03 -6.067374899390991e-02
-3.510034027149676e-03 -6.067374899390991e-02  8.982214828815024e-03

-1.141822483610730e-02  5.062044381191946e-02 -1.474415240692772e-03
 5.062044381191946e-02  5.830537605957764e-03 -8.949823655711145e-02
-1.474415240692772e-03 -8.949823655711145e-02  9.676670980491232e-03

 7.323466903195133e-03  1.344380254859495e-01 -1.069715040069473e-02
 1.344380254859495e-01  1.257139685702255e-02 -4.208548751954042e-02
-1.069715040069473e-02 -4.208548751954042e-02 -1.857930999157655e-02

-3.269109358273613e-02  9.990883440557749e-02  1.850333528847175e-02
 9.990883440557749e-02  4.061486062912409e-03 -4.167166811324510e-02
 1.850333528847175e-02 -4.167166811324510e-02 -8.294361451540559e-03

-3.825162440015550e-02  1.807436018873946e-01  1.892337995973824e-02
 1.807436018873946e-01  3.812807188916740e-03 -2.821848647970732e-02
 1.892337995973824e-02 -2.821848647970732e-02  2.122633811837009e-03

-8.477228909280139e-03  3.369459228775726e-02 -1.036306307820685e-02
 3.369459228775726e-02  1.343875861690309e-02 -7.523993782047106e-02
-1.036306307820685e-02 -7.523993782047106e-02 -1.740591313855631e-02

-4.568572502729024e-02  8.985937119037903e-02  2.220975739665941e-02
 8.985937119037903e-02  1.517278217706300e-03 -5.968822567175085e-02
 2.220975739665941e-02 -5.968822567175085e-02 -2.147986914138909e-02

 4.385710204615817e-03  1.357820779835561e-01 -9.605694269382044e-03
 1.357820779835561e-01  1.185724622104083e-02 -4.387321075642318e-02
-9.605694269382044e-03 -4.387321075642318e-02 -2.011345262972869e-02

-5.695332481427307e-02  2.340697640268340e-02  2.019764195514319e-02
 2.340697640268340e-02  3.122377461681077e-03 -6.651844981001072e-02
 2.019764195514319e-02 -6.651844981001072e-02  1.052487620376921e-02

-3.585653008136353e-02  5.743136763524486e-02  6.818794756259701e-03
 5.743136763524486e-02  8.611611348589562e-03 -6.985865707696867e-02
 6.818794756259701e-03 -6.985865707696867e-02 -1.835635972279815e-03

-5.415492893762371e-03  3.016287739204796e-02 -1.377913199889720e-02
 3.016287739204796e-02  1.495944439386503e-02 -7.641800919312668e-02
-1.377913199889720e-02 -7.641800919312668e-02 -1.510023922510622e-02

-1.846330452464276e-02  4.951905237687255e-02 -2.131093316099910e-04
 4.951905237687255e-02  6.713478184763697e-03 -2.961780763477464e-02
-2.131093316099910e-04 -2.961780763477464e-02  1.134449432801100e-02

-1.692509998065250e-02  3.271126835989801e-03 -6.447138361056629e-03
 3.271126835989801e-03  1.029692814794970e-02 -5.120612093615825e-02
-6.447138361056629e-03 -5.120612093615825e-02  1.475527790273725e-02

-5.391966809380220e-02  1.304983669055473e-02  1.823806199135254e-02
 1.304983669055473e-02  3.312740839217270e-03 -6.449262743005815e-02
 1.823806199135254e-02 -6.449262743005815e-02  1.239291073609603e-02

 1.008343535636571e-02  1.385919313695425e-01 -2.342664532546396e-02
 1.385919313695425e-01  1.101382997590202e-02 -3.095658154788875e-03
-2.342664532546396e-02 -3.095658154788875e-03  4.165395187119199e-04

 7.232587517604649e-04 -1.906070751500429e-02 -1.695546253677055e-02
-1.906070751500429e-02  1.031457858470730e-02 -2.312088416010646e-02
-1.695546253677055e-02 -2.312088416010646e-02  3.831168737268415e-03

-1.680029826717913e-02  4.252622102940665e-02 -1.037669557943272e-03
 4.252622102940665e-02  6.663551073797302e-03 -2.654746621794770e-02
-1.037669557943272e-03 -2.654746621794770e-02  9.742238052254040e-03

-1.636203629551443e-02  4.617771995598154e-02  1.719279932676868e-03
 4.617771995598154e-02  8.772867340285853e-03 -3.573545566339140e-02
 1.719279932676868e-03 -3.573545566339140e-02  2.075660451128909e-03

-3.933278309122453e-03 -3.987175297559002e-02 -1.768746089174890e-02
-3.987175297559002e-02  1.034814610460830e-02 -3.437298062207793e-02
-1.768746089174890e-02 -3.437298062207793e-02 -2.893858719794314e-04

 8.685704191533302e-03  1.299289642981260e-01 -2.364828091940045e-02
 1.299289642981260e-01  1.084070205033672e-02 -6.204991811961461e-03
-2.364828091940045e-02 -6.204991811961461e-03 -2.976753759526296e-04

-2.537609235023868e-03 -2.574960880092122e-02 -1.510195331732926e-02
-2.574960880092122e-02  1.093003415552170e-02 -4.981910006631524e-02
-1.510195331732926e-02 -4.981910006631524e-02 -2.390540486659521e-03

-5.423815207603715e-03 -5.354818635588989e-03 -1.148365387895138e-02
-5.354818635588989e-03  1.092455818412677e-02 -4.698255891943112e-02
-1.148365387895138e-02 -4.698255891943112e-02 -2.801110236328839e-04

-1.600826261665077e-02  5.411323397072824e-02  2.419792788949889e-03
 5.411323397072824e-02  9.023701411581165e-03 -3.701474074916418e-02
 2.419792788949889e-03 -3.701474074916418e-02  2.058056978259360e-03

-6.933607684015831e-03  2.061319038522862e-01 -3.143171060542216e-03
 2.061319038522862e-01  9.131773374996762e-03 -1.728909890001677e-02
-3.143171060542216e-03 -1.728909890001677e-02 -1.687490285186727e-03

-7.818048711135563e-03  6.632219142695726e-02 -4.645319256425483e-03
 6.632219142695726e-02  9.453936497929001e-03 -3.388634403465427e-02
-4.645319256425483e-03 -3.388634403465427e-02 -2.312928543256990e-03

-3.125022405875667e-03 -1.748634066054499e-02 -1.393896481031756e-02
-1.748634066054499e-02  1.074377599192150e-02 -4.804625145842124e-02
-1.393896481031756e-02 -4.804625145842124e-02 -2.589306309064196e-03

-4.322327373253499e-03  1.296404977641116e-01 -8.413583019631797e-03
 1.296404977641116e-01  9.638998909287658e-03 -2.517168345548710e-02
-8.413583019631797e-03 -2.517168345548710e-02 -2.656031391236130e-03

-8.189236231598822e-03  1.290079152538130e-01 -8.488934320916204e-04
 1.290079152538130e-01  8.837158873324711e-03 -2.271614889472171e-02
-8.488934320916204e-04 -2.271614889472171e-02 -1.963101207337019e-03

-6.877476415876644e-03  2.154631311907013e-01 -2.642334209161182e-03
 2.154631311907013e-01  9.037164194720542e-03 -1.627407499835058e-02
-2.642334209161182e-03 -1.627407499835058e-02 -1.604880838191094e-03

 1.037028001365471e-02  4.945825485771419e-02 -3.900352283204361e-02
 4.945825485771419e-02  1.407362499632207e-02 -3.340124517540085e-02
-3.900352283204361e-02 -3.340124517540085e-02 -4.632870750416956e-03

-2.081093901166521e-03  1.320876792409860e-01 -1.091128942124157e-02
 1.320876792409860e-01  1.033874083721988e-02 -2.782780395989110e-02
-1.091128942124157e-02 -2.782780395989110e-02 -4.092321718222228e-03

-3.679944714740707e-03  1.340874720944283e-01 -9.310467145849096e-03
 1.340874720944283e-01  9.779925316967458e-03 -2.553040947533395e-02
-9.310467145849096e-03 -2.553040947533395e-02 -2.920238226432224e-03

-3.191588518434019e-02  2.242695599282045e-01  6.535501378713260e-02
 2.242695599282045e-01  3.642981327794004e-03 -6.902320843492966e-03
 6.535501378713260e-02 -6.902320843492966e-03  1.617000084148757e-02

 2.338281998198855e-03  1.478278192269789e-01 -9.950689024605679e-03
 1.478278192269789e-01  1.156740499383838e-02 -1.975830638982319e-02
-9.950689024605679e-03 -1.975830638982319e-02  7.307398680845818e-03

 1.175653867925725e-02  5.123197224997151e-02 -4.016357894841623e-02
 5.123197224997151e-02  1.451408551925836e-02 -3.272972968392591e-02
-4.016357894841623e-02 -3.272972968392591e-02 -3.456321685195801e-03

-1.262864171972044e-02  1.048992101872346e-01  8.346933791629110e-03
 1.048992101872346e-01  1.042819886977119e-02 -1.269594965646641e-02
 8.346933791629110e-03 -1.269594965646641e-02  1.406345258480347e-03

-4.861730368085301e-03  1.237821215912026e-01  3.647805777123828e-03
 1.237821215912026e-01  1.149318267100190e-02 -1.116204484845099e-02
 3.647805777123828e-03 -1.116204484845099e-02  9.301245973797570e-03

-3.221506630346386e-02  2.181169938204997e-01  6.589838615349464e-02
 2.181169938204997e-01  4.238095144901292e-03 -5.943193335097734e-03
 6.589838615349464e-02 -5.943193335097734e-03  1.604079745300275e-02

-4.209173049689137e-03  3.579706342125612e-02 -9.389979010879251e-02
 3.579706342125612e-02  1.838056598454299e-02 -9.969155886566175e-03
-9.389979010879251e-02 -9.969155886566175e-03 -1.676606003175781e-02

-2.780786188144889e-02  6.332105086160841e-02  1.245427544800333e-02
 6.332105086160841e-02  9.255683377830368e-03 -1.313723948980309e-02
 1.245427544800333e-02 -1.313723948980309e-02 -9.264771424549140e-03

-1.711796242462722e-02  9.831037684047496e-02  1.311102934667797e-02
 9.831037684047496e-02  9.903889607576899e-03 -1.285936385404800e-02
 1.311102934667797e-02 -1.285936385404800e-02 -6.255822560593099e-04

-4.800520846773751e-02  1.255784701031247e-01  2.711237356861419e-02
 1.255784701031247e-01  3.064304867641066e-03  4.348024359569426e-03
 2.711237356861419e-02  4.348024359569426e-03  7.276994112867817e-03

-5.279790040230862e-02  1.436711357131559e-02  3.210079432787900e-03
 1.436711357131559e-02  6.916361091916866e-03 -3.101543589358231e-03
 3.210079432787900e-03 -3.101543589358231e-03 -5.918337085007846e-03

-8.666958328830210e-03  2.668025327347963e-02 -9.654267578648738e-02
 2.668025327347963e-02  1.829253691562694e-02 -8.218361469920695e-03
-9.654267578648738e-02 -8.218361469920695e-03 -1.627418347672516e-02

-2.204418302623578e-02 -1.070036452658120e-02  1.932814990050500e-03
-1.070036452658120e-02  7.787682394113921e-03  1.366273814430103e-03
 1.932814990050500e-03  1.366273814430103e-03  3.956965719632776e-03

-3.560339680998050e-02 -3.611678263262005e-02 -2.287710667390881e-02
-3.611678263262005e-02  7.314499401301159e-03 -1.583612074221232e-04
-2.287710667390881e-02 -1.583612074221232e-04  4.728539842903996e-03

-4.430827042501374e-02  1.171391202642713e-01  2.053858145259671e-02
 1.171391202642713e-01  3.578618089272882e-03  3.959124916827790e-03
 2.053858145259671e-02  3.959124916827790e-03  8.132254227738321e-03

 1.969733835387721e-02 -9.912119934582254e-03  1.492631771487038e-02
-9.912119934582254e-03  9.474543379112304e-03  7.972058473857129e-03
 1.492631771487038e-02  7.972058473857129e-03 -3.431509992436632e-03

 5.611698388747756e-04 -7.590088308266721e-02 -4.184170948092478e-02
-7.590088308266721e-02  8.505050100814837e-03  5.189082508556121e-03
-4.184170948092478e-02  5.189082508556121e-03  9.190946606745754e-05

-1.673524392423867e-02 -1.496507477629469e-02 -1.245934563406959e-03
-1.496507477629469e-02  8.013944661548414e-03  2.161912990748812e-03
-1.245934563406959e-03  2.161912990748812e-03  3.144769186777564e-03

 4.203855486895517e-02  1.418971184911027e-01  1.055059679358824e-02
 1.418971184911027e-01  1.586047727707257e-02 -1.226986183348103e-03
 1.055059679358824e-02 -1.226986183348103e-03 -6.917642379403591e-03

 3.933042495469476e-02 -5.611921541868452e-02 -1.487885997098908e-02
-5.611921541868452e-02  1.222445168216342e-02  8.116693731979707e-03
-1.487885997098908e-02  8.116693731979707e-03 -4.376991390500574e-03

 2.580425873195602e-02 -9.405403260271398e-03  1.956768807966502e-02
-9.405403260271398e-03  1.019446847245167e-02  8.456912988156862e-03
 1.956768807966502e-02  8.456912988156862e-03 -4.395516096605513e-03

-3.251929331313352e-04 -6.621963167515521e-02 -8.904701493538787e-02
-6.621963167515521e-02 -8.771500197293686e-04  2.616461617884609e-02
-8.904701493538787e-02  2.616461617884609e-02  2.111166429818283e-02

 5.131660305438127e-02 -2.154093416178549e-02  7.636726800163276e-03
-2.154093416178549e-02  1.229410911109250e-02  1.219399021258890e-02
 7.636726800163276e-03  1.219399021258890e-02  1.088945331917831e-02

 4.504166749637815e-02  1.512649519961427e-01  1.682273206002304e-02
 1.512649519961427e-01  1.617766993997598e-02 -2.265914287290365e-03
 1.682273206002304e-02 -2.265914287290365e-03 -5.232044259519299e-03

 8.187192335177026e-03 -2.277989083018240e-02  2.740397828558978e-02
-2.277989083018240e-02  1.183644985838007e-02  3.534671206269517e-02
 2.740397828558978e-02  3.534671206269517e-02  2.654709354217435e-03

 2.105118012154554e-02 -4.280682181887117e-03  2.204722695014198e-02
-4.280682181887117e-03  1.163881612497275e-02  3.189456953302994e-02
 2.204722695014198e-02  3.189456953302994e-02  1.216862854835989e-02

-5.451749916609889e-03 -5.880383688280087e-02 -8.543886668887783e-02
-5.880383688280087e-02 -3.222816358771326e-04  2.898350042788614e-02
-8.543886668887783e-02  2.898350042788614e-02  2.102404382951344e-02

-8.485507744336162e-03  4.050321322191533e-02  8.130174306425699e-03
 4.050321322191533e-02  6.415267059486663e-03  3.118589081998661e-02
 8.130174306425699e-03  3.118589081998661e-02 -2.347912967510927e-03

-1.289103635079367e-02 -5.826637474036023e-03  1.436878283058720e-03
-5.826637474036023e-03  7.639851960772975e-03  3.483309280329629e-02
 1.436878283058720e-03  3.483309280329629e-02 -1.079142215712534e-03

 2.372284723677146e-03 -2.394416783577064e-02  2.202718490062388e-02
-2.394416783577064e-02  1.118934145557272e-02  3.586659619985237e-02
 2.202718490062388e-02  3.586659619985237e-02  1.197647270590827e-03

-6.463612472205966e-03  2.634406883254318e-02 -1.198965759614428e-02
 2.634406883254318e-02  5.782507163504536e-03  2.477496627522221e-02
-1.198965759614428e-02  2.477496627522221e-02 -7.606112002438127e-03

-3.094641027505499e-02 -6.895999758140049e-02 -3.563669765450517e-02
-6.895999758140049e-02  2.005352650421929e-03  3.783306258995468e-02
-3.563669765450517e-02  3.783306258995468e-02 -4.070564385645408e-03

-1.116339744203434e-02  2.902302601647135e-02  2.500300742366965e-03
 2.902302601647135e-02  5.848623073672080e-03  3.189925479035061e-02
 2.500300742366965e-03  3.189925479035061e-02 -2.731998091584913e-03

 3.771174535999876e-02  2.193844605262755e-01  1.362482568691097e-02
 2.193844605262755e-01  2.092282578905559e-02 -2.706977756836702e-02
 1.362482568691097e-02 -2.706977756836702e-02 -1.861633469367095e-02

-1.026935214740879e-02 -6.203638431762297e-02 -3.685757936164592e-02
-6.203638431762297e-02  5.044202325621560e-03  1.806208300432087e-02
-3.685757936164592e-02  1.806208300432087e-02 -1.257037993104381e-02

-3.299824474404007e-03  2.583314513993403e-02 -1.199008012413151e-02
 2.583314513993403e-02  6.495454613203415e-03  2.218722785728926e-02
-1.199008012413151e-02  2.218722785728926e-02 -8.922396603615245e-03

-2.791548430809958e-02 -3.213295385599760e-02 -5.632193133929799e-02
-3.213295385599760e-02 -1.020321335997295e-02  7.691016374050087e-02
-5.632193133929799e-02  7.691016374050087e-02  3.144607087037018e-02

 2.712818466353961e-02  1.753235390760909e-02 -1.482686067891181e-02
 1.753235390760909e-02  9.727230713515583e-03  3.064305515276336e-02
-1.482686067891181e-02  3.064305515276336e-02  9.479307373669841e-03

 4.466881398009660e-02  2.321351078222564e-01  1.737322703292593e-02
 2.321351078222564e-01  2.298262427798224e-02 -2.878964915257862e-02
 1.737322703292593e-02 -2.878964915257862e-02 -1.697216230452817e-02

 1.227179889818584e-02 -5.365349417302063e-02 -5.323722989489825e-03
-5.365349417302063e-02  7.136049484703678e-03  1.031792260590597e-01
-5.323722989489825e-03  1.031792260590597e-01  1.001625046554872e-02

3.921562573818647e-02 1.129322715710003e-01 1.072433014424387e-02
1.129322715710003e-01 1.044360537006306e-02 7.858810764184967e-02
1.072433014424387e-02 7.858810764184967e-02 2.277447146555599e-02

-2.487351985344358e-02 -9.476726771320089e-03 -5.097070094743718e-02
-9.476726771320089e-03 -8.900418127926307e-03  8.110974261990880e-02
-5.097070094743718e-02  8.110974261990880e-02  3.257477787806524e-02

 6.150384040658478e-02  2.126090897150207e-01  4.939677333036414e-02
 2.126090897150207e-01  1.385970976367813e-02  2.578918164496286e-02
 4.939677333036414e-02  2.578918164496286e-02 -1.538131822016419e-02

 2.378930808419555e-02  1.056785951478822e-01  1.228970579349839e-02
 1.056785951478822e-01  8.197976892291299e-03  5.829088277822141e-02
 1.228970579349839e-02  5.829088277822141e-02 -6.161625936145828e-03

 7.664667347861132e-03 -6.054681956689957e-02 -6.896701022450448e-03
-6.054681956689957e-02  6.962880187525571e-03  1.000611347062826e-01
-6.896701022450448e-03  1.000611347062826e-01  6.386509628035157e-03

-5.144653373488280e-02  7.997767536142189e-02 -2.955980889520354e-02
 7.997767536142189e-02 -1.480876608634864e-03  3.553609752582292e-02
-2.955980889520354e-02  3.553609752582292e-02  1.701807655784169e-02

1.236194380275205e-02 1.838502589644982e-02 9.993150869154819e-03
1.838502589644982e-02 9.171079022844926e-03 4.451338228177748e-02
9.993150869154819e-03 4.451338228177748e-02 4.848911047838794e-04

 6.043667795043874e-02  1.937241674486616e-01  4.847646146083744e-02
 1.937241674486616e-01  1.452377439731553e-02  2.475812579583280e-02
 4.847646146083744e-02  2.475812579583280e-02 -1.512225795639016e-02

-1.123752900534043e-02  6.708078100210116e-02  1.329140082022054e-02
 6.708078100210116e-02  6.590683683436977e-03  3.662828809222828e-02
 1.329140082022054e-02  3.662828809222828e-02 -3.677715670244202e-03

-1.430951716594082e-02 -3.500120783403571e-02  1.250365586958151e-02
-3.500120783403571e-02  7.401754650076124e-03  5.494160942448977e-02
 1.250365586958151e-02  5.494160942448977e-02  7.582827372970741e-03

-5.499735919482378e-02  7.293871901532385e-02 -2.782934004041469e-02
 7.293871901532385e-02 -2.088433498401880e-03  3.674724359273297e-02
-2.782934004041469e-02  3.674724359273297e-02  1.803986927988340e-02

-8.981876073156351e-04  8.237955346086531e-02  1.164357886409065e-02
 8.237955346086531e-02  1.126117874192308e-02  4.536876626346046e-02
 1.164357886409065e-02  4.536876626346046e-02 -1.752254622895091e-02

-4.276119682082054e-02 -1.156244260359995e-02 -5.090659150954057e-03
-1.156244260359995e-02  9.953243506900843e-04  5.675358828772503e-02
-5.090659150954057e-03  5.675358828772503e-02 -1.465650473236705e-02

-1.669514654269972e-02  7.062693566848519e-02  9.845212446636713e-03
 7.062693566848519e-02  5.597501886939720e-03  3.630294398791476e-02
 9.845212446636713e-03  3.630294398791476e-02 -6.083639836405426e-03

-5.290629363573124e-02  3.067388064591039e-02 -1.699949869284896e-02
 3.067388064591039e-02 -2.132257194054321e-03  9.417903815493997e-02
-1.699949869284896e-02  9.417903815493997e-02  2.772809063117033e-03

-4.501547172314219e-02  5.190106368087872e-02 -1.225014120815228e-02
 5.190106368087872e-02  6.986333373826499e-04  7.408866372650107e-02
-1.225014120815228e-02  7.408866372650107e-02 -6.338763853520253e-03

-2.091603613072467e-03  9.105864269440850e-02  9.760049924440540e-03
 9.105864269440850e-02  1.111713138349068e-02  4.669064102806308e-02
 9.760049924440540e-03  4.669064102806308e-02 -1.682473614440944e-02

 2.634067507839002e-02  1.230456827355979e-01  9.120934912796639e-03
 1.230456827355979e-01  1.076234692365768e-02  5.968948989398658e-02
 9.120934912796639e-03  5.968948989398658e-02 -1.454151014769537e-02

-2.803638979554321e-02  8.568244778797200e-02 -1.108462579245513e-02
 8.568244778797200e-02  5.672067038131998e-04  7.628091737755124e-02
-1.108462579245513e-02  7.628091737755124e-02 -5.560194492812708e-03

-5.073503772232336e-02  3.517626695655761e-02 -1.693066486263993e-02
 3.517626695655761e-02 -2.125355180656182e-03  9.413301773174745e-02
-1.693066486263993e-02  9.413301773174745e-02  2.793658613931584e-03

8.543829720687552e-03 8.375737416429840e-02 1.830779013999329e-03
8.375737416429840e-02 4.464899747212036e-03 7.434951255924227e-02
1.830779013999329e-03 7.434951255924227e-02 6.159032551444517e-04

 4.603430567687744e-03  6.909414382562003e-02 -2.808794706100261e-03
 6.909414382562003e-02  3.887349970211284e-03  7.266427586738756e-02
-2.808794706100261e-03  7.266427586738756e-02 -7.860112215076012e-03

 3.130798654017412e-02  1.201416125691286e-01  1.035809446898034e-02
 1.201416125691286e-01  1.148463957167046e-02  5.968483541517379e-02
 1.035809446898034e-02  5.968483541517379e-02 -1.476459858744605e-02

 7.374628529191978e-03 -2.118155431312937e-02  1.196432361959556e-02
-2.118155431312937e-02  4.378945318445417e-03  1.164974189051073e-01
 1.196432361959556e-02  1.164974189051073e-01  1.069114966407163e-02

4.937755369513798e-02 3.468120713225650e-02 2.297194548787163e-02
3.468120713225650e-02 1.318296487989137e-02 9.723947874358145e-02
2.297194548787163e-02 9.723947874358145e-02 8.829293931544406e-03

1.613695725518067e-02 8.040680828532198e-02 5.719524403287806e-03
8.040680828532198e-02 5.891246857700502e-03 7.715015118930045e-02
5.719524403287806e-03 7.715015118930045e-02 2.307503657145186e-03

-4.630316476981015e-03  1.463238610063148e-02  2.164939161556399e-02
 1.463238610063148e-02  3.346697656760777e-03  7.628327922873800e-02
 2.164939161556399e-02  7.628327922873800e-02  1.214630126573975e-03

 5.308313481120772e-02 -4.809843769842317e-02  3.938679345448169e-02
-4.809843769842317e-02  1.741652144527925e-02  1.080746763819937e-01
 3.938679345448169e-02  1.080746763819937e-01  8.014894468946097e-03

 8.041692908275546e-03 -3.344936279143512e-02  1.447823320041064e-02
-3.344936279143512e-02  5.231194212398790e-03  1.187115006938806e-01
 1.447823320041064e-02  1.187115006938806e-01  1.025055990002548e-02

 1.579587668413219e-02 -5.647373435924071e-02  2.426456488747314e-02
-5.647373435924071e-02  8.426816231117167e-03  7.271282303308355e-02
 2.426456488747314e-02  7.271282303308355e-02 -2.235363066584914e-02

 4.549639073072792e-03 -1.573767268544416e-01  2.992739481882732e-02
-1.573767268544416e-01  7.296634759341784e-03  1.063946544006547e-01
 2.992739481882732e-02  1.063946544006547e-01 -1.501039584719995e-02

-1.208166281760510e-02 -3.622317006627805e-03  2.069980882926604e-02
-3.622317006627805e-03  1.636261165273404e-03  7.736975087459289e-02
 2.069980882926604e-02  7.736975087459289e-02 -1.530653861905261e-03

 1.297977749496975e-03 -1.011915794576244e-01  1.061652623576174e-02
-1.011915794576244e-01  9.638852592365037e-03  7.651708835112950e-02
 1.061652623576174e-02  7.651708835112950e-02 -1.923789993311389e-02

-4.168340639961119e-02 -2.170714806613580e-01  8.248452978043396e-03
-2.170714806613580e-01 -1.650263095027612e-03  1.127999624993413e-01
 8.248452978043396e-03  1.127999624993413e-01 -3.079589991871024e-02

 8.333741776953217e-03 -6.536026826436675e-02  2.096431287706710e-02
-6.536026826436675e-02  7.353486083980213e-03  7.370249029147645e-02
 2.096431287706710e-02  7.370249029147645e-02 -2.392912289262647e-02

-7.592131173037969e-02  1.847337550196974e-02  1.127848434250398e-02
 1.847337550196974e-02 -1.400536289869226e-02  2.592980674787947e-02
 1.127848434250398e-02  2.592980674787947e-02 -1.438226976048319e-02

-3.256129006480010e-02 -2.046198341276929e-01  1.086430011496715e-02
-2.046198341276929e-01  1.028403138511327e-03  9.050863790466891e-02
 1.086430011496715e-02  9.050863790466891e-02 -1.189890328918020e-02

 3.923680148001190e-03 -1.008380385792025e-01  1.056131771475672e-02
-1.008380385792025e-01  1.060988684220309e-02  7.404900126720554e-02
 1.056131771475672e-02  7.404900126720554e-02 -1.615814978162282e-02

-2.093701326506669e-02  2.368900420330768e-02  4.727185730949590e-03
 2.368900420330768e-02  7.369225496099157e-03  1.493288585136069e-01
 4.727185730949590e-03  1.493288585136069e-01 -1.503991617124864e-02

-4.299973046407823e-02 -4.061923799892345e-02  1.184523302779142e-02
-4.061923799892345e-02 -2.075274354620338e-03  1.014511538916101e-01
 1.184523302779142e-02  1.014511538916101e-01 -1.551997621662215e-02

-7.698089729148851e-02  4.021628227627307e-02  1.179531247757552e-02
 4.021628227627307e-02 -1.492682519769058e-02  2.665400436167867e-02
 1.179531247757552e-02  2.665400436167867e-02 -1.587156851463472e-02

-1.231567565102368e-02 -1.905175840843552e-01 -7.273678067700813e-03
-1.905175840843552e-01  1.288123682715486e-04  3.034170847292660e-01
-7.273678067700813e-03  3.034170847292660e-01 -1.084462394287433e-02

-7.149539837873872e-02  1.448889716092861e-01 -7.880883513918302e-03
 1.448889716092861e-01 -1.018435121523058e-02  1.926440776533067e-01
-7.880883513918302e-03  1.926440776533067e-01 -2.737883705689162e-02

-2.534751036135520e-02  5.491129410807789e-02  2.353107275989852e-03
 5.491129410807789e-02  6.047645699362164e-03  1.574358993514639e-01
 2.353107275989852e-03  1.574358993514639e-01 -1.665059993271065e-02

-2.954710732367859e-02  3.517918371120711e-02 -5.977911932270686e-03
 3.517918371120711e-02 -1.830306863786422e-03  2.674156076176472e-03
-5.977911932270686e-03  2.674156076176472e-03  6.241283533286994e-03

-3.853258973241441e-02 -3.591200787603393e-02 -1.155005695530298e-02
-3.591200787603393e-02 -8.428403518369560e-03  1.511008175633769e-01
-1.155005695530298e-02  1.511008175633769e-01 -4.638970189964807e-03

-5.329951963217601e-03 -2.287548583806356e-01 -8.006641841947092e-03
-2.287548583806356e-01 -2.685677829323799e-04  3.022345855908474e-01
-8.006641841947092e-03  3.022345855908474e-01 -7.486109460273636e-03

-1.658655917667068e-02  2.082599729816908e-02  8.140589606286152e-04
 2.082599729816908e-02 -4.184904762556018e-03 -1.186311284880343e-01
 8.140589606286152e-04 -1.186311284880343e-01  9.753849177401432e-03

 6.684181807908725e-03 -3.429017072528947e-01 -3.063036784139198e-03
-3.429017072528947e-01  5.144099866853378e-03 -2.688486195358991e-02
-3.063036784139198e-03 -2.688486195358991e-02  1.969672842467608e-02

-2.200382201653049e-02 -2.034164026342472e-02 -4.930460206634790e-03
-2.034164026342472e-02  1.082331002701300e-04 -1.502956797038214e-02
-4.930460206634790e-03 -1.502956797038214e-02  9.682906187520698e-03

 1.311538153228601e-02 -1.081741154979840e-01 -3.291233077146683e-03
-1.081741154979840e-01 -6.557021992539836e-04  8.542162582458544e-02
-3.291233077146683e-03  8.542162582458544e-02  1.603518016011784e-02

 2.530067294947027e-02 -3.264950900506196e-01 -1.944967875429720e-03
-3.264950900506196e-01  3.086810403111178e-03  4.006116042770091e-02
-1.944967875429720e-03  4.006116042770091e-02  2.080569474220181e-02

-1.417751972765320e-02  2.259848732978853e-02  5.702815986940596e-04
 2.259848732978853e-02 -5.377443872591767e-03 -9.856625686803977e-02
 5.702815986940596e-04 -9.856625686803977e-02  9.166605532180313e-03

 3.900242855209451e-02  2.582488497949844e-02 -3.753072440822373e-03
 2.582488497949844e-02  1.014163402999960e-02  1.565801816967171e-01
-3.753072440822373e-03  1.565801816967171e-01  2.420028110822042e-02

 1.364958314285273e-02  1.134055134414936e-01 -3.939389907295827e-03
 1.134055134414936e-01  1.608879415769527e-03  1.121192949808018e-01
-3.939389907295827e-03  1.121192949808018e-01  1.653679709826741e-02

 1.022679012173808e-02 -3.549702610416808e-02 -3.476756758269308e-03
-3.549702610416808e-02 -1.182440668777118e-03  9.141460634954392e-02
-3.476756758269308e-03  9.141460634954392e-02  1.489715661242283e-02

-5.548779380392729e-03  1.570370745205846e-01  9.141063979182027e-03
 1.570370745205846e-01 -7.152147909868863e-03  1.114020231632527e-01
 9.141063979182027e-03  1.114020231632527e-01 -1.704636358628650e-03

2.753935141800369e-02 3.096701731668326e-01 3.045408562825380e-03
3.096701731668326e-01 4.074231740532717e-03 1.198265452341190e-01
3.045408562825380e-03 1.198265452341190e-01 1.360213317041239e-02

 4.053395302251091e-02  6.117379939244043e-02 -3.228397886660086e-03
 6.117379939244043e-02  1.014030241125193e-02  1.621511278817602e-01
-3.228397886660086e-03  1.621511278817602e-01  2.336625265108559e-02

-1.821755390255488e-02  2.750989846958137e-01  8.321143237321971e-03
 2.750989846958137e-01 -1.275984452852248e-02 -5.530130739157292e-02
 8.321143237321971e-03 -5.530130739157292e-02 -1.245368199040892e-02

3.649081126391803e-02 1.325534860812154e-01 1.466291532189566e-02
1.325534860812154e-01 5.636811281503887e-03 2.539508467626432e-02
1.466291532189566e-02 2.539508467626432e-02 1.017654141752076e-02

-3.955587178196430e-03  1.244391752211773e-01  1.080109153369501e-02
 1.244391752211773e-01 -6.515285394764456e-03  1.022225653136260e-01
 1.080109153369501e-02  1.022225653136260e-01 -1.681025347248280e-03

-1.482214411341258e-02  1.330884216929191e-01  1.190262392378625e-03
 1.330884216929191e-01  2.049378183454495e-03  4.593193256586517e-02
 1.190262392378625e-03  4.593193256586517e-02 -1.042726457224998e-02

-1.688888640590173e-02  8.489978624370645e-02  6.394307533938187e-03
 8.489978624370645e-02 -5.381084644216442e-03  7.811627486277951e-03
 6.394307533938187e-03  7.811627486277951e-03 -1.332460843564282e-02

-2.760539880848542e-02  2.723236891342993e-01  6.747327659734292e-03
 2.723236891342993e-01 -1.517435995593379e-02 -5.373020098323449e-02
 6.747327659734292e-03 -5.373020098323449e-02 -1.699506990968091e-02

-3.628423366550718e-02 -3.682312915081157e-02 -7.862312827991611e-03
-3.682312915081157e-02  2.384834524331140e-04  1.538272598939726e-01
-7.862312827991611e-03  1.538272598939726e-01 -1.513539659991637e-02

-7.835842737462916e-02  1.972434725675916e-01 -6.207216806840848e-03
 1.972434725675916e-01 -1.358229501150971e-02  9.292180147059813e-02
-6.207216806840848e-03  9.292180147059813e-02 -3.144433911316979e-02

-2.474743399176198e-02  1.578110241189951e-01 -4.809373222359940e-04
 1.578110241189951e-01  4.131192615450785e-04  5.524755491610783e-02
-4.809373222359940e-04  5.524755491610783e-02 -1.355710097083591e-02

-5.231178929918952e-02  2.294480561229399e-01 -5.279989843708333e-03
 2.294480561229399e-01 -4.828201439809362e-03 -6.268565596591401e-02
-5.279989843708333e-03 -6.268565596591401e-02 -1.766691847043194e-02

-8.802812180669753e-02  9.288143898573913e-02 -1.228097320923185e-02
 9.288143898573913e-02 -1.754560517486042e-02  4.655020812046771e-02
-1.228097320923185e-02  4.655020812046771e-02 -3.249266274304636e-02

-3.742110268670614e-02 -5.445444829935318e-02 -9.410326800886031e-03
-5.445444829935318e-02 -8.772182900426670e-04  1.523666812378557e-01
-9.410326800886031e-03  1.523666812378557e-01 -1.545651717852505e-02

-2.069387883807709e-04  1.345987624173598e-01  1.252822441462136e-03
 1.345987624173598e-01  4.664530510697686e-03 -3.435230041751014e-04
 1.252822441462136e-03 -3.435230041751014e-04  9.653820079279438e-03

-5.218732063099144e-02 -3.712012488474846e-02 -6.364263015402899e-03
-3.712012488474846e-02 -8.141314335889101e-03 -2.038472262980239e-02
-6.364263015402899e-03 -2.038472262980239e-02 -1.274635247685944e-02

-4.698062750524794e-02  2.062660860933275e-01 -4.169723506843373e-03
 2.062660860933275e-01 -3.204502419623077e-03 -6.663882986845901e-02
-4.169723506843373e-03 -6.663882986845901e-02 -1.462225248221021e-02

-7.812044360771824e-03 -1.470443540924108e-01 -3.255452123314326e-03
-1.470443540924108e-01 -1.230711886602432e-02  9.282125549201711e-02
-3.255452123314326e-03  9.282125549201711e-02  1.825377909751296e-03

 4.723264001429197e-03  3.661619555131188e-02  1.510250404247046e-04
 3.661619555131188e-02 -2.011089646250210e-03  5.198387719554314e-02
 1.510250404247046e-04  5.198387719554314e-02  9.315541181201247e-03

1.018344077475377e-02 1.631910931657969e-01 2.739994556076237e-03
1.631910931657969e-01 6.346022030418751e-03 9.309264546412323e-03
2.739994556076237e-03 9.309264546412323e-03 1.371715567191843e-02


CELL_DATA 168
SCALARS dislocation_index int
LOOKUP_TABLE default
0
1
2
3
4
5
6
7
8
9
10
11
12
13
14
15
16
17
18
19
20
21
22
23
24
25
26
27
28
29
30
31
32
33
34
35
36
37
38
39
40
41
42
43
44
45
46
47
48
49
50
51
52
53
54
55
56
57
58
59
60
61
62
63
64
65
66
67
68
69
70
71
72
73
74
75
76
77
78
79
80
81
82
83
84
85
86
87
88
89
90
91
92
93
94
95
96
97
98
99
100
101
102
103
104
105
106
107
108
109
110
111
112
113
114
115
116
117
118
119
120
121
122
123
124
125
126
127
128
129
130
131
132
133
134
135
136
137
138
139
140
141
142
143
144
145
146
147
148
149
150
151
152
153
154
155
156
157
158
159
160
161
162
163
164
165
166
167

VECTORS burgers_vector_global double
-2.480271559999999e+00 -1.581061680000000e-06  1.483537390000000e-05
 2.480271559999999e+00  1.581061680000000e-06 -1.483537390000000e-05
-2.480271559999999e+00 -1.581061680000000e-06  1.483537390000000e-05
-2.480271559999999e+00 -1.581061680000000e-06  1.483537390000000e-05
-2.480271559999999e+00 -1.581061680000000e-06  1.483537390000000e-05
-2.480271559999999e+00 -1.581061680000000e-06  1.483537390000000e-05
-2.480271559999999e+00 -1.581061680000000e-06  1.483537390000000e-05
-2.480271559999999e+00 -1.581061680000000e-06  1.483537390000000e-05
-2.480271559999999e+00 -1.581061680000000e-06  1.483537390000000e-05
-2.480271559999999e+00 -1.581061680000000e-06  1.483537390000000e-05
-2.480271559999999e+00 -1.581061680000000e-06  1.483537390000000e-05
-2.480271559999999e+00 -1.581061680000000e-06  1.483537390000000e-05
-2.480271559999999e+00 -1.581061680000000e-06  1.483537390000000e-05
-2.480271559999999e+00 -1.581061680000000e-06  1.483537390000000e-05
-2.480271559999999e+00 -1.581061680000000e-06  1.483537390000000e-05
-2.480271559999999e+00 -1.581061680000000e-06  1.483537390000000e-05
-2.480271559999999e+00 -1.581061680000000e-06  1.483537390000000e-05
-2.480271559999999e+00 -1.581061680000000e-06  1.483537390000000e-05
-2.480271559999999e+00 -1.581061680000000e-06  1.483537390000000e-05
-2.480271559999999e+00 -1.581061680000000e-06  1.483537390000000e-05
-2.480271559999999e+00 -1.581061680000000e-06  1.483537390000000e-05
-2.480271559999999e+00 -1.581061680000000e-06  1.483537390000000e-05
-2.480271559999999e+00 -1.581061680000000e-06  1.483537390000000e-05
-2.480271559999999e+00 -1.581061680000000e-06  1.483537390000000e-05
-2.480271559999999e+00 -1.581061680000000e-06  1.483537390000000e-05
-2.480271559999999e+00 -1.581061680000000e-06  1.483537390000000e-05
-2.480271559999999e+00 -1.581061680000000e-06  1.483537390000000e-05
-2.480271559999999e+00 -1.581061680000000e-06  1.483537390000000e-05
-2.480271559999999e+00 -1.581061680000000e-06  1.483537390000000e-05
-2.480271559999999e+00 -1.581061680000000e-06  1.483537390000000e-05
-2.480271559999999e+00 -1.581061680000000e-06  1.483537390000000e-05
-2.480271559999999e+00 -1.581061680000000e-06  1.483537390000000e-05
-2.480271559999999e+00 -1.581061680000000e-06  1.483537390000000e-05
-2.480271559999999e+00 -1.581061680000000e-06  1.483537390000000e-05
-2.480271559999999e+00 -1.581061680000000e-06  1.483537390000000e-05
-2.480271559999999e+00 -1.581061680000000e-06  1.483537390000000e-05
-2.480271559999999e+00 -1.581061680000000e-06  1.483537390000000e-05
-2.480271559999999e+00 -1.581061680000000e-06  1.483537390000000e-05
-2.480271559999999e+00 -1.581061680000000e-06  1.483537390000000e-05
-2.480271559999999e+00 -1.581061680000000e-06  1.483537390000000e-05
-2.480271559999999e+00 -1.581061680000000e-06  1.483537390000000e-05
-2.480271559999999e+00 -1.581061680000000e-06  1.483537390000000e-05
-2.480271559999999e+00 -1.581061680000000e-06  1.483537390000000e-05
-2.480271559999999e+00 -1.581061680000000e-06  1.483537390000000e-05
-2.480271559999999e+00 -1.581061680000000e-06  1.483537390000000e-05
-2.480271559999999e+00 -1.581061680000000e-06  1.483537390000000e-05
-2.480271559999999e+00 -1.581061680000000e-06  1.483537390000000e-05
-2.480271559999999e+00 -1.581061680000000e-06  1.483537390000000e-05
-2.480271559999999e+00 -1.581061680000000e-06  1.483537390000000e-05
-2.480271559999999e+00 -1.581061680000000e-06  1.483537390000000e-05
-2.480271559999999e+00 -1.581061680000000e-06  1.483537390000000e-05
-2.480271559999999e+00 -1.581061680000000e-06  1.483537390000000e-05
-2.480271559999999e+00 -1.581061680000000e-06  1.483537390000000e-05
-2.480271559999999e+00 -1.581061680000000e-06  1.483537390000000e-05
-2.480271559999999e+00 -1.581061680000000e-06  1.483537390000000e-05
-2.480271559999999e+00 -1.581061680000000e-06  1.483537390000000e-05
-2.480271559999999e+00 -1.581061680000000e-06  1.483537390000000e-05
-2.480271559999999e+00 -1.581061680000000e-06  1.483537390000000e-05
-2.480271559999999e+00 -1.581061680000000e-06  1.483537390000000e-05
-2.480271559999999e+00 -1.581061680000000e-06  1.483537390000000e-05
-2.480271559999999e+00 -1.581061680000000e-06  1.483537390000000e-05
-2.480271559999999e+00 -1.581061680000000e-06  1.483537390000000e-05
-2.480271559999999e+00 -1.581061680000000e-06  1.483537390000000e-05
-2.480271559999999e+00 -1.581061680000000e-06  1.483537390000000e-05
-2.480271559999999e+00 -1.581061680000000e-06  1.483537390000000e-05
-2.480271559999999e+00 -1.581061680000000e-06  1.483537390000000e-05
-2.480271559999999e+00 -1.581061680000000e-06  1.483537390000000e-05
-2.480271559999999e+00 -1.581061680000000e-06  1.483537390000000e-05
-2.480271559999999e+00 -1.581061680000000e-06  1.483537390000000e-05
-2.480271559999999e+00 -1.581061680000000e-06  1.483537390000000e-05
-2.480271559999999e+00 -1.581061680000000e-06  1.483537390000000e-05
-2.480271559999999e+00 -1.581061680000000e-06  1.483537390000000e-05
-2.480271559999999e+00 -1.581061680000000e-06  1.483537390000000e-05
-2.480271559999999e+00 -1.581061680000000e-06  1.483537390000000e-05
-2.480271559999999e+00 -1.581061680000000e-06  1.483537390000000e-05
-2.480271559999999e+00 -1.581061680000000e-06  1.483537390000000e-05
-2.480271559999999e+00 -1.581061680000000e-06  1.483537390000000e-05
-2.480271559999999e+00 -1.581061680000000e-06  1.483537390000000e-05
-2.480271559999999e+00 -1.581061680000000e-06  1.483537390000000e-05
-2.480271559999999e+00 -1.581061680000000e-06  1.483537390000000e-05
-2.480271559999999e+00 -1.581061680000000e-06  1.483537390000000e-05
-2.480271559999999e+00 -1.581061680000000e-06  1.483537390000000e-05
-2.480271559999999e+00 -1.581061680000000e-06  1.483537390000000e-05
-2.480271559999999e+00 -1.581061680000000e-06  1.483537390000000e-05
-2.480271559999999e+00 -1.581061680000000e-06  1.483537390000000e-05
-2.480271559999999e+00 -1.581061680000000e-06  1.483537390000000e-05
-2.480271559999999e+00 -1.581061680000000e-06  1.483537390000000e-05
-2.480271559999999e+00 -1.581061680000000e-06  1.483537390000000e-05
-2.480271559999999e+00 -1.581061680000000e-06  1.483537390000000e-05
-2.480271559999999e+00 -1.581061680000000e-06  1.483537390000000e-05
-2.480271559999999e+00 -1.581061680000000e-06  1.483537390000000e-05
-2.480271559999999e+00 -1.581061680000000e-06  1.483537390000000e-05
-2.480271559999999e+00 -1.581061680000000e-06  1.483537390000000e-05
-2.480271559999999e+00 -1.581061680000000e-06  1.483537390000000e-05
-2.480271559999999e+00 -1.581061680000000e-06  1.483537390000000e-05
-2.480271559999999e+00 -1.581061680000000e-06  1.483537390000000e-05
-2.480271559999999e+00 -1.581061680000000e-06  1.483537390000000e-05
-2.480271559999999e+00 -1.581061680000000e-06  1.483537390000000e-05
-2.480271559999999e+00 -1.581061680000000e-06  1.483537390000000e-05
-2.480271559999999e+00 -1.581061680000000e-06  1.483537390000000e-05
-2.480271559999999e+00 -1.581061680000000e-06  1.483537390000000e-05
-2.480271559999999e+00 -1.581061680000000e-06  1.483537390000000e-05
-2.480271559999999e+00 -1.581061680000000e-06  1.483537390000000e-05
-2.480271559999999e+00 -1.581061680000000e-06  1.483537390000000e-05
-2.480271559999999e+00 -1.581061680000000e-06  1.483537390000000e-05
-2.480271559999999e+00 -1.581061680000000e-06  1.483537390000000e-05
-2.480271559999999e+00 -1.581061680000000e-06  1.483537390000000e-05
-2.480271559999999e+00 -1.581061680000000e-06  1.483537390000000e-05
-2.480271559999999e+00 -1.581061680000000e-06  1.483537390000000e-05
-2.480271559999999e+00 -1.581061680000000e-06  1.483537390000000e-05
-2.480271559999999e+00 -1.581061680000000e-06  1.483537390000000e-05
-2.480271559999999e+00 -1.581061680000000e-06  1.483537390000000e-05
-2.480271559999999e+00 -1.581061680000000e-06  1.483537390000000e-05
-2.480271559999999e+00 -1.581061680000000e-06  1.483537390000000e-05
-2.480271559999999e+00 -1.581061680000000e-06  1.483537390000000e-05
-2.480271559999999e+00 -1.581061680000000e-06  1.483537390000000e-05
-2.480271559999999e+00 -1.581061680000000e-06  1.483537390000000e-05
-2.480271559999999e+00 -1.581061680000000e-06  1.483537390000000e-05
-2.480271559999999e+00 -1.581061680000000e-06  1.483537390000000e-05
-2.480271559999999e+00 -1.581061680000000e-06  1.483537390000000e-05
-2.480271559999999e+00 -1.581061680000000e-06  1.483537390000000e-05
-2.480271559999999e+00 -1.581061680000000e-06  1.483537390000000e-05
-2.480271559999999e+00 -1.581061680000000e-06  1.483537390000000e-05
-2.480271559999999e+00 -1.581061680000000e-06  1.483537390000000e-05
-2.480271559999999e+00 -1.581061680000000e-06  1.483537390000000e-05
-2.480271559999999e+00 -1.581061680000000e-06  1.483537390000000e-05
-2.480271559999999e+00 -1.581061680000000e-06  1.483537390000000e-05
-2.480271559999999e+00 -1.581061680000000e-06  1.483537390000000e-05
-2.480271559999999e+00 -1.581061680000000e-06  1.483537390000000e-05
-2.480271559999999e+00 -1.581061680000000e-06  1.483537390000000e-05
-2.480271559999999e+00 -1.581061680000000e-06  1.483537390000000e-05
-2.480271559999999e+00 -1.581061680000000e-06  1.483537390000000e-05
-2.480271559999999e+00 -1.581061680000000e-06  1.483537390000000e-05
-2.480271559999999e+00 -1.581061680000000e-06  1.483537390000000e-05
-2.480271559999999e+00 -1.581061680000000e-06  1.483537390000000e-05
-2.480271559999999e+00 -1.581061680000000e-06  1.483537390000000e-05
-2.480271559999999e+00 -1.581061680000000e-06  1.483537390000000e-05
-2.480271559999999e+00 -1.581061680000000e-06  1.483537390000000e-05
-2.480271559999999e+00 -1.581061680000000e-06  1.483537390000000e-05
-2.480271559999999e+00 -1.581061680000000e-06  1.483537390000000e-05
-2.480271559999999e+00 -1.581061680000000e-06  1.483537390000000e-05
-2.480271559999999e+00 -1.581061680000000e-06  1.483537390000000e-05
-2.480271559999999e+00 -1.581061680000000e-06  1.483537390000000e-05
-2.480271559999999e+00 -1.581061680000000e-06  1.483537390000000e-05
-2.480271559999999e+00 -1.581061680000000e-06  1.483537390000000e-05
-2.480271559999999e+00 -1.581061680000000e-06  1.483537390000000e-05
-2.480271559999999e+00 -1.581061680000000e-06  1.483537390000000e-05
-2.480271559999999e+00 -1.581061680000000e-06  1.483537390000000e-05
-2.480271559999999e+00 -1.581061680000000e-06  1.483537390000000e-05
-2.480271559999999e+00 -1.581061680000000e-06  1.483537390000000e-05
-2.480271559999999e+00 -1.581061680000000e-06  1.483537390000000e-05
-2.480271559999999e+00 -1.581061680000000e-06  1.483537390000000e-05
-2.480271559999999e+00 -1.581061680000000e-06  1.483537390000000e-05
-2.480271559999999e+00 -1.581061680000000e-06  1.483537390000000e-05
-2.480271559999999e+00 -1.581061680000000e-06  1.483537390000000e-05
-2.480271559999999e+00 -1.581061680000000e-06  1.483537390000000e-05
-2.480271559999999e+00 -1.581061680000000e-06  1.483537390000000e-05
-2.480271559999999e+00 -1.581061680000000e-06  1.483537390000000e-05
-2.480271559999999e+00 -1.581061680000000e-06  1.483537390000000e-05
-2.480271559999999e+00 -1.581061680000000e-06  1.483537390000000e-05
-2.480271559999999e+00 -1.581061680000000e-06  1.483537390000000e-05
-2.480271559999999e+00 -1.581061680000000e-06  1.483537390000000e-05
-2.480271559999999e+00 -1.581061680000000e-06  1.483537390000000e-05
-2.480271559999999e+00 -1.581061680000000e-06  1.483537390000000e-05
-2.480271559999999e+00 -1.581061680000000e-06  1.483537390000000e-05
-2.480271559999999e+00 -1.581061680000000e-06  1.483537390000000e-05
-2.480271559999999e+00 -1.581061680000000e-06  1.483537390000000e-05
-2.480271559999999e+00 -1.581061680000000e-06  1.483537390000000e-05

VECTORS burgers_vector_local double
-5.015120650106114e-01 -5.015112819270852e-01 -5.015180368568252e-01
5.015120650106114e-01 5.015112819270852e-01 5.015180368568252e-01
-5.015120650106114e-01 -5.015112819270852e-01 -5.015180368568252e-01
-5.015120650106114e-01 -5.015112819270852e-01 -5.015180368568252e-01
-5.015120650106114e-01 -5.015112819270852e-01 -5.015180368568252e-01
-5.015120650106114e-01 -5.015112819270852e-01 -5.015180368568252e-01
-5.015120650106114e-01 -5.015112819270852e-01 -5.015180368568252e-01
-5.015120650106114e-01 -5.015112819270852e-01 -5.015180368568252e-01
-5.015120650106114e-01 -5.015112819270852e-01 -5.015180368568252e-01
-5.015120650106114e-01 -5.015112819270852e-01 -5.015180368568252e-01
-5.015120650106114e-01 -5.015112819270852e-01 -5.015180368568252e-01
-5.015120650106114e-01 -5.015112819270852e-01 -5.015180368568252e-01
-5.015120650106114e-01 -5.015112819270852e-01 -5.015180368568252e-01
-5.015120650106114e-01 -5.015112819270852e-01 -5.015180368568252e-01
-5.015120650106114e-01 -5.015112819270852e-01 -5.015180368568252e-01
-5.015120650106114e-01 -5.015112819270852e-01 -5.015180368568252e-01
-5.015120650106114e-01 -5.015112819270852e-01 -5.015180368568252e-01
-5.015120650106114e-01 -5.015112819270852e-01 -5.015180368568252e-01
-5.015120650106114e-01 -5.015112819270852e-01 -5.015180368568252e-01
-5.015120650106114e-01 -5.015112819270852e-01 -5.015180368568252e-01
-5.015120650106114e-01 -5.015112819270852e-01 -5.015180368568252e-01
-5.015120650106114e-01 -5.015112819270852e-01 -5.015180368568252e-01
-5.015120650106114e-01 -5.015112819270852e-01 -5.015180368568252e-01
-5.015120650106114e-01 -5.015112819270852e-01 -5.015180368568252e-01
-5.015120650106114e-01 -5.015112819270852e-01 -5.015180368568252e-01
-5.015120650106114e-01 -5.015112819270852e-01 -5.015180368568252e-01
-5.015120650106114e-01 -5.015112819270852e-01 -5.015180368568252e-01
-5.015120650106114e-01 -5.015112819270852e-01 -5.015180368568252e-01
-5.015120650106114e-01 -5.015112819270852e-01 -5.015180368568252e-01
-5.015120650106114e-01 -5.015112819270852e-01 -5.015180368568252e-01
-5.015120650106114e-01 -5.015112819270852e-01 -5.015180368568252e-01
-5.015120650106114e-01 -5.015112819270852e-01 -5.015180368568252e-01
-5.015120650106114e-01 -5.015112819270852e-01 -5.015180368568252e-01
-5.015120650106114e-01 -5.015112819270852e-01 -5.015180368568252e-01
-5.015120650106114e-01 -5.015112819270852e-01 -5.015180368568252e-01
-5.015120650106114e-01 -5.015112819270852e-01 -5.015180368568252e-01
-5.015120650106114e-01 -5.015112819270852e-01 -5.015180368568252e-01
-5.015120650106114e-01 -5.015112819270852e-01 -5.015180368568252e-01
-5.015120650106114e-01 -5.015112819270852e-01 -5.015180368568252e-01
-5.015120650106114e-01 -5.015112819270852e-01 -5.015180368568252e-01
-5.015120650106114e-01 -5.015112819270852e-01 -5.015180368568252e-01
-5.015120650106114e-01 -5.015112819270852e-01 -5.015180368568252e-01
-5.015120650106114e-01 -5.015112819270852e-01 -5.015180368568252e-01
-5.015120650106114e-01 -5.015112819270852e-01 -5.015180368568252e-01
-5.015120650106114e-01 -5.015112819270852e-01 -5.015180368568252e-01
-5.015120650106114e-01 -5.015112819270852e-01 -5.015180368568252e-01
-5.015120650106114e-01 -5.015112819270852e-01 -5.015180368568252e-01
-5.015120650106114e-01 -5.015112819270852e-01 -5.015180368568252e-01
-5.015120650106114e-01 -5.015112819270852e-01 -5.015180368568252e-01
-5.015120650106114e-01 -5.015112819270852e-01 -5.015180368568252e-01
-5.015120650106114e-01 -5.015112819270852e-01 -5.015180368568252e-01
-5.015120650106114e-01 -5.015112819270852e-01 -5.015180368568252e-01
-5.015120650106114e-01 -5.015112819270852e-01 -5.015180368568252e-01
-5.015120650106114e-01 -5.015112819270852e-01 -5.015180368568252e-01
-5.015120650106114e-01 -5.015112819270852e-01 -5.015180368568252e-01
-5.015120650106114e-01 -5.015112819270852e-01 -5.015180368568252e-01
-5.015120650106114e-01 -5.015112819270852e-01 -5.015180368568252e-01
-5.015120650106114e-01 -5.015112819270852e-01 -5.015180368568252e-01
-5.015120650106114e-01 -5.015112819270852e-01 -5.015180368568252e-01
-5.015120650106114e-01 -5.015112819270852e-01 -5.015180368568252e-01
-5.015120650106114e-01 -5.015112819270852e-01 -5.015180368568252e-01
-5.015120650106114e-01 -5.015112819270852e-01 -5.015180368568252e-01
-5.015120650106114e-01 -5.015112819270852e-01 -5.015180368568252e-01
-5.015120650106114e-01 -5.015112819270852e-01 -5.015180368568252e-01
-5.015120650106114e-01 -5.015112819270852e-01 -5.015180368568252e-01
-5.015120650106114e-01 -5.015112819270852e-01 -5.015180368568252e-01
-5.015120650106114e-01 -5.015112819270852e-01 -5.015180368568252e-01
-5.015120650106114e-01 -5.015112819270852e-01 -5.015180368568252e-01
-5.015120650106114e-01 -5.015112819270852e-01 -5.015180368568252e-01
-5.015120650106114e-01 -5.015112819270852e-01 -5.015180368568252e-01
-5.015120650106114e-01 -5.015112819270852e-01 -5.015180368568252e-01
-5.015120650106114e-01 -5.015112819270852e-01 -5.015180368568252e-01
-5.015120650106114e-01 -5.015112819270852e-01 -5.015180368568252e-01
-5.015120650106114e-01 -5.015112819270852e-01 -5.015180368568252e-01
-5.015120650106114e-01 -5.015112819270852e-01 -5.015180368568252e-01
-5.015120650106114e-01 -5.015112819270852e-01 -5.015180368568252e-01
-5.015120650106114e-01 -5.015112819270852e-01 -5.015180368568252e-01
-5.015120650106114e-01 -5.015112819270852e-01 -5.015180368568252e-01
-5.015120650106114e-01 -5.015112819270852e-01 -5.015180368568252e-01
-5.015120650106114e-01 -5.015112819270852e-01 -5.015180368568252e-01
-5.015120650106114e-01 -5.015112819270852e-01 -5.015180368568252e-01
-5.015120650106114e-01 -5.015112819270852e-01 -5.015180368568252e-01
-5.015120650106114e-01 -5.015112819270852e-01 -5.015180368568252e-01
-5.015120650106114e-01 -5.015112819270852e-01 -5.015180368568252e-01
-5.015120650106114e-01 -5.015112819270852e-01 -5.015180368568252e-01
-5.015120650106114e-01 -5.015112819270852e-01 -5.015180368568252e-01
-5.015120650106114e-01 -5.015112819270852e-01 -5.015180368568252e-01
-5.015120650106114e-01 -5.015112819270852e-01 -5.015180368568252e-01
-5.015120650106114e-01 -5.015112819270852e-01 -5.015180368568252e-01
-5.015120650106114e-01 -5.015112819270852e-01 -5.015180368568252e-01
-5.015120650106114e-01 -5.015112819270852e-01 -5.015180368568252e-01
-5.015120650106114e-01 -5.015112819270852e-01 -5.015180368568252e-01
-5.015120650106114e-01 -5.015112819270852e-01 -5.015180368568252e-01
-5.015120650106114e-01 -5.015112819270852e-01 -5.015180368568252e-01
-5.015120650106114e-01 -5.015112819270852e-01 -5.015180368568252e-01
-5.015120650106114e-01 -5.015112819270852e-01 -5.015180368568252e-01
-5.015120650106114e-01 -5.015112819270852e-01 -5.015180368568252e-01
-5.015120650106114e-01 -5.015112819270852e-01 -5.015180368568252e-01
-5.015120650106114e-01 -5.015112819270852e-01 -5.015180368568252e-01
-5.015120650106114e-01 -5.015112819270852e-01 -5.015180368568252e-01
-5.015120650106114e-01 -5.015112819270852e-01 -5.015180368568252e-01
-5.015120650106114e-01 -5.015112819270852e-01 -5.015180368568252e-01
-5.015120650106114e-01 -5.015112819270852e-01 -5.015180368568252e-01
-5.015120650106114e-01 -5.015112819270852e-01 -5.015180368568252e-01
-5.015120650106114e-01 -5.015112819270852e-01 -5.015180368568252e-01
-5.015120650106114e-01 -5.015112819270852e-01 -5.015180368568252e-01
-5.015120650106114e-01 -5.015112819270852e-01 -5.015180368568252e-01
-5.015120650106114e-01 -5.015112819270852e-01 -5.015180368568252e-01
-5.015120650106114e-01 -5.015112819270852e-01 -5.015180368568252e-01
-5.015120650106114e-01 -5.015112819270852e-01 -5.015180368568252e-01
-5.015120650106114e-01 -5.015112819270852e-01 -5.015180368568252e-01
-5.015120650106114e-01 -5.015112819270852e-01 -5.015180368568252e-01
-5.015120650106114e-01 -5.015112819270852e-01 -5.015180368568252e-01
-5.015120650106114e-01 -5.015112819270852e-01 -5.015180368568252e-01
-5.015120650106114e-01 -5.015112819270852e-01 -5.015180368568252e-01
-5.015120650106114e-01 -5.015112819270852e-01 -5.015180368568252e-01
-5.015120650106114e-01 -5.015112819270852e-01 -5.015180368568252e-01
-5.015120650106114e-01 -5.015112819270852e-01 -5.015180368568252e-01
-5.015120650106114e-01 -5.015112819270852e-01 -5.015180368568252e-01
-5.015120650106114e-01 -5.015112819270852e-01 -5.015180368568252e-01
-5.015120650106114e-01 -5.015112819270852e-01 -5.015180368568252e-01
-5.015120650106114e-01 -5.015112819270852e-01 -5.015180368568252e-01
-5.015120650106114e-01 -5.015112819270852e-01 -5.015180368568252e-01
-5.015120650106114e-01 -5.015112819270852e-01 -5.015180368568252e-01
-5.015120650106114e-01 -5.015112819270852e-01 -5.015180368568252e-01
-5.015120650106114e-01 -5.015112819270852e-01 -5.015180368568252e-01
-5.015120650106114e-01 -5.015112819270852e-01 -5.015180368568252e-01
-5.015120650106114e-01 -5.015112819270852e-01 -5.015180368568252e-01
-5.015120650106114e-01 -5.015112819270852e-01 -5.015180368568252e-01
-5.015120650106114e-01 -5.015112819270852e-01 -5.015180368568252e-01
-5.015120650106114e-01 -5.015112819270852e-01 -5.015180368568252e-01
-5.015120650106114e-01 -5.015112819270852e-01 -5.015180368568252e-01
-5.015120650106114e-01 -5.015112819270852e-01 -5.015180368568252e-01
-5.015120650106114e-01 -5.015112819270852e-01 -5.015180368568252e-01
-5.015120650106114e-01 -5.015112819270852e-01 -5.015180368568252e-01
-5.015120650106114e-01 -5.015112819270852e-01 -5.015180368568252e-01
-5.015120650106114e-01 -5.015112819270852e-01 -5.015180368568252e-01
-5.015120650106114e-01 -5.015112819270852e-01 -5.015180368568252e-01
-5.015120650106114e-01 -5.015112819270852e-01 -5.015180368568252e-01
-5.015120650106114e-01 -5.015112819270852e-01 -5.015180368568252e-01
-5.015120650106114e-01 -5.015112819270852e-01 -5.015180368568252e-01
-5.015120650106114e-01 -5.015112819270852e-01 -5.015180368568252e-01
-5.015120650106114e-01 -5.015112819270852e-01 -5.015180368568252e-01
-5.015120650106114e-01 -5.015112819270852e-01 -5.015180368568252e-01
-5.015120650106114e-01 -5.015112819270852e-01 -5.015180368568252e-01
-5.015120650106114e-01 -5.015112819270852e-01 -5.015180368568252e-01
-5.015120650106114e-01 -5.015112819270852e-01 -5.015180368568252e-01
-5.015120650106114e-01 -5.015112819270852e-01 -5.015180368568252e-01
-5.015120650106114e-01 -5.015112819270852e-01 -5.015180368568252e-01
-5.015120650106114e-01 -5.015112819270852e-01 -5.015180368568252e-01
-5.015120650106114e-01 -5.015112819270852e-01 -5.015180368568252e-01
-5.015120650106114e-01 -5.015112819270852e-01 -5.015180368568252e-01
-5.015120650106114e-01 -5.015112819270852e-01 -5.015180368568252e-01
-5.015120650106114e-01 -5.015112819270852e-01 -5.015180368568252e-01
-5.015120650106114e-01 -5.015112819270852e-01 -5.015180368568252e-01
-5.015120650106114e-01 -5.015112819270852e-01 -5.015180368568252e-01
-5.015120650106114e-01 -5.015112819270852e-01 -5.015180368568252e-01
-5.015120650106114e-01 -5.015112819270852e-01 -5.015180368568252e-01
-5.015120650106114e-01 -5.015112819270852e-01 -5.015180368568252e-01
-5.015120650106114e-01 -5.015112819270852e-01 -5.015180368568252e-01
-5.015120650106114e-01 -5.015112819270852e-01 -5.015180368568252e-01
-5.015120650106114e-01 -5.015112819270852e-01 -5.015180368568252e-01
-5.015120650106114e-01 -5.015112819270852e-01 -5.015180368568252e-01
-5.015120650106114e-01 -5.015112819270852e-01 -5.015180368568252e-01
-5.015120650106114e-01 -5.015112819270852e-01 -5.015180368568252e-01
-5.015120650106114e-01 -5.015112819270852e-01 -5.015180368568252e-01
-5.015120650106114e-01 -5.015112819270852e-01 -5.015180368568252e-01
-5.015120650106114e-01 -5.015112819270852e-01 -5.015180368568252e-01
