stress_11,stress_12,stress_13,stress_21,stress_22,stress_23,stress_31,stress_32,stress_33,e1,e2,e3,anev1,anev2,anev3,temp,miss,velo
6.967375386758654e-19,-0.1069568645735849,-9.450079413178374e-18,-0.1069568645735849,-6.123042357023727e-18,-0.04376985021323964,-9.450079413178374e-18,-0.04376985021323964,-3.561826482763536e-18,0.11556630420283262,3.443951513947782e-18,-0.11556630420283247,0.468926735510929,0.748475406039588,0.46892673551092934,1000.0,109.28571428571416,[0.27073427]
2.5698979619695472e-18,0.009717771855924357,-8.85394895727519e-18,0.009717771855924357,-1.3999866431337483e-18,-0.027505284047731254,-8.85394895727519e-18,-0.027505284047731254,2.593773703170278e-19,0.029171488484309054,-4.25287069776639e-18,-0.029171488484309043,0.5515055122473448,0.6258460992301434,0.5515055122473456,1000.0,109.28571428571416,[0.16289282]
3.590043267818945e-18,0.033258005454902956,-8.672888426969223e-18,0.033258005454902956,-4.601506485958987e-19,-0.019193104714059613,-8.672888426969223e-18,-0.019193104714059613,1.5757989192482192e-18,0.03839883065150827,-4.270348799507408e-18,-0.03839883065150826,0.13132751612766735,0.9826017336721296,0.13132751612766733,1000.0,109.28571428571416,[0.18382339]
4.471275170318638e-18,0.04281933169640665,-8.615632432534375e-18,0.04281933169640665,-3.4728350837426314e-20,-0.015608339216045444,-8.615632432534375e-18,-0.015608339216045444,2.332225810925911e-18,0.04557538173191791,-2.6599484076335583e-18,-0.045575381731917906,0.009155811780159808,0.9999161675967103,0.009155811780159815,1000.0,109.28571428571416,[0.16880338]
5.3199492439082435e-18,0.04769010566321805,-8.597047338531533e-18,0.04769010566321805,2.127111488792362e-19,-0.01389183788850743,-8.597047338531533e-18,-0.01389183788850743,2.877026814688036e-18,0.0496722189769037,-1.3598205828636276e-18,-0.04967221897690368,0.03756408713520346,0.9985879424043721,0.03756408713520362,1000.0,109.28571428571416,[0.17230866]
6.157770707861153e-18,0.050332027389258925,-8.606458585950855e-18,0.050332027389258925,3.7767081535701116e-19,-0.013118582995255059,-8.606458585950855e-18,-0.013118582995255059,3.340433246174944e-18,0.05201355785674065,-8.472469418818328e-19,-0.05201355785674067,0.057657724549538214,0.9966700424912646,0.05765772454953847,1000.0,109.28571428571416,[0.17061282]
6.969545908685993e-18,0.05165186222609551,-8.636718713914423e-18,0.05165186222609551,5.187547406340556e-19,-0.012927386055864236,-8.636718713914423e-18,-0.012927386055864236,3.737638758878007e-18,0.05324502025223492,-3.156594009650352e-19,-0.053245020252234924,0.06450989884768742,0.9958297775731164,0.06450989884768758,1000.0,109.28571428571416,[0.17061282]
7.776980065656155e-18,0.05202705038941509,-8.665800316300256e-18,0.05202705038941509,6.077461396549605e-19,-0.013169028657859159,-8.665800316300256e-18,-0.013169028657859159,4.0990306597799746e-18,0.05366784221500113,2.13391506352591e-19,-0.05366784221500109,0.0626292116295774,0.9960698588459121,0.06262921162957769,1000.0,109.28571428571416,[0.17061282]
8.567050047207604e-18,0.05159252202016014,-8.707557427597699e-18,0.05159252202016014,6.837144071118306e-19,-0.013798821094675092,-8.707557427597699e-18,-0.013798821094675092,4.4343762975538725e-18,0.05340595277685402,4.499755304671507e-19,-0.05340595277685402,0.05316549171793777,0.9971694244113083,0.05316549171793792,1000.0,109.28571428571416,[0.17061282]
9.357120028759052e-18,0.05032458194525614,-8.755974480199535e-18,0.05032458194525614,7.20613279876596e-19,-0.014846385264374349,-8.755974480199535e-18,-0.014846385264374349,4.725226235817318e-18,0.05246883554437847,3.4421079681320964e-19,-0.05246883554437846,0.03514588922839332,0.9987640026255908,0.035145889228393394,1000.0,109.28571428571416,[0.17230866]
1.0129825834891788e-17,0.04803335396695292,-8.829327099161936e-18,0.04803335396695292,7.4665954300466575e-19,-0.016425125597423176,-8.829327099161936e-18,-0.016425125597423176,4.985688867098015e-18,0.05076404085773434,2.6266546977198015e-19,-0.05076404085773425,0.005028594952702559,0.9999747129130834,0.005028594952702687,1000.0,109.28571428571416,[0.16218138]
1.0909043206806541e-17,0.04425790613992715,-8.913430584545689e-18,0.04425790613992715,7.184427579492569e-19,-0.0187887565240976,-8.913430584545689e-18,-0.0187887565240976,5.187547406340556e-18,0.04808096949534629,-7.89151155029799e-19,-0.048080969495346286,0.04583945463252269,0.9978965321104116,0.0458394546325225,1000.0,109.28571428571416,[0.17061282]
1.1625315442828459e-17,0.037931693520114336,-9.024428193185378e-18,0.037931693520114336,6.142577054369779e-19,-0.022498587117880397,-9.024428193185378e-18,-0.022498587117880397,5.301499807525861e-18,0.044102151825106455,1.6706132658914326e-18,-0.0441021518251064,0.1396186717207719,0.98031283425948,0.13961867172077205,1000.0,109.28571428571416,[0.18008595]
1.2302518284158272e-17,0.026207522770415166,-9.212749585661364e-18,0.026207522770415166,3.3208985488288913e-19,-0.028962680554362158,-9.212749585661364e-18,-0.028962680554362158,5.232043105851008e-18,0.039059840177039354,9.238481713846939e-19,-0.03905984017703933,0.3381960266117022,0.8782066358028238,0.33819602661170234,1000.0,109.28571428571416,[0.15427358]
1.2803908849373616e-17,-0.0014681960578728115,-9.575222508226362e-18,-0.0014681960578728115,-4.536390828138812e-19,-0.04262596403658719,-9.575222508226362e-18,-0.04262596403658719,4.6601105779971435e-18,0.04265124159638003,6.938893903907228e-18,-0.04265124159638002,0.6750700520127256,0.29759175013946826,0.6750700520127259,1000.0,109.28571428571416,[0.12930727]
1.2202674275500671e-17,-0.1298582562126314,-1.0654916210331329e-17,-0.1298582562126314,-5.026928783717459e-18,-0.07374209502988387,-1.0654916210331329e-17,-0.07374209502988387,1.799362677764151e-18,0.149335405333035,6.80786328639938e-18,-0.14933540533303485,0.5326589758464224,0.6576844462966116,0.5326589758464222,1000.0,109.28571428571416,[0.28011451]
3.5162455222894143e-19,-0.10397377229033726,-8.541207270510222e-18,-0.10397377229033726,-6.190328536771241e-18,-0.03743423857880487,-8.541207270510222e-18,-0.03743423857880487,-4.064302308942548e-18,0.11050731895335168,1.8753804023212274e-18,-0.11050731895335165,0.3125155633820848,0.8970329120427836,0.31251556338208497,1000.0,96.42857142857144,[0.26435728]
1.3283594195315565e-18,0.0132768084447062,-6.678272040358615e-18,0.0132768084447062,-1.6126977920129846e-18,-0.01974241455061951,-6.678272040358615e-18,-0.01974241455061951,-9.66967518629589e-19,0.02379152317036333,-6.220694254241405e-18,-0.02379152317036332,0.5388928448613894,0.6474480701294869,0.5388928448613897,1000.0,96.42857142857144,[0.15177855]
1.4303739501164963e-18,0.03618459895041319,-5.207506033750541e-18,0.03618459895041319,-8.2479833238887505e-19,-0.012505284834247636,-5.207506033750541e-18,-0.012505284834247636,-3.9286446884838522e-19,0.038284557591644064,-3.2288394337830912e-18,-0.03828455759164406,0.15468916815614744,0.9757779063446346,0.15468916815614736,1000.0,96.42857142857144,[0.16041443]
1.4325444720438354e-18,0.04562182480721947,-3.826596243493797e-18,0.04562182480721947,-5.382894379801079e-19,-0.008938284176974245,-3.826596243493797e-18,-0.008938284176974245,-3.9286446884838522e-19,0.04648917963106012,-1.8500145340612085e-18,-0.04648917963106011,0.05740394462950542,0.9966993399626316,0.05740394462950524,1000.0,96.42857142857144,[0.16346313]
1.380451945787696e-18,0.050604127884447465,-2.4798552163900874e-18,0.050604127884447465,-4.3193386354048983e-19,-0.006750002394048284,-2.4798552163900874e-18,-0.006750002394048284,-6.0557561772762135e-19,0.0510523289504521,-1.2143920070598241e-18,-0.0510523289504521,0.014428130987434977,0.9997918073641228,0.014428130987434923,1000.0,96.42857142857144,[0.16929783]
1.3261888976042174e-18,0.05349346680932651,-1.1473073678268686e-18,0.05349346680932651,-4.058876004124201e-19,-0.005223105693548859,-1.1473073678268686e-18,-0.005223105693548859,-9.094486875551016e-19,0.05374785413731879,-1.0996701808427325e-18,-0.053747854137318814,0.010513013523168828,0.9998894704382697,0.010513013523168828,1000.0,96.42857142857144,[0.1666222]
1.245879586292669e-18,0.05516217859737264,1.6860546502760246e-19,0.05516217859737264,-4.1456968812177667e-19,-0.004068232139626133,1.6860546502760246e-19,-0.004068232139626133,-1.2784374152027562e-18,0.05531199201213351,-1.2399317701198973e-18,-0.0553119920121335,0.02727526834612512,0.9992557828070318,0.027275268346125106,1000.0,96.42857142857144,[0.17672603]
1.200298625818547e-18,0.05598197925557235,1.488367582862589e-18,0.05598197925557235,-4.666622143779161e-19,-0.003148299066098923,1.488367582862589e-18,-0.003148299066098923,-1.6886660594698547e-18,0.05607043595675828,-1.5113509911618394e-18,-0.056070435956758265,0.03959224604184721,0.9984312235235453,0.039592246041847176,1000.0,96.42857142857144,[0.16346313]
1.1134777487249812e-18,0.05610062417847533,2.795123526336098e-18,0.05610062417847533,-5.361189160527687e-19,-0.002392191676553607,2.795123526336098e-18,-0.002392191676553607,-2.1357935765017183e-18,0.05615160384380758,-1.8919486006765493e-18,-0.05615160384380757,0.049163949544151014,0.997579977811524,0.04916394954415095,1000.0,96.42857142857144,[0.16346313]
1.0244863497040763e-18,0.05552659949170512,4.11307122349745e-18,0.05552659949170512,-6.381334466377085e-19,-0.001762883688673184,4.11307122349745e-18,-0.001762883688673184,-2.61330840051633e-18,0.055554576859265306,-2.3486936566859636e-18,-0.055554576859265306,0.05683381522775331,0.996764683811237,0.056833815227753194,1000.0,96.42857142857144,[0.16346313]
9.31153906828493e-19,0.0541318177434661,5.412247297427829e-18,0.0541318177434661,-7.705352842053963e-19,-0.001245618821037936,5.412247297427829e-18,-0.001245618821037936,-3.1407452288597426e-18,0.05414614721713039,-2.8896307865671828e-18,-0.05414614721713038,0.06298535265327272,0.996024944819298,0.06298535265327257,1000.0,96.42857142857144,[0.16346313]
8.399919858802491e-19,0.05157441528826224,6.717544921481408e-18,0.05157441528826224,-9.376654726105105e-19,-0.0008469580671326838,6.717544921481408e-18,-0.0008469580671326838,-3.726786149241311e-18,0.05158136921693353,-3.504926753515145e-18,-0.05158136921693353,0.0676225883532892,0.9954166821431131,0.06762258835328902,1000.0,96.42857142857144,[0.16346313]
7.314658895132917e-19,0.04703912534936139,8.018535416085422e-18,0.04703912534936139,-1.1872754942545121e-18,-0.0006064138564980437,8.018535416085422e-18,-0.0006064138564980437,-4.408330034425803e-18,0.0470430340369144,-4.2007726945106355e-18,-0.0470430340369144,0.07010653115385805,0.9950729363112768,0.0701065311538578,1000.0,96.42857142857144,[0.16346313]
5.751883107448733e-19,0.038301589858684496,9.319458081879207e-18,0.038301589858684496,-1.5975041385216106e-18,-0.0006384148862481798,9.319458081879207e-18,-0.0006384148862481798,-5.30258506848953e-18,0.038306910072072736,-4.990372052676077e-18,-0.03830691007207273,0.06744945064263813,0.995440175608767,0.06744945064263777,1000.0,96.42857142857144,[0.16346313]
3.4728350837426314e-19,0.016797644976873416,1.0584651921884683e-17,0.016797644976873416,-2.5286580453501035e-18,-0.001255405219733795,1.0584651921884683e-17,-0.001255405219733795,-6.798074676426202e-18,0.016844492246274913,-5.185928417065859e-18,-0.016844492246274916,0.02658197252480806,0.9992931489174639,0.026581972524807103,1000.0,96.42857142857144,[0.17241769]
-6.663502316931174e-19,-0.09634421977006413,1.1849879676295273e-17,-0.09634421977006413,-7.253884281167421e-18,-0.00047154311094678734,1.1849879676295273e-17,-0.00047154311094678734,-1.0900361119097184e-17,0.09634537371357224,-1.1016108310397723e-17,-0.09634537371357225,0.08260892366766646,0.9931523203723279,0.08260892366766627,1000.0,96.42857142857144,[0.27382485]
1.1694772144503311e-17,-0.13527145483956957,-1.0489611040851448e-17,-0.13527145483956957,-5.0204172179354415e-18,-0.07812051045406937,-1.0489611040851448e-17,-0.07812051045406937,1.6137830529766542e-18,0.15620877263463182,1.0720325919090082e-17,-0.1562087726346318,0.6252033684939576,0.46716324346808025,0.6252033684939577,1000.0,122.14285714285735,[0.27527154]
1.1783763543524216e-17,-0.008025476201925515,-8.69309293381629e-18,-0.008025476201925515,-4.1999599294012453e-19,-0.048051860290458576,-8.69309293381629e-18,-0.048051860290458576,3.618260052874354e-18,0.04871744600901634,1.7899126120013545e-17,-0.04871744600901634,0.6525184935366418,0.3852781218617834,0.6525184935366417,1000.0,122.14285714285735,[0.15172398]
1.073323093069207e-17,0.020687930398166472,-7.628312031535342e-18,0.020687930398166472,3.896086859573765e-19,-0.03369450567567414,-7.628312031535342e-18,-0.03369450567567414,3.3697352921940224e-18,0.03953871744110347,3.0717334244687656e-18,-0.03953871744110344,0.3133852758732158,0.896425868508789,0.3133852758732159,1000.0,122.14285714285735,[0.16715058]
9.478669256690045e-18,0.03253520537872681,-6.7664028613497354e-18,0.03253520537872681,6.772028413298131e-19,-0.027265076944702,-6.7664028613497354e-18,-0.027265076944702,2.6274167930440346e-18,0.04244907548859522,-2.0361874414409583e-18,-0.042449075488595195,0.09621904915857729,0.9906986369012721,0.09621904915857694,1000.0,122.14285714285735,[0.16487404]
8.167674012577201e-18,0.03856070607686704,-5.979855738629573e-18,0.03856070607686704,7.94411025406127e-19,-0.02392741607991486,-5.979855738629573e-18,-0.02392741607991486,1.7212238883799419e-18,0.045381155708155985,9.454088989383683e-19,-0.045381155708156026,0.003982793694163578,0.9999841372285758,0.0039827936941638905,1000.0,122.14285714285735,[0.1660398]
6.819779895699593e-18,0.04179123009464312,-5.2335946898850044e-18,0.04179123009464312,8.465035516622665e-19,-0.022130169714049946,-5.2335946898850044e-18,-0.022130169714049946,7.314658895132917e-19,0.04728901906781382,-1.8454568658310092e-18,-0.04728901906781381,0.052277114860610076,0.9972633586589357,0.05227711486061022,1000.0,122.14285714285735,[0.1623653]
5.443668993766575e-18,0.04335537220335424,-4.5059187351432775e-18,0.04335537220335424,8.530151174442839e-19,-0.021262431901346288,-4.5059187351432775e-18,-0.021262431901346288,-3.1146989657316725e-19,0.04828850079729925,-1.6228828690977224e-18,-0.04828850079729928,0.07413990830929755,0.9944880833834954,0.07413990830929751,1000.0,122.14285714285735,[0.16097095]
4.0762401795429136e-18,0.04372443738357118,-3.795072803939708e-18,0.04372443738357118,8.215425494978663e-19,-0.02106208345693735,-3.795072803939708e-18,-0.02106208345693735,-1.3837077286787047e-18,0.04853285262641,-2.9590424890490124e-18,-0.04853285262641001,0.07909904176362725,0.9937236452777763,0.0790990417636272,1000.0,122.14285714285735,[0.16097095]
2.656718839063113e-18,0.04306526836583872,-3.0996155340569216e-18,0.04306526836583872,7.6619424035071805e-19,-0.021433947148042757,-3.0996155340569216e-18,-0.021433947148042757,-2.4809065629486423e-18,0.048104380567332954,-4.6029082671712684e-18,-0.04810438056733296,0.07002016321125487,0.9950850986160624,0.07002016321125493,1000.0,122.14285714285735,[0.1623653]
1.2523911520746864e-18,0.04134365656465357,-2.420038684369081e-18,0.04134365656465357,6.989080606032046e-19,-0.022394429602881447,-2.420038684369081e-18,-0.022394429602881447,-3.616089530947015e-18,0.04701923452561126,-2.395270473500151e-18,-0.047019234525611284,0.0456310258982944,0.99791563719131,0.04563102589829461,1000.0,122.14285714285735,[0.1623653]
-1.844943638238273e-19,0.038313421415543336,-1.7525184056995072e-18,0.038313421415543336,5.838703984542299e-19,-0.024076782021601614,-1.7525184056995072e-18,-0.024076782021601614,-4.77080719629144e-18,0.04525052146750061,-3.231400480138688e-18,-0.045250521467500616,3.789147202500231e-05,0.9999999985642364,3.78914720249083e-05,1000.0,122.14285714285735,[0.16743072]
-1.6430850989957327e-18,0.03338266168036628,-1.112358573356197e-18,0.03338266168036628,4.254222977584724e-19,-0.026801072414917016,-1.112358573356197e-18,-0.026801072414917016,-5.9721910830736564e-18,0.042810040685047485,-3.728091683535421e-18,-0.0428100406850475,0.08147114002737173,0.9933402773900194,0.08147114002737138,1000.0,122.14285714285735,[0.16195491]
-3.1277220972957078e-18,0.025191924410251657,-5.147697980330814e-19,0.025191924410251657,1.9426171249685347e-19,-0.03128926984189915,-5.147697980330814e-19,-0.03128926984189915,-7.241946410567056e-18,0.04017028083958354,-4.372671791482999e-18,-0.04017028083958355,0.23042806722478235,0.9454130376031962,0.23042806722478246,1000.0,122.14285714285735,[0.16605867]
-4.74476093316337e-18,0.01015732243737636,-3.951028195859537e-21,0.01015732243737636,-2.1162588791556662e-19,-0.039360937836655924,-3.951028195859537e-21,-0.039360937836655924,-8.673405621647222e-18,0.04065039515770938,-4.581945156826838e-18,-0.04065039515770938,0.4857304481326868,0.7267268149130307,0.48573044813268695,1000.0,122.14285714285735,[0.16250567]
-6.602727702965679e-18,-0.024594102965782936,2.690768901798246e-19,-0.024594102965782936,-1.1134777487249812e-18,-0.05673293065746417,2.690768901798246e-19,-0.05673293065746417,-1.050641138928513e-17,0.06183441858444349,-3.728353013347842e-18,-0.06183441858444349,0.698959891815122,0.15136095687985657,0.6989598918151222,1000.0,122.14285714285735,[0.07861399]
-9.9475019929953e-18,-0.16883293068369912,-3.506071200755012e-19,-0.16883293068369912,-5.825680852978264e-18,-0.09509213500567613,-3.506071200755012e-19,-0.09509213500567613,-1.4253817496836163e-17,0.19377067018304026,-1.612587025107547e-17,-0.19377067018304006,0.6216086322880541,0.4766606932923561,0.6216086322880543,1000.0,122.14285714285735,[0.47574975]
-1.0974158864626715e-17,-0.1756007623284298,-1.3531847640754981e-20,-0.1756007623284298,-5.815913504305238e-18,-0.09667701824104746,-1.3531847640754981e-20,-0.09667701824104746,-1.453598534739025e-17,0.20045466716019747,-1.4373897642449948e-17,-0.20045466716019733,0.6791505142454011,0.27840466590992036,0.679150514245401,1000.0,135.00000000000023,[0.44384229]
-9.098827919405694e-18,-0.03282858436981565,1.4314422538776085e-18,-0.03282858436981565,-1.073323093069207e-18,-0.05874028019646494,1.4314422538776085e-18,-0.05874028019646494,-1.1960661080602356e-17,0.0672914293895241,-1.8683769955430704e-17,-0.06729142938952415,0.6803902472945225,0.2722833501575092,0.6803902472945225,1000.0,135.00000000000023,[0.11225575]
-8.725498147903361e-18,0.003177448069901212,1.974683195004459e-18,0.003177448069901212,-1.3891340334970526e-19,-0.04116876164897446,1.974683195004459e-18,-0.04116876164897446,-1.126500880289016e-17,0.041291198964755055,-1.0408340855860843e-17,-0.04129119896475507,0.4600412985283055,0.7594234703357415,0.4600412985283057,1000.0,135.00000000000023,[0.15745924]
-8.65387092430117e-18,0.01832640460077956,2.268738044551241e-18,0.01832640460077956,3.0712885271848896e-19,-0.0331575314599637,2.268738044551241e-18,-0.0331575314599637,-1.0954624167280663e-17,0.03788507619247924,-5.0637010016855105e-18,-0.03788507619247924,0.1957383797228334,0.9609229799557087,0.19573837972283345,1000.0,135.00000000000023,[0.14960651]
-8.695110840920613e-18,0.026103141442311354,2.4796686871619567e-18,0.026103141442311354,5.751883107448733e-19,-0.028850130442675596,2.4796686871619567e-18,-0.028850130442675596,-1.0774470847311514e-17,0.038906349349646124,-7.891454390727168e-18,-0.038906349349646124,0.03530257973675718,0.9987529502974496,0.035302579736757336,1000.0,135.00000000000023,[0.16300645]
-8.77976119608684e-18,0.03031550637075622,2.6377267721988955e-18,0.03031550637075622,7.640237184233789e-19,-0.02637581207346157,2.6377267721988955e-18,-0.02637581207346157,-1.0668115272871896e-17,0.040183496476164496,-8.405520799796608e-18,-0.04018349647616447,0.049021297830961076,0.9975940179842382,0.04902129783096086,1000.0,135.00000000000023,[0.1613106]
-8.896969380163154e-18,0.032400343461905234,2.775147941723555e-18,0.032400343461905234,9.072781656277625e-19,-0.02499484729767677,2.775147941723555e-18,-0.02499484729767677,-1.0592147005415026e-17,0.04092095609689007,-7.679406553897706e-18,-0.040920956096890074,0.09048537559452897,0.9917786011036102,0.09048537559452896,1000.0,135.00000000000023,[0.16128306]
-9.053246958931572e-18,0.03296250964702746,2.8883033543886653e-18,0.03296250964702746,1.0136337400673805e-18,-0.024384106299006624,2.8883033543886653e-18,-0.024384106299006624,-1.0542225001086225e-17,0.041001361955813526,-6.604894117809345e-18,-0.041001361955813505,0.10461119995557545,0.9889959523110847,0.10461119995557543,1000.0,135.00000000000023,[0.16889396]
-9.216036103482008e-18,0.03221948347395746,2.9924884069009443e-18,0.03221948347395746,1.103710400051955e-18,-0.02441678273682368,2.9924884069009443e-18,-0.02441678273682368,-1.0509667172176138e-17,0.04042615977984883,-4.928387617036942e-18,-0.04042615977984883,0.0965055891980045,0.9906428935328268,0.09650558919800466,1000.0,135.00000000000023,[0.16381934]
-9.404871511160514e-18,0.030133285803300654,3.0779696649924804e-18,0.030133285803300654,1.1633997530537815e-18,-0.025092842230861084,3.0779696649924804e-18,-0.025092842230861084,-1.0503155606394121e-17,0.039213080018359735,-9.899326860147613e-18,-0.039213080018359776,0.06426992689785896,0.9958608100498219,0.06426992689785892,1000.0,135.00000000000023,[0.1613106]
-9.596962701730028e-18,0.026398358163474838,3.150275176696966e-18,0.026398358163474838,1.1970428429275383e-18,-0.026539023512457304,3.150275176696966e-18,-0.026539023512457304,-1.0514008216030817e-17,0.0374325137109687,-9.30708990383231e-18,-0.037432513710968715,0.001878919354286655,0.9999964696558283,0.0018789193542868216,1000.0,135.00000000000023,[0.16634107]
-9.865022159756412e-18,0.02027596807456625,3.193685615243749e-18,0.02027596807456625,1.1655702749811207e-18,-0.02907839290865604,3.193685615243749e-18,-0.02907839290865604,-1.0559589176504939e-17,0.03544951079367678,-3.8436673803396594e-18,-0.03544951079367678,0.12415439080840175,0.9844650194323763,0.12415439080840185,1000.0,135.00000000000023,[0.17156535]
-1.0178662578256919e-17,0.01007300875630483,3.1907011475936576e-18,0.01007300875630483,1.0896020075242506e-18,-0.03345062610985264,3.1907011475936576e-18,-0.03345062610985264,-1.0655092141307861e-17,0.03493436549510737,-1.3445813129598155e-17,-0.034934365495107395,0.33459341571298495,0.8809622536312409,0.3345934157129852,1000.0,135.00000000000023,[0.14501966]
-1.063121640010713e-17,-0.00863673562397164,3.0986235377073174e-18,-0.00863673562397164,8.215425494978663e-19,-0.0415264438613151,3.0986235377073174e-18,-0.0415264438613151,-1.086129172440508e-17,0.04241507682423,-1.530432645746674e-17,-0.04241507682423003,0.5913366571651522,0.5483082306381021,0.5913366571651523,1000.0,135.00000000000023,[0.14594719]
-1.1463611559241692e-17,-0.05136781993684994,2.758394225596906e-18,-0.05136781993684994,4.992200432880033e-20,-0.059162380277518835,2.758394225596906e-18,-0.059162380277518835,-1.1371364377329779e-17,0.07835075089089055,-1.476972704186475e-17,-0.07835075089089055,0.7053550792913938,0.07034503703647071,0.7053550792913938,1000.0,135.00000000000023,[0.09773567]
-1.4152888227214892e-17,-0.21302458646014064,1.5190262050862545e-18,-0.21302458646014064,-4.513600347901751e-18,-0.09716387109856071,1.5190262050862545e-18,-0.09716387109856071,-1.3380725051563993e-17,0.23413733637199258,-1.5784178507923918e-17,-0.23413733637199258,0.6624070777543155,0.3499053110228201,0.6624070777543153,1000.0,135.00000000000023,[0.54535891]
-1.4549008478954286e-17,-0.21979796945429636,9.296277585983327e-19,-0.21979796945429636,-4.559181308375873e-18,-0.09563808362856777,9.296277585983327e-19,-0.09563808362856777,-1.2787087304436737e-17,0.23970354694158508,-1.3644522188132587e-17,-0.23970354694158508,0.6991043534588957,0.15002068507255467,0.6991043534588959,1000.0,147.8571428571427,[0.29378564]
-1.1970428429275383e-17,-0.05962161451851266,8.561013283097193e-19,-0.05962161451851266,-7.868141986604399e-20,-0.057343881745848105,8.561013283097193e-19,-0.057343881745848105,-1.0206879363312328e-17,0.08272277613496741,-8.360765797404067e-18,-0.08272277613496737,0.6923109670988411,0.2034970507632346,0.6923109670988412,1000.0,147.8571428571427,[0.12075766]
-1.1335550765528683e-17,-0.015649522105095303,-1.1520723417454804e-19,-0.015649522105095303,5.903819642362473e-19,-0.040036027565717044,-1.1520723417454804e-19,-0.040036027565717044,-9.089603201214503e-18,0.04298594008929804,-1.0901332232830591e-17,-0.042985940089298055,0.5683589634974533,0.5949253543296009,0.5683589634974533,1000.0,147.8571428571427,[0.16873701]
-1.109028178773936e-17,0.0031608189290578867,-1.316862436197682e-18,0.0031608189290578867,7.553416307140223e-19,-0.03202809947871627,-1.316862436197682e-18,-0.03202809947871627,-8.246355432443245e-18,0.03218369047391609,-5.85174858463766e-18,-0.03218369047391608,0.3155829283173476,0.8948825792858501,0.3155829283173474,1000.0,147.8571428571427,[0.15564706]
-1.0995864083900107e-17,0.012935730313076434,-2.6130709996805274e-18,0.012935730313076434,7.564268916776919e-19,-0.02760330519327375,-2.6130709996805274e-18,-0.02760330519327375,-7.492099062692892e-18,0.030484021656035778,-1.4744302734453204e-17,-0.030484021656035778,0.08658706800116361,0.9924743620416215,0.08658706800116384,1000.0,147.8571428571427,[0.15828801]
-1.0990437779081759e-17,0.018325303150540432,-3.952045628012977e-18,0.018325303150540432,6.847996680755001e-19,-0.02494205241158583,-3.952045628012977e-18,-0.02494205241158583,-6.792105741126019e-18,0.030950326558236867,-1.2306341044607532e-17,-0.030950326558236863,0.05132480300368581,0.9973622858286078,0.05132480300368598,1000.0,147.8571428571427,[0.15869841]
-1.1015398781246159e-17,0.02109996323755315,-5.311877615490951e-18,0.02109996323755315,5.485994171349688e-19,-0.023322321889402923,-5.311877615490951e-18,-0.023322321889402923,-6.108391334014188e-18,0.03145058261684542,-1.3676298209226448e-17,-0.031450582616845385,0.12270438656711405,0.9848285470244942,0.12270438656711383,1000.0,147.8571428571427,[0.16668071]
-1.1085940743884681e-17,0.022011332578530583,-6.690294696971767e-18,0.022011332578530583,4.015465565577418e-19,-0.022423990381246324,-6.690294696971767e-18,-0.022423990381246324,-5.4490952985849226e-18,0.03142187305844305,-1.4968236068974717e-17,-0.031421873058443066,0.15093750041523893,0.9769522720874337,0.1509375004152392,1000.0,147.8571428571427,[0.16198546]
-1.1162994272305221e-17,0.021336205243630807,-8.08241319811891e-18,0.021336205243630807,2.1325377936107098e-19,-0.0221137518211757,-8.08241319811891e-18,-0.0221137518211757,-4.800651872792353e-18,0.030728678360887753,-1.7316771138303526e-17,-0.030728678360887742,0.14498627406465167,0.9787532685338525,0.14498627406465167,1000.0,147.8571428571427,[0.16817155]
-1.1279117195417865e-17,0.019040313255403684,-9.489352294301167e-18,0.019040313255403684,2.0619958309721874e-20,-0.022375147544149824,-9.489352294301167e-18,-0.022375147544149824,-4.170657883382166e-18,0.029379937993235707,-1.7154416349571335e-17,-0.029379937993235714,0.1015077701682226,0.9896425340449704,0.10150777016822295,1000.0,147.8571428571427,[0.16281948]
-1.14169453378039e-17,0.014767405427799014,-1.0911586787190141e-17,0.014767405427799014,-2.2464901947960147e-19,-0.02330330730590346,-1.0911586787190141e-17,-0.02330330730590346,-3.5509738731268406e-18,0.027588410509892764,-2.085673277957708e-17,-0.027588410509892757,0.002712036585488451,0.9999926448305099,0.002712036585488562,1000.0,147.8571428571427,[0.16178975]
-1.1603610223555067e-17,0.007645142205837802,-1.235583172899854e-17,0.007645142205837802,-5.10072652924699e-19,-0.025160309581181862,-1.235583172899854e-17,-0.025160309581181862,-2.9546229735904106e-18,0.026296185608722683,-1.9261274454338686e-17,-0.026296185608722683,0.18588486436242274,0.9648282927039024,0.18588486436242344,1000.0,147.8571428571427,[0.16713204]
-1.1881437030254478e-17,-0.004327887866668825,-1.3839247808714388e-17,-0.004327887866668825,-8.720071843085014e-19,-0.028557031099502504,-1.3839247808714388e-17,-0.028557031099502504,-2.3864888591093895e-18,0.028883120305888216,-7.55744253770538e-18,-0.028883120305888233,0.46166988757426003,0.7574442750554917,0.46166988757426075,1000.0,147.8571428571427,[0.15362537]
-1.2337246634995698e-17,-0.026359013257439716,-1.5399446101609855e-17,-0.026359013257439716,-1.3945603383154004e-18,-0.035044821950981096,-1.5399446101609855e-17,-0.035044821950981096,-1.895950903530743e-18,0.04385130699855875,4.51272901063974e-18,-0.04385130699855874,0.6605451759847637,0.35687552587213706,0.660545175984764,1000.0,147.8571428571427,[0.10545549]
-1.327491210760621e-17,-0.07640338764347368,-1.715661925941135e-17,-0.07640338764347368,-2.438581385365529e-18,-0.049459924637909033,-1.715661925941135e-17,-0.049459924637909033,-1.5953336165942715e-18,0.0910151733975526,1.6991511925509043e-17,-0.09101517339755254,0.7070422216997828,0.013512715036963783,0.7070422216997829,1000.0,147.8571428571427,[0.12024157]
-1.646449407983108e-17,-0.25360825840569223,-1.9653126448712744e-17,-0.25360825840569223,-7.278302652849987e-18,-0.07958616086967908,-1.9653126448712744e-17,-0.07958616086967908,-2.4353256024745203e-18,0.26580275719702895,7.925877359103872e-18,-0.26580275719702906,0.6838982842793222,0.2540989443496331,0.6838982842793225,1000.0,147.8571428571427,[0.49033979]
-1.6535036042469604e-17,-0.2590484862430222,-1.9345624537537993e-17,-0.2590484862430222,-7.355356181270526e-18,-0.07526009020991256,-1.9345624537537993e-17,-0.07526009020991256,-2.25842806539638e-18,0.26975952143196985,8.285057930308635e-18,-0.26975952143197,0.7060815019836174,0.053831450966124086,0.7060815019836173,1000.0,160.7142857142859,[0.19798674]
-1.3000341083797808e-17,-0.08304903446613052,-1.662440049994677e-17,-0.08304903446613052,-2.7033850605009046e-18,-0.04420010924367179,-1.662440049994677e-17,-0.04420010924367179,-1.5568068523840017e-18,0.09407864679569473,1.1732544827679191e-17,-0.09407864679569466,0.698901601824537,0.1518983276214482,0.6989016018245373,1000.0,160.7142857142859,[0.13306397]
-1.174686467075945e-17,-0.0320275492876532,-1.461839735181891e-17,-0.0320275492876532,-1.8406025943835946e-18,-0.030591565727083558,-1.461839735181891e-17,-0.030591565727083558,-1.9605239308690824e-18,0.0442900418492411,9.519383587820792e-18,-0.04429004184924116,0.6439474958571005,0.4131140824986961,0.6439474958571008,1000.0,160.7142857142859,[0.14379687]
-1.0998034605827446e-17,-0.009933949684342845,-1.2792242294014168e-17,-0.009933949684342845,-1.4992880213095141e-18,-0.024181146938142786,-1.2792242294014168e-17,-0.024181146938142786,-2.534626980650286e-18,0.026142135023274345,3.679092302113449e-18,-0.026142135023274365,0.4696443642429544,0.747574974346829,0.46964436424295514,1000.0,160.7142857142859,[0.14875432]
-1.0443466253392294e-17,0.001677405519016485,-1.1037137914924665e-17,0.001677405519016485,-1.3242896909177956e-18,-0.020523969542208982,-1.1037137914924665e-17,-0.020523969542208982,-3.1787293625881777e-18,0.02059240187653565,-1.3877787807814457e-17,-0.020592401876535653,0.17839958327256514,0.9676503383848681,0.17839958327256591,1000.0,160.7142857142859,[0.17163791]
-9.982230343832726e-18,0.008193293866109994,-9.314625279150366e-18,0.008193293866109994,-1.2184767469600123e-18,-0.018211946704012175,-9.314625279150366e-18,-0.018211946704012175,-3.840195919944782e-18,0.019970104334384828,-1.4359201889586583e-17,-0.019970104334384824,0.060848710775303884,0.9962905544036673,0.060848710775303606,1000.0,160.7142857142859,[0.1569312]
-9.543784914510219e-18,0.01167705625332879,-7.605407090181019e-18,0.01167705625332879,-1.156888187271764e-18,-0.016683729168799157,-7.605407090181019e-18,-0.016683729168799157,-4.524452957538447e-18,0.02036419558247378,-1.5187654036329278e-17,-0.020364195582473786,0.19137576937639597,0.9626788819700914,0.19137576937639586,1000.0,160.7142857142859,[0.16240235]
-9.172625664935225e-18,0.013011299148187615,-5.911653869943963e-18,0.013011299148187615,-1.1259582498071813e-18,-0.015685556737661463,-5.911653869943963e-18,-0.015685556737661463,-5.2130510389867906e-18,0.020379661324320977,-1.4355490267867263e-17,-0.02037966132432099,0.24636514169689805,0.9373411512962261,0.246365141696898,1000.0,160.7142857142859,[0.16293971]
-8.818830590778945e-18,0.012529142074134208,-4.22495484597076e-18,0.012529142074134208,-1.1308419241436943e-18,-0.015103975544354263,-4.22495484597076e-18,-0.015103975544354263,-5.917385404408343e-18,0.019624206438944004,-1.1057086333623966e-17,-0.019624206438944018,0.24637214322955406,0.9373374707547718,0.24637214322955417,1000.0,160.7142857142859,[0.16293971]
-8.504104911314769e-18,0.010206856269848547,-2.5541277635912238e-18,0.010206856269848547,-1.1639423835356163e-18,-0.01490930862104476,-2.5541277635912238e-18,-0.01490930862104476,-6.6219910850708136e-18,0.018068408852771334,-1.146777685191246e-17,-0.01806840885277135,0.18431983740809643,0.9654286069283974,0.1843198374080969,1000.0,160.7142857142859,[0.16536483]
-8.218681277869671e-18,0.0056563071446442586,-8.926610570233379e-19,0.0056563071446442586,-1.2209185841282688e-18,-0.015146178683075285,-8.926610570233379e-19,-0.015146178683075285,-7.342875680188326e-18,0.016167886046549118,-6.0819470594499785e-18,-0.016167886046549125,0.014713782493939289,0.9997834811645181,0.014713782493939455,1000.0,160.7142857142859,[0.16456449]
-7.997288041281078e-18,-0.00208867969034676,7.586991568203751e-19,-0.00208867969034676,-1.3180494403766956e-18,-0.015963709810224675,7.586991568203751e-19,-0.015963709810224675,-8.073256308737948e-18,0.01609977061184197,-8.956219214155705e-18,-0.01609977061184198,0.31815642686693707,0.8930582153961335,0.3181564268669373,1000.0,160.7142857142859,[0.14595507]
-7.877909335277425e-18,-0.015251321110848174,2.384657481233197e-18,-0.015251321110848174,-1.5009159127550185e-18,-0.017722927652686692,2.384657481233197e-18,-0.017722927652686692,-8.82344294987454e-18,0.023381722781022143,-1.2278640649673208e-17,-0.023381722781022143,0.6123668037339237,0.5000137951790896,0.6123668037339236,1000.0,160.7142857142859,[0.14193531]
-7.962559690443652e-18,-0.03960404640388116,3.964865273146324e-18,-0.03960404640388116,-1.8617651831751513e-18,-0.021348486038948445,3.964865273146324e-18,-0.021348486038948445,-9.617311344798832e-18,0.0449915364009271,-1.1556152399397984e-17,-0.044991536400927144,0.6983216174445879,0.15714272881412444,0.6983216174445878,1000.0,160.7142857142859,[0.06781045]
-8.578445287326134e-18,-0.09485813393293006,5.423659494748917e-18,-0.09485813393293006,-2.7055555824282438e-18,-0.02969839708221424,5.423659494748917e-18,-0.02969839708221424,-1.053652738102696e-17,0.0993984927576398,-1.304186148905282e-17,-0.09939849275763979,0.7067174919132438,0.03317790300347701,0.7067174919132441,1000.0,160.7142857142859,[0.11983451]
-1.173438416967725e-17,-0.2826724336952105,6.471275468741202e-18,-0.2826724336952105,-7.365123529943552e-18,-0.04599312967888575,6.471275468741202e-18,-0.04599312967888575,-1.2322866927227076e-17,0.2863897217932795,-1.4587012578309947e-17,-0.2863897217932796,0.6962692994930196,0.17440792747750886,0.6962692994930197,1000.0,160.7142857142859,[0.33640263]
-1.1242760953134934e-17,-0.285713535566053,7.417504328643167e-18,-0.285713535566053,-7.321441776155852e-18,-0.03973127211033364,7.417504328643167e-18,-0.03973127211033364,-1.193108771934236e-17,0.28846281976913335,-1.400668576186803e-17,-0.28846281976913357,0.7068682707121594,0.025971055442589503,0.7068682707121595,1000.0,173.57142857142813,[0.21546731]
-6.805128872690054e-18,-0.09861271336704674,7.705403713661635e-18,-0.09861271336704674,-2.5693553314877124e-18,-0.022061968869392393,7.705403713661635e-18,-0.022061968869392393,-9.64769865178158e-18,0.1010504710924465,-1.2749447581193815e-17,-0.10105047109244644,0.7029946159195839,0.10769001799681191,0.7029946159195839,1000.0,173.57142857142813,[0.12949667]
-4.92274373120518e-18,-0.042860623814802164,7.608289814615766e-18,-0.042860623814802164,-1.6235504016496804e-18,-0.014852449582728987,7.608289814615766e-18,-0.014852449582728987,-8.207557352992058e-18,0.04536108830706656,-1.2821633668148942e-17,-0.04536108830706653,0.6898501675147036,0.21957571076936125,0.6898501675147037,1000.0,173.57142857142813,[0.09180262]
-3.57810539721858e-18,-0.018517252035014795,7.418267402758247e-18,-0.018517252035014795,-1.1768298574791925e-18,-0.011313265784058406,7.418267402758247e-18,-0.011313265784058406,-6.8924923802654545e-18,0.021699737455301293,-1.3510896299766347e-17,-0.02169973745530128,0.640884480440612,0.4225330347567313,0.6408844804406121,1000.0,173.57142857142813,[0.14379687]
-2.459201343675251e-18,-0.005599111860053026,7.1970946098029e-18,-0.005599111860053026,-9.030727793935429e-19,-0.009151774075191516,7.1970946098029e-18,-0.009151774075191516,-5.603744985907837e-18,0.010728700869384614,-9.198024449822945e-18,-0.010728700869384607,0.43423982415570517,0.7892221171726282,0.43423982415570433,1000.0,173.57142857142813,[0.14621959]
-1.4433970816805312e-18,0.0017658298060296276,6.959303758341362e-18,0.0017658298060296276,-7.031134468374242e-19,-0.007650252182139683,6.959303758341362e-18,-0.007650252182139683,-4.3364314955826936e-18,0.007851401999273477,2.2331861428291463e-19,-0.007851401999273488,0.0808902934421478,0.9934352122074626,0.08089029344214899,1000.0,173.57142857142813,[0.15553685]
-4.87282172687638e-19,0.005835176653750106,6.711219884927521e-18,0.005835176653750106,-5.580954505670776e-19,-0.0065191755648232935,6.711219884927521e-18,-0.0065191755648232935,-3.074272994834981e-18,0.008749224915697353,4.703298546992469e-18,-0.008749224915697367,0.4096386138925224,0.815102700287777,0.4096386138925229,1000.0,173.57142857142813,[0.13381721]
4.297633416131507e-19,0.007580819150291501,6.457234905023727e-18,0.007580819150291501,-4.52418164229753e-19,-0.005621382491421975,6.457234905023727e-18,-0.005621382491421975,-1.8164555379419467e-18,0.009437624706688212,5.500267936093206e-18,-0.009437624706688215,0.5172587201193741,0.6818261016717778,0.517258720119374,1000.0,173.57142857142813,[0.13471374]
1.3099099831491738e-18,0.007378072538283892,6.199790655798235e-18,0.007378072538283892,-3.486400845788501e-19,-0.0048857200180511635,6.199790655798235e-18,-0.0048857200180511635,-5.70847266890195e-19,0.008849079866006677,5.288357474237378e-18,-0.00884907986600669,0.5421438952975729,0.6419968797300724,0.5421438952975728,1000.0,173.57142857142813,[0.14113307]
2.1688940358936403e-18,0.005218496873202874,5.9375305610464595e-18,0.005218496873202874,-2.8488100296326273e-19,-0.004275151482252953,5.9375305610464595e-18,-0.004275151482252953,6.769315260888957e-19,0.006746082552996055,6.5510686734347444e-18,-0.006746082552996058,0.4933774531553109,0.7163500383443546,0.4933774531553103,1000.0,173.57142857142813,[0.14875432]
2.9681887356362803e-18,0.0007071996686641513,5.670708978806761e-18,0.0007071996686641513,-2.5205185881225817e-19,-0.003774938369421145,5.670708978806761e-18,-0.003774938369421145,1.912365475606245e-18,0.003840610767089872,4.964604272921035e-18,-0.0038406107670898738,0.051568967158314105,0.9973370960976277,0.051568967158315895,1000.0,173.57142857142813,[0.1569312]
3.6985693641859024e-18,-0.0071574775121636125,5.408024953991052e-18,-0.0071574775121636125,-2.54358038360056e-19,-0.0033917017951588043,5.408024953991052e-18,-0.0033917017951588043,3.1403382559983666e-18,0.007920424572231681,-6.831152518699298e-19,-0.007920424572231669,0.6688784897625321,0.3243503227468546,0.668878489762532,1000.0,173.57142857142813,[0.10282587]
4.341043854678289e-18,-0.020690141081681785,5.134980078412811e-18,-0.020690141081681785,-3.4687653551288705e-19,-0.0031651017000420877,5.134980078412811e-18,-0.0031651017000420877,4.355966192928746e-18,0.020930833876162357,2.818659736646746e-18,-0.02093083387616236,0.7065524320552772,0.03958941163424852,0.7065524320552771,1000.0,173.57142857142813,[0.06153158]
4.773520348700614e-18,-0.045900407020016944,4.860646455440212e-18,-0.045900407020016944,-6.034050958002822e-19,-0.0032099515415533316,4.860646455440212e-18,-0.0032099515415533316,5.536865779021699e-18,0.04601251083675331,4.8591231381386304e-18,-0.04601251083675332,0.7064718582399654,0.042367759321685745,0.7064718582399654,1000.0,173.57142857142813,[0.06101651]
4.618328030895865e-18,-0.10322341320871593,4.5673885944136244e-18,-0.10322341320871593,-1.3677001294645785e-18,-0.0038399685482472835,4.5673885944136244e-18,-0.0038399685482472835,6.629452254196042e-18,0.10329481300098682,6.2885963363325035e-18,-0.10329481300098685,0.7051181103115476,0.07494598735985669,0.7051181103115477,1000.0,173.57142857142813,[0.12720221]
1.8465715296837773e-18,-0.29460089512879384,4.256783515170881e-18,-0.29460089512879384,-5.9276275547529746e-18,-0.003074423993430491,4.256783515170881e-18,-0.003074423993430491,6.946348455587556e-18,0.2946169368749496,6.85702989872943e-18,-0.29461693687494955,0.7034485562250089,0.1015886681175654,0.7034485562250088,1000.0,173.57142857142813,[0.21466367]
1.6151396291812412e-18,-0.294645294803419,4.329919929800676e-18,-0.294645294803419,-5.903887471172703e-18,0.00388704519829655,4.329919929800676e-18,0.00388704519829655,6.893713298849583e-18,0.29467093319526316,7.006853061114754e-18,-0.29467093319526316,0.7036438594173952,0.09884653867681187,0.7036438594173952,1000.0,173.57142857142813,[0.21466367]
3.9422104505297214e-18,-0.10335633838023832,4.166554240363291e-18,-0.10335633838023832,-1.2675169767558311e-18,0.0046725893114231325,4.166554240363291e-18,0.0046725893114231325,6.480907159793769e-18,0.10346190494207785,6.853202300896556e-18,-0.10346190494207785,0.7055192339727661,0.06697179248731022,0.7055192339727661,1000.0,173.57142857142813,[0.12720221]
3.638337380702241e-18,-0.0461214312845557,4.017958274353346e-18,-0.0461214312845557,-4.43464761279479e-19,0.004061932282955729,4.017958274353346e-18,0.004061932282955729,5.289697594545954e-18,0.04629995375383554,5.9798314344605e-18,-0.04629995375383555,0.7068970584725699,0.024353592048336266,0.7068970584725696,1000.0,173.57142857142813,[0.06153158]
2.7633457287436485e-18,-0.020998766200984696,3.884979891898709e-18,-0.020998766200984696,-1.2921388348690845e-19,0.004035913456221651,3.884979891898709e-18,0.004035913456221651,4.007597423590813e-18,0.021383095645619896,5.3948181844415565e-18,-0.021383095645619892,0.7049743148970297,0.07760432121298232,0.7049743148970297,1000.0,173.57142857142813,[0.0662493]
1.6533950781505936e-18,-0.007553135419878166,3.762777811669259e-18,-0.007553135419878166,3.371091868398609e-20,0.0042808322638652795,3.762777811669259e-18,0.0042808322638652795,2.6934820542074198e-18,0.008681899535376354,5.749508115283771e-18,-0.008681899535376352,0.6503424796618894,0.39256759710201505,0.6503424796618893,1000.0,173.57142857142813,[0.14146107]
4.718172039553466e-19,0.00022514478621082437,3.640100929768204e-18,0.00022514478621082437,1.1456286047736923e-19,0.004681872020669084,3.640100929768204e-18,0.004681872020669084,1.3655296075372394e-18,0.0046872823461662685,0.0,-0.004687282346166264,0.04532847529237514,0.997943214143639,0.0453284752923761,1000.0,173.57142857142813,[0.1569312]
-8.153022989567663e-19,0.00465074643670069,3.520679830758158e-18,0.00465074643670069,1.5207219253419882e-19,0.005199366058888202,3.520679830758158e-18,0.005199366058888202,2.8081127434950184e-20,0.006975876277056728,-3.795390595140529e-18,-0.006975876277056724,0.40944795813130497,0.8152942653816536,0.40944795813130486,1000.0,173.57142857142813,[0.13381721]
-2.0994373342187876e-18,0.006725391392984145,3.411000644617302e-18,0.006725391392984145,1.5003732822731837e-19,0.005826686862305624,3.411000644617302e-18,0.005826686862305624,-1.3129622796094944e-18,0.008898380143609854,-5.073673395823295e-18,-0.008898380143609856,0.4792292609544036,0.735308527687659,0.4792292609544037,1000.0,173.57142857142813,[0.14875432]
-3.4500446035055708e-18,0.00684403335722264,3.294258783611315e-18,0.00684403335722264,1.2867125300507367e-19,0.006578568093951483,3.294258783611315e-18,0.006578568093951483,-2.6651974403417815e-18,0.009493068564038332,-6.109166447930751e-18,-0.009493068564038322,0.4517192813732241,0.7693499734654681,0.4517192813732241,1000.0,173.57142857142813,[0.14621959]
-4.811504482429049e-18,0.005015171279599631,3.1834943365067894e-18,0.005015171279599631,7.257682694540265e-20,0.007492043632102634,3.1834943365067894e-18,0.007492043632102634,-4.017703916314986e-18,0.009015689699021955,-7.376664010572416e-18,-0.009015689699021957,0.32507907656228063,0.8880580994297784,0.3250790765622805,1000.0,173.57142857142813,[0.1364222]
-6.217731376103898e-18,0.0008635467432943643,3.0827007245059775e-18,0.0008635467432943643,-1.7364175418713157e-20,0.008638266051658666,3.0827007245059775e-18,0.008638266051658666,-5.379028137618006e-18,0.00868132209730136,-6.2934622839934855e-18,-0.008681322097301363,0.008883263636496006,0.9999210845133376,0.008883263636496502,1000.0,173.57142857142813,[0.16188886]
-7.691787080008094e-18,-0.006582675974132691,2.9851459381936173e-18,-0.006582675974132691,-1.349115035461737e-19,0.010154399606731238,2.9851459381936173e-18,0.010154399606731238,-6.743608141812035e-18,0.012101382332345638,-3.0809722417979764e-18,-0.012101382332345638,0.4486528503673278,0.7729302942145196,0.4486528503673279,1000.0,173.57142857142813,[0.14621959]
-9.284950174675026e-18,-0.01958104762821603,2.9076091295001936e-18,-0.01958104762821603,-3.4294246451958485e-19,0.01232997537872254,2.9076091295001936e-18,0.01232997537872254,-8.132945661739775e-18,0.02313970006414014,-4.228860039913265e-18,-0.02313970006414019,0.6367846588978984,0.43475348921495,0.6367846588978988,1000.0,173.57142857142813,[0.14379687]
-1.107047577515239e-17,-0.044003549329511636,2.860434191985682e-18,-0.044003549329511636,-7.2502215254150365e-19,0.015882729835631063,2.860434191985682e-18,0.015882729835631063,-9.563590927097189e-18,0.0467821917039637,-7.845851199513479e-18,-0.0467821917039637,0.6878046992833627,0.23205471614997608,0.6878046992833625,1000.0,173.57142857142813,[0.09235905]
-1.3411790646649035e-17,-0.09983361254679256,2.9093302855597633e-18,-0.09983361254679256,-1.6032695873911052e-18,0.02310534407439261,2.9093302855597633e-18,0.02310534407439261,-1.1090349616549589e-17,0.10247247005385968,-9.91647934769959e-18,-0.10247247005385973,0.7024171445236493,0.11497960757667428,0.7024171445236491,1000.0,173.57142857142813,[0.12869517]
-1.8300891287980457e-17,-0.2870111782382105,3.342968347957266e-18,-0.2870111782382105,-6.2792860213870315e-18,0.04078739982047949,3.342968347957266e-18,0.04078739982047949,-1.347887333996586e-17,0.289894857522174,-1.2617369631854118e-17,-0.2898948575221739,0.7068101630981369,0.028961814210619108,0.7068101630981367,1000.0,173.57142857142813,[0.21546731]
-1.8651430579245728e-17,-0.28404462490212024,4.006266283190062e-18,-0.28404462490212024,-6.233196344836189e-18,0.04707832103561521,4.006266283190062e-18,0.04707832103561521,-1.4469038311693885e-17,0.2879196367865843,-1.3350331759660197e-17,-0.28791963678658433,0.6966306573973732,0.1714976802997845,0.6966306573973732,1000.0,160.7142857142859,[0.33490443]
-1.473906480521692e-17,-0.0963012248571073,4.336490845791644e-18,-0.0963012248571073,-1.4374959751905779e-18,0.030833873566926597,4.336490845791644e-18,0.030833873566926597,-1.3788817088308867e-17,0.10111702956535246,-1.1264275884879527e-17,-0.10111702956535251,0.7068541544393445,0.026728425013059824,0.7068541544393444,1000.0,160.7142857142859,[0.11983451]
-1.3335008433469413e-17,-0.041116499848586945,5.0823830753805905e-18,-0.041116499848586945,-4.391237174248007e-19,0.022533106368407493,5.0823830753805905e-18,0.022533106368407493,-1.397531240203446e-17,0.046886111402086,-9.416723854141357e-18,-0.04688611140208597,0.6975343438432733,0.16398682361173922,0.6975343438432734,1000.0,160.7142857142859,[0.06973711]
-1.2493117240902742e-17,-0.01683150913707405,5.953974808226437e-18,-0.01683150913707405,4.112121620154239e-20,0.018955909455737763,5.953974808226437e-18,0.018955909455737763,-1.4288884991724736e-17,0.025350073039846165,-8.643331272696682e-18,-0.02535007303984617,0.6177814007052127,0.4865103101532486,0.6177814007052131,1000.0,160.7142857142859,[0.14193531]
-1.1862987593872095e-17,-0.0037349505922914,6.8651616090436665e-18,-0.0037349505922914,3.6444419736228825e-19,0.01724435562084056,6.8651616090436665e-18,0.01724435562084056,-1.464349401160377e-17,0.017644196119542342,-9.337666538579028e-18,-0.017644196119542356,0.3695320124768992,0.8525797226708743,0.36953201247689965,1000.0,160.7142857142859,[0.12764699]
-1.1318729220591804e-17,0.003945610773706815,7.80668908453661e-18,0.003945610773706815,6.00980215834583e-19,0.01647381465841205,7.80668908453661e-18,0.01647381465841205,-1.5024318866636444e-17,0.016939728857844887,-1.5797268507104496e-17,-0.0169397288578449,0.07166186171301181,0.9948513231391163,0.07166186171301216,1000.0,160.7142857142859,[0.1569312]
-1.0837551640824808e-17,0.0084333905438173,8.75543608901834e-18,0.0084333905438173,7.94207538975439e-19,0.01628327014261368,8.75543608901834e-18,0.01628327014261368,-1.541348666532733e-17,0.01833758333592191,-1.9132777438173783e-17,-0.018337583335921916,0.09956764626333099,0.9900366496424062,0.09956764626333012,1000.0,160.7142857142859,[0.15943994]
-1.041470683785505e-17,0.010694557679934175,9.716290536126009e-18,0.010694557679934175,9.444992252411173e-19,0.01652360360415502,9.716290536126009e-18,0.01652360360415502,-1.581167569577872e-17,0.019682556745420136,-2.2452807743848002e-17,-0.01968255674542014,0.16658731808495633,0.9718525252868994,0.16658731808495547,1000.0,160.7142857142859,[0.16285101]
-9.995524790637678e-18,0.011117238384886643,1.0694153057398687e-17,0.011117238384886643,1.0905855252725761e-18,0.017150197657512873,1.0694153057398687e-17,0.017150197657512873,-1.621162827529607e-17,0.0204382550379957,-2.0009734756648924e-17,-0.02043825503799571,0.167070827394203,0.9716865118275714,0.16707082739420273,1000.0,160.7142857142859,[0.16285101]
-9.62178804627397e-18,0.009725150831959078,1.1672371679925069e-17,0.009725150831959078,1.2018417312512646e-18,0.018192735661129496,1.1672371679925069e-17,0.018192735661129496,-1.6630606836082755e-17,0.020628964819885836,-1.9890620356565798e-17,-0.02062896481988583,0.10868423843917321,0.9881171350754899,0.10868423843917244,1000.0,160.7142857142859,[0.16451456]
-9.283729256090898e-18,0.006185163424339124,1.2666797148795627e-17,0.006185163424339124,1.2806248943326527e-18,0.019764679810981248,1.2666797148795627e-17,0.019764679810981248,-1.7048466221500655e-17,0.020709872394980906,-1.5648348700959763e-17,-0.020709872394980913,0.023551726308954544,0.9994451622654121,0.023551726308954996,1000.0,160.7142857142859,[0.15862705]
-8.992201029725159e-18,-0.0003853428902248555,1.3675025780547857e-17,-0.0003853428902248555,1.3235605312078301e-18,0.022119801826830748,1.3675025780547857e-17,0.022119801826830748,-1.7493626703035868e-17,0.022123158047650235,-6.938893903907228e-18,-0.022123158047650256,0.24513241787706697,0.9379873109011045,0.24513241787706783,1000.0,160.7142857142859,[0.16293971]
-8.800381154396562e-18,-0.012049720238767514,1.472677083336285e-17,-0.012049720238767514,1.2813370968400608e-18,0.02581946873736171,1.472677083336285e-17,0.02581946873736171,-1.7966970055221375e-17,0.028492818809520433,1.9617259036560353e-18,-0.028492818809520454,0.4938874342878867,0.7156468434256217,0.49388743428788706,1000.0,160.7142857142859,[0.14875432]
-8.785323158525647e-18,-0.03419475085812766,1.5833997733295134e-17,-0.03419475085812766,1.0666419552616162e-18,0.03227180133310012,1.5833997733295134e-17,0.03227180133310012,-1.849617043263075e-17,0.047018614904445075,5.04310141341759e-19,-0.047018614904445095,0.6456871489574705,0.40764716525734174,0.6456871489574705,1000.0,160.7142857142859,[0.14146107]
-9.279116896995302e-18,-0.08526605284209125,1.7136410513263645e-17,-0.08526605284209125,3.320728976803318e-19,0.0459217763572214,1.7136410513263645e-17,0.0459217763572214,-1.9192585784458026e-17,0.0968458017214631,-3.1721575187532686e-18,-0.09684580172146323,0.698362703111542,0.15677713419207476,0.6983627031115422,1000.0,160.7142857142859,[0.12643621]
-1.2053857865857481e-17,-0.2613135613325933,1.9139874320308544e-17,-0.2613135613325933,-4.17706770594884e-18,0.07702305591513058,1.9139874320308544e-17,0.07702305591513058,-2.1003055429897233e-17,0.27242857500421713,-1.0255991142641108e-17,-0.27242857500421713,0.7062243976793787,0.04994196877174296,0.7062243976793787,1000.0,160.7142857142859,[0.20718982]
-1.1450520598867428e-17,-0.255917801793882,1.9694264622116843e-17,-0.255917801793882,-4.231652940980908e-18,0.08140229501443996,1.9694264622116843e-17,0.08140229501443996,-2.1755734779809753e-17,0.26855214560422064,-1.0796989579760545e-17,-0.2685521456042208,0.6845898223033041,0.25034686017096575,0.684589822303304,1000.0,147.85714285714295,[0.49033979]
-8.000543824172087e-18,-0.07874968191350316,1.8413222156671216e-17,-0.07874968191350316,1.6858850782504512e-19,0.051350201418199654,1.8413222156671216e-17,0.051350201418199654,-2.094869063849841e-17,0.09401252888401425,-5.110322440983958e-18,-0.09401252888401423,0.7070066468768972,0.016828622753302633,0.7070066468768973,1000.0,147.85714285714295,[0.12682332]
-6.789596075147533e-18,-0.02874120731401022,1.7861199504269985e-17,-0.02874120731401022,7.732738724184064e-19,0.0370080201523312,1.7861199504269985e-17,0.0370080201523312,-2.1281170509040118e-17,0.0468577694034006,6.49936832891375e-18,-0.046857769403400654,0.6643638711404847,0.34240515978363867,0.6643638711404848,1000.0,147.85714285714295,[0.10681608]
-6.0736629831767614e-18,-0.006744896448778198,1.751004763406233e-17,-0.006744896448778198,8.68870101835394e-19,0.03059247587717504,1.751004763406233e-17,0.03059247587717504,-2.1815949806090857e-17,0.03132719598687818,-2.753020958349472e-18,-0.03132719598687821,0.4962886051805763,0.7123168120547452,0.49628860518057694,1000.0,147.85714285714295,[0.15478265]
-5.5291332946555535e-18,0.005194442146323547,1.723405644453975e-17,0.005194442146323547,7.953012785403872e-19,0.02726745961776374,1.723405644453975e-17,0.02726745961776374,-2.2413826853857448e-17,0.027757820217334767,-1.1990740736940158e-17,-0.027757820217334774,0.2575156843820403,0.9313277321085734,0.25751568438204114,1000.0,147.85714285714295,[0.15426598]
-5.059690099058234e-18,0.012284131282597753,1.6997641246135677e-17,0.012284131282597753,6.501179495451065e-19,0.02548165865477769,1.6997641246135677e-17,0.02548165865477769,-2.304856885998369e-17,0.028288068318050696,-1.9870342761871653e-17,-0.02828806831805069,0.0788841236573791,0.9937578125829325,0.07888412365738029,1000.0,147.85714285714295,[0.15730405]
-4.644476037239279e-18,0.016525567345112766,1.677806666952136e-17,0.016525567345112766,4.571788988477253e-19,0.024624207317244302,1.677806666952136e-17,0.024624207317244302,-2.3707559665766922e-17,0.029655454170868567,-2.551525739918023e-17,-0.029655454170868557,0.021262465298137773,0.9995478053294355,0.02126246529813703,1000.0,147.85714285714295,[0.16039426]
-4.2622267771917865e-18,0.018791073530376682,1.6582032929357263e-17,0.018791073530376682,2.2614125330464713e-19,0.024433028024006157,1.6582032929357263e-17,0.024433028024006157,-2.4375283430867183e-17,0.03082332400708746,-2.435169647901473e-17,-0.03082332400708745,0.066796308718328,0.9955282548894391,0.06679630871832738,1000.0,147.85714285714295,[0.15869841]
-3.8838098449222526e-18,0.019436886160085442,1.6389274048937054e-17,0.019436886160085442,-3.411789154536218e-20,0.02481298683429865,1.6389274048937054e-17,0.02481298683429865,-2.505604728473404e-17,0.031519467940293644,-2.899517292512516e-17,-0.03151946794029365,0.07305346125912195,0.9946488745261435,0.07305346125912177,1000.0,147.85714285714295,[0.15833595]
-3.561216023471472e-18,0.018497261200380217,1.6220206500139764e-17,0.018497261200380217,-3.0950286107651615e-19,0.025780535299452467,1.6220206500139764e-17,0.025780535299452467,-2.5751877613073088e-17,0.031729870347062664,-2.5565506964005435e-17,-0.03172987034706266,0.04336717089152523,0.9981175166170219,0.04336717089152506,1000.0,147.85714285714295,[0.15869841]
-3.256766408757043e-18,0.015695396535908037,1.6066589082522528e-17,0.015695396535908037,-6.196034635431784e-19,0.027468970909828642,1.6066589082522528e-17,0.027468970909828642,-2.647309287364047e-17,0.03163684300407368,-2.204920351398546e-17,-0.0316368430040737,0.02960805737449269,0.9991229783550258,0.02960805737449342,1000.0,147.85714285714295,[0.16039426]
-3.0171611366218697e-18,0.010279667673892464,1.5936690551982367e-17,0.010279667673892464,-9.678238573587344e-19,0.030198408870733662,1.5936690551982367e-17,0.030198408870733662,-2.7207365180177e-17,0.03190008567088301,-1.8879440439411625e-17,-0.03190008567088301,0.16319889354348444,0.9730016661303128,0.16319889354348588,1000.0,147.85714285714295,[0.16117986]
-2.824696887596094e-18,0.0004796555351592158,1.5851012166411102e-17,0.0004796555351592158,-1.3983884267927193e-18,0.03469086545977619,1.5851012166411102e-17,0.03469086545977619,-2.7999537854845556e-17,0.03469418129572594,0.0,-0.034694181295725976,0.36789002265118115,0.8539987485163117,0.367890022651182,1000.0,147.85714285714295,[0.12889397]
-2.7836265430022236e-18,-0.018354703771438226,1.5853732737596395e-17,-0.018354703771438226,-2.0049581605202645e-18,0.04276594923646164,1.5853732737596395e-17,0.04276594923646164,-2.887369860387884e-17,0.046538388075145674,1.293238368315023e-18,-0.04653838807514577,0.5818445774359584,0.5682550267412877,0.5818445774359587,1000.0,147.85714285714295,[0.14461944]
-3.1587537779756346e-18,-0.06234963585722214,1.608925132391525e-17,-0.06234963585722214,-3.119093000844343e-18,0.06014054876736345,1.608925132391525e-17,0.06014054876736345,-3.002718687203786e-17,0.08662772476273298,-1.3340390725499497e-18,-0.08662772476273294,0.6921032983935919,0.20490497481862507,0.6921032983935921,1000.0,147.85714285714295,[0.11190604]
-5.444754254730244e-18,-0.2225472675845878,1.7222894365956384e-17,-0.2225472675845878,-8.009052100555231e-18,0.09850153696276308,1.7222894365956384e-17,0.09850153696276308,-3.265065263688603e-17,0.2433718124462912,-1.7057488510844795e-17,-0.24337181244629108,0.6997569051515514,0.14380732730095855,0.6997569051515515,1000.0,147.85714285714295,[0.29378564]
-4.535119037947012e-18,-0.21579276004898126,1.6849613346411403e-17,-0.21579276004898126,-8.188656431091586e-18,0.1001030151798771,1.6849613346411403e-17,0.1001030151798771,-3.1691510867236655e-17,0.2378804929742241,-1.2136920824126146e-17,-0.237880492974224,0.6639799911274918,0.3438911786665535,0.6639799911274918,1000.0,134.9999999999996,[0.52649381]
-1.0068847734495604e-18,-0.05414357291637621,1.483566839844833e-17,-0.05414357291637621,-3.639992827601901e-18,0.06219756587481779,1.483566839844833e-17,0.06219756587481779,-2.654945115675616e-17,0.08246249868214788,-5.144652275968147e-19,-0.0824624986821479,0.7054184668817246,0.06906209643845104,0.7054184668817247,1000.0,134.9999999999996,[0.11902519]
6.435258370509417e-19,-0.011419790213377,1.3723265842348001e-17,-0.011419790213377,-2.85732466496673e-18,0.04465640078199568,1.3723265842348001e-17,0.04465640078199568,-2.290113870164956e-17,0.046093445730599966,6.6588940295246716e-18,-0.046093445730599994,0.6082881210825348,0.5098736348349054,0.6082881210825352,1000.0,134.9999999999996,[0.14888608]
1.9070917856109133e-18,0.007283449236884786,1.2848656787272109e-17,0.007283449236884786,-2.5947614602192427e-18,0.036674655294922164,1.2848656787272109e-17,0.036674655294922164,-1.9571753072940722e-17,0.03739089426301062,-3.638390563685441e-18,-0.037390894263010614,0.3930262519438225,0.831300625866468,0.39302625194382307,1000.0,134.9999999999996,[0.13859544]
3.0350170709147456e-18,0.017480844175313467,1.2068985810188945e-17,0.017480844175313467,-2.504341416882882e-18,0.032395887928623884,1.2068985810188945e-17,0.032395887928623884,-1.6338836969580575e-17,0.036811322548443534,-6.762199804223608e-18,-0.036811322548443555,0.2025877192225656,0.9580795541291954,0.20258771922256588,1000.0,134.9999999999996,[0.16874774]
4.096181849750342e-18,0.023598670532553663,1.1334880956027668e-17,0.023598670532553663,-2.4879925539672895e-18,0.029949357807992037,1.1334880956027668e-17,0.029949357807992037,-1.3158284707717485e-17,0.0381295329635068,-1.3382089377860169e-17,-0.038129532963506775,0.08327780045872732,0.9930405912657915,0.08327780045872729,1000.0,134.9999999999996,[0.16090021]
5.118887693185898e-18,0.027330075585708505,1.0627086791371839e-17,0.027330075585708505,-2.5113871345454557e-18,0.028595337407968314,1.0627086791371839e-17,0.028595337407968314,-1.0017090112989972e-17,0.03955535808201071,-9.846254387009557e-18,-0.03955535808201073,0.015993557935146476,0.9997441733809456,0.015993557935146965,1000.0,134.9999999999996,[0.16995007]
6.132334904025148e-18,0.0294138274935731,9.936905861047284e-18,0.0294138274935731,-2.581997985819367e-18,0.028010695967980136,9.936905861047284e-18,0.028010695967980136,-6.88946551960897e-18,0.04061738958170865,-1.0348134110951476e-17,-0.04061738958170867,0.017272546808675637,0.9997016146098217,0.01727254680867543,1000.0,134.9999999999996,[0.16995007]
7.112155982193198e-18,0.030155520172826338,9.262987417887795e-18,0.030155520172826338,-2.6717302026269957e-18,0.028068624057312655,9.262987417887795e-18,0.028068624057312655,-3.7851782762475015e-18,0.041197124333677525,-9.415920713101357e-18,-0.04119712433367754,0.025328177018016748,0.9993582775450894,0.02532817701801652,1000.0,134.9999999999996,[0.16300645]
8.068067404755403e-18,0.02959316989755993,8.604511157219661e-18,0.02959316989755993,-2.7823589921110627e-18,0.028769082001719685,8.604511157219661e-18,0.028769082001719685,-7.053221224705173e-19,0.04127245793271246,-4.219827424778478e-18,-0.04127245793271245,0.009983508823043418,0.9999003245839858,0.009983508823043134,1000.0,134.9999999999996,[0.16626826]
8.998000392999768e-18,0.027509338361510906,7.962451588277349e-18,0.027509338361510906,-2.930836257703106e-18,0.030238800802826545,7.962451588277349e-18,0.030238800802826545,2.3617694970814314e-18,0.04087968653354766,-3.7948618693353906e-18,-0.04087968653354766,0.033384092109856635,0.9988848806484163,0.0333840921098568,1000.0,134.9999999999996,[0.16300645]
9.911069443300861e-18,0.023299214229675753,7.350323601499057e-18,0.023299214229675753,-3.1219153152449797e-18,0.03280083622360359,7.350323601499057e-18,0.03280083622360359,5.37365270440733e-18,0.04023367048490595,3.316661387858066e-18,-0.04023367048490592,0.11808047686691717,0.9859584179699277,0.1180804768669175,1000.0,134.9999999999996,[0.16889396]
1.0760142011150564e-17,0.0155260100535654,6.781057063834754e-18,0.0155260100535654,-3.3972441140426625e-18,0.03719484977639537,6.781057063834754e-18,0.03719484977639537,8.331798536829027e-18,0.04030525819383909,7.684681940475596e-18,-0.04030525819383907,0.2688090920869297,0.9249234260320155,0.26880909208692993,1000.0,134.9999999999996,[0.15760236]
1.1513135069310395e-17,0.0003819641794740024,6.307958266304879e-18,0.0003819641794740024,-3.8181377788931656e-18,0.04529154233744612,6.307958266304879e-18,0.04529154233744612,1.1147639525389552e-17,0.045293152947648456,1.3877787807814457e-17,-0.04529315294764844,0.4957656426555317,0.7130447777837626,0.49576564265553175,1000.0,134.9999999999996,[0.15861652]
1.195414103621906e-17,-0.035617583576980874,6.0638429082020336e-18,-0.035617583576980874,-4.753314782028387e-18,0.06294741411428438,6.0638429082020336e-18,0.06294741411428438,1.3586072535232706e-17,0.07232557779609111,9.35978515083515e-18,-0.07232557779609113,0.6813979279166746,0.26719604724195445,0.6813979279166744,1000.0,134.9999999999996,[0.16217497]
1.090287078507567e-17,-0.17838103173301004,6.733496085005773e-18,-0.17838103173301004,-9.509160956451036e-18,0.10096781574101751,6.733496085005773e-18,0.10096781574101751,1.4148222876861305e-17,0.2049738819890113,3.3376048396725195e-18,-0.20497388198901148,0.6814254693410227,0.2670555362967305,0.6814254693410224,1000.0,134.9999999999996,[0.47338343]
1.0981840477385189e-17,-0.17160438846023854,6.090304622792758e-18,-0.17160438846023854,-9.51767082257192e-18,0.09947341417001676,6.090304622792758e-18,0.09947341417001676,1.4861152424329108e-17,0.19835076572943233,1.7946336857797958e-17,-0.19835076572943222,0.6257365921377921,0.46573322247780946,0.625736592137792,1000.0,122.14285714285755,[0.47761131]
1.1627223128116159e-17,-0.027342580059051737,4.273100848287969e-18,-0.027342580059051737,-4.782503426755363e-18,0.06122287421642152,4.273100848287969e-18,0.06122287421642152,1.63484856178357e-17,0.06705115220192286,9.319200150223464e-18,-0.06705115220192287,0.7000924297624677,0.14050330806984224,0.7000924297624674,1000.0,122.14285714285755,[0.08300392]
1.081454919555578e-17,0.007432223516081994,3.353246002444752e-18,0.007432223516081994,-3.870575808151411e-18,0.04395732637857526,3.353246002444752e-18,0.04395732637857526,1.5925486080392606e-17,0.04458121228438717,1.411731840970839e-17,-0.044581212284387134,0.5276280130518783,0.6657457169864883,0.5276280130518785,1000.0,122.14285714285755,[0.14936656]
9.706701238079835e-18,0.022491395043507664,2.666315025972826e-18,0.022491395043507664,-3.458277325347158e-18,0.03599035687811483,2.666315025972826e-18,0.03599035687811483,1.5094557719279254e-17,0.042440177181736524,1.0608087749436925e-17,-0.042440177181736496,0.3083626232632669,0.8999027642742257,0.30836262326326724,1000.0,122.14285714285755,[0.16876459]
8.529922252208314e-18,0.03070811775048388,2.0711895492774536e-18,0.03070811775048388,-3.2018531578380064e-18,0.03160513166712686,2.0711895492774536e-18,0.03160513166712686,1.4107349659747164e-17,0.04406668632282223,1.066031234973801e-17,-0.04406668632282223,0.16725249381385598,0.9716240047601193,0.16725249381385535,1000.0,122.14285714285755,[0.16828511]
7.286391238469836e-18,0.03566637126804976,1.514743451615367e-18,0.03566637126804976,-3.0368651410372054e-18,0.0289820041974564,1.514743451615367e-18,0.0289820041974564,1.3049461860305774e-17,0.04595700824392017,1.1016761133521907e-17,-0.045957008243920135,0.08561089108746482,0.9926437178839246,0.08561089108746496,1000.0,122.14285714285755,[0.16195491]
6.027675049841263e-18,0.03872566541771108,9.848687604480477e-19,0.03872566541771108,-2.908644313725061e-18,0.027398896752793868,9.848687604480477e-19,0.027398896752793868,1.194707200240297e-17,0.04743813555900744,6.239186289677195e-18,-0.047438135559007416,0.03869583365910035,0.9985015097208689,0.03869583365910055,1000.0,122.14285714285755,[0.16406115]
4.732611097531038e-18,0.04047794501999441,4.799465928438499e-19,0.04047794501999441,-2.8140713454998926e-18,0.026535625403547872,4.799465928438499e-19,0.026535625403547872,1.0818636941197258e-17,0.04840044884708308,9.679007346348777e-18,-0.04840044884708306,0.013627618701711825,0.9998142707608457,0.013627618701711629,1000.0,122.14285714285755,[0.16999859]
3.442943774934686e-18,0.041169427956257255,-2.879849659001253e-20,0.041169427956257255,-2.743513750440263e-18,0.02625882190522966,-2.879849659001253e-20,0.02625882190522966,9.654113773474053e-18,0.048830805093670375,9.105003933084903e-18,-0.04883080509367038,0.004786231832822311,0.999977091722448,0.004786231832822114,1000.0,122.14285714285755,[0.1660398]
2.152733821856498e-18,0.04083435690869441,-5.05519644038054e-19,0.04083435690869441,-2.7032136337813015e-18,0.026551964268651914,-5.05519644038054e-19,0.026551964268651914,8.47276588133849e-18,0.04870781775721845,9.667147262330631e-18,-0.048707817757218504,0.010989651518379438,0.9998792202656325,0.01098965151837942,1000.0,122.14285714285755,[0.16732295]
8.174855387860234e-19,0.03930592225906177,-9.770933531629288e-19,0.03930592225906177,-2.6910004735956695e-18,0.02751011797732124,-9.770933531629288e-19,0.02751011797732124,7.254515936962682e-18,0.04797668304251081,3.27124375569183e-18,-0.04797668304251078,0.0350994339560244,0.9987672699242469,0.03509943395602443,1000.0,122.14285714285755,[0.16406115]
-5.259106801132518e-19,0.03611285453393157,-1.422644777703975e-18,0.03611285453393157,-2.7212545075645684e-18,0.029395296328437376,-1.422644777703975e-18,0.029395296328437376,5.985530042535322e-18,0.04656416764879992,4.938001769351092e-18,-0.04656416764879994,0.08620147552030395,0.992541490939419,0.08620147552030377,1000.0,122.14285714285755,[0.16195491]
-1.8915717059703105e-18,0.03012660498013328,-1.8245043801183027e-18,0.03012660498013328,-2.8406416921695e-18,0.03281830964609657,-1.8245043801183027e-18,0.03281830964609657,4.638129804182195e-18,0.04454945314654341,2.240290144072925e-18,-0.04454945314654345,0.1866552564171796,0.9645307825588947,0.18665525641717934,1000.0,122.14285714285755,[0.17079893]
-3.3445877608014915e-18,0.018320458271033253,-2.1660196575820266e-18,0.018320458271033253,-3.1087170475732823e-18,0.03933043877257044,-2.1660196575820266e-18,0.03933043877257044,3.1078620336255866e-18,0.043388046802127225,-4.754554792817022e-19,-0.04338804680212722,0.3838816256332716,0.8398034264054378,0.38388162563327166,1000.0,122.14285714285755,[0.14417896]
-4.990797224368413e-18,-0.01034971311211382,-2.2914304909610173e-18,-0.01034971311211382,-3.899353108238227e-18,0.05376784624262961,-2.2914304909610173e-18,0.05376784624262961,1.104690738324801e-18,0.05475488883263412,-1.3200313013261572e-17,-0.05475488883263411,0.6590410769653638,0.36239442289398754,0.659041076965364,1000.0,122.14285714285755,[0.14805725]
-7.753752937453243e-18,-0.13754946806417492,-1.6864744735174639e-18,-0.13754946806417492,-8.48569707306991e-18,0.08391422638469387,-1.6864744735174639e-18,0.08391422638469387,-3.1631531122141037e-18,0.16112558317808853,7.448618887135417e-18,-0.16112558317808864,0.6329726451825114,0.44574797913317465,0.6329726451825115,1000.0,122.14285714285755,[0.27527154]
-8.66705090998886e-18,-0.1320926807988228,-2.4866675075612076e-18,-0.1320926807988228,-8.373412306773602e-18,0.0796185045777042,-2.4866675075612076e-18,0.0796185045777042,-3.952540566362619e-18,0.15423223590355417,-1.521128521661282e-17,-0.15423223590355428,0.5445602673168679,0.6378935887117555,0.5445602673168676,1000.0,109.28571428571402,[0.27906534]
-8.189743811705575e-18,-0.003643020234563209,-4.295812239072477e-18,-0.003643020234563209,-3.560324180599472e-18,0.048599061777361285,-4.295812239072477e-18,0.048599061777361285,-7.924694257133119e-19,0.04873541219759215,-1.3877787807814457e-17,-0.04873541219759217,0.6830165364945012,0.25879880554228113,0.6830165364945009,1000.0,109.28571428571402,[0.11517422]
-8.818868744484699e-18,0.024092668982905203,-5.399134345681498e-18,0.024092668982905203,-2.546465492641917e-18,0.0350287637083872,-5.399134345681498e-18,0.0350287637083872,9.343842539156658e-20,0.042514362110442946,-2.322242695727385e-18,-0.042514362110442946,0.4175637055301739,0.8070198904908232,0.41756370553017363,1000.0,109.28571428571402,[0.15020302]
-9.605890668876466e-18,0.035878144761869304,-6.316846490007823e-18,0.035878144761869304,-2.044581181380237e-18,0.028654292687618963,-6.316846490007823e-18,0.028654292687618963,4.673722972350046e-19,0.04591633435915136,5.52739046540076e-18,-0.04591633435915136,0.23402466387693038,0.9436444846416361,0.2340246638769306,1000.0,109.28571428571402,[0.17167222]
-1.0461300991181974e-17,0.042267228416194375,-7.165691062970016e-18,0.042267228416194375,-1.7033184072608437e-18,0.025030714546951684,-7.165691062970016e-18,0.025030714546951684,6.587094222032973e-19,0.04912285892247851,3.55034744038935e-18,-0.04912285892247854,0.13914011765873643,0.9804489050000647,0.13914011765873652,1000.0,109.28571428571402,[0.18008595]
-1.1351978055506103e-17,0.04610717354743357,-7.98330351581893e-18,0.04610717354743357,-1.44942179027975e-18,0.022749883035640826,-7.98330351581893e-18,0.022749883035640826,7.662106676406955e-19,0.05141428430571116,4.395836610288429e-18,-0.05141428430571113,0.08588824783305472,0.9925957977789023,0.08588824783305493,1000.0,109.28571428571402,[0.17020242]
-1.2266539339632242e-17,0.04846453853743156,-8.778154037471025e-18,0.04846453853743156,-1.2340555144188408e-18,0.021250389355262203,-8.778154037471025e-18,0.021250389355262203,8.145646606455221e-19,0.05291871638084608,4.438584725306935e-18,-0.05291871638084613,0.0541308708772861,0.9970655433000045,0.05413087087728601,1000.0,109.28571428571402,[0.17061282]
-1.3166447481098523e-17,0.04980025099077409,-9.56904869547497e-18,0.04980025099077409,-1.0488085422533867e-18,0.02027841580209358,-9.56904869547497e-18,0.02027841580209358,8.243902997023391e-19,0.053770616010853964,5.331419881338039e-18,-0.05377061601085384,0.03540725246059436,0.9987455396377913,0.035407252460594535,1000.0,109.28571428571402,[0.17230866]
-1.409024408166745e-17,0.05030417450654302,-1.0340563655562486e-17,0.05030417450654302,-9.004637548063226e-19,0.019720453892365594,-1.0340563655562486e-17,0.019720453892365594,7.984033867832201e-19,0.054031530373529604,6.252075147917171e-18,-0.05403153037352962,0.026165902043580595,0.9993151110337976,0.02616590204358083,1000.0,109.28571428571402,[0.17459888]
-1.5022720650295415e-17,0.04999998793619108,-1.1109088650156896e-17,0.04999998793619108,-7.57820959197308e-19,0.0195467753825175,-1.1109088650156896e-17,0.0195467753825175,7.46638876414049e-19,0.05368496271279176,5.956130841810009e-18,-0.05368496271279179,0.025498884002373604,0.9993495954015625,0.025498884002373597,1000.0,109.28571428571402,[0.17459888]
-1.5972035721062816e-17,0.04875274498204314,-1.1863541617474398e-17,0.04875274498204314,-6.710730113225532e-19,0.0198019553238537,-1.1863541617474398e-17,0.0198019553238537,6.533636640970968e-19,0.05262079035829877,5.931743062510144e-18,-0.05262079035829885,0.03478672112921914,0.9987891509553734,0.034786721129219246,1000.0,109.28571428571402,[0.17230866]
-1.6908868171097698e-17,0.046184995688732695,-1.2611162951811614e-17,0.046184995688732695,-6.122747063238568e-19,0.020635073827287992,-1.2611162951811614e-17,0.020635073827287992,5.112522383275937e-19,0.050585176668920366,8.276716217713456e-18,-0.05058517666892041,0.05903367180365052,0.996508931814842,0.05903367180365062,1000.0,109.28571428571402,[0.17061282]
-1.788803851661761e-17,0.041389986394805206,-1.3323278089883156e-17,0.041389986394805206,-6.370458673065018e-19,0.022407115952789394,-1.3323278089883156e-17,0.022407115952789394,2.616983874170633e-19,0.04706601554289369,8.507655075357101e-18,-0.04706601554289367,0.11236929552831026,0.987292399871964,0.11236929552831029,1000.0,109.28571428571402,[0.17819617]
-1.889759828877059e-17,0.03190609745485931,-1.399714817851973e-17,0.03190609745485931,-8.210835789645859e-19,0.0260426966706982,-1.399714817851973e-17,0.0260426966706982,-1.8482979848691462e-19,0.041185204924596076,4.071947078288138e-18,-0.041185204924596104,0.2411096162122802,0.9400703728657412,0.24110961621227991,1000.0,109.28571428571402,[0.17967015]
-2.004879097563341e-17,0.008445326221080537,-1.455052224047789e-17,0.008445326221080537,-1.5309348642556519e-18,0.03439978302033873,-1.455052224047789e-17,0.03439978302033873,-1.1970518514413968e-18,0.03542130159701722,-1.5523215146433333e-17,-0.03542130159701722,0.5924959257221624,0.5457995566187972,0.5924959257221623,1000.0,109.28571428571402,[0.16345815]
-2.2045950942627618e-17,-0.10814627797234425,-1.4689760347760944e-17,-0.10814627797234425,-6.027809117723982e-18,0.05069875580589071,-1.4689760347760944e-17,0.05069875580589071,-4.7102577951724085e-18,0.11944028331989544,-1.7353664762016584e-17,-0.11944028331989534,0.4947614039809912,0.7144384551950691,0.49476140398099105,1000.0,109.28571428571402,[0.27073427]
-2.116468724537313e-17,-0.10509242326295026,-1.4966762213051565e-17,-0.10509242326295026,-5.9405421867162715e-18,0.04445156418781029,-1.4966762213051565e-17,0.04445156418781029,-4.240876599346939e-18,0.11410678764219993,-1.7453476266034435e-17,-0.1141067876422,0.3466456370744883,0.8715925680009237,0.34664563707448803,1000.0,96.42857142857196,[0.25223379]
-1.764918148104528e-17,0.01224961874965901,-1.481720008393029e-17,0.01224961874965901,-1.284596191684694e-18,0.026807587809305443,-1.481720008393029e-17,0.026807587809305443,5.013974540788813e-19,0.029473715810287966,-1.5535824228057656e-18,-0.029473715810287984,0.6061951730185007,0.5148347544777263,0.6061951730185001,1000.0,96.42857142857196,[0.15985982]
-1.5004591281111302e-17,0.03524762929723836,-1.4284025560888754e-17,0.03524762929723836,-4.1973852166535746e-19,0.019620725562267887,-1.4284025560888754e-17,0.019620725562267887,2.711215048781755e-18,0.04034065248189931,9.79941182443308e-18,-0.040340652481899296,0.27258178825985063,0.9227124890333522,0.27258178825985085,1000.0,96.42857142857196,[0.15861879]
-1.2479384026481619e-17,0.04477545312807841,-1.3653687393257913e-17,0.04477545312807841,-6.983810625424773e-20,0.01610155806289602,-1.3653687393257913e-17,0.01610155806289602,4.353169314331945e-18,0.047582574277539466,1.150151988769964e-17,-0.04758257427753946,0.1632744969580403,0.9729762984195442,0.1632744969580405,1000.0,96.42857142857196,[0.16214294]
-9.952553119707067e-18,0.04984909072289455,-1.2994608224551979e-17,0.04984909072289455,1.2703932097614744e-19,0.01395742698641234,-1.2994608224551979e-17,0.01395742698641234,5.781599015192727e-18,0.05176622078132034,1.1538790590742252e-17,-0.05176622078132034,0.11321553166927915,0.987099025821465,0.11321553166927942,1000.0,96.42857142857196,[0.17104648]
-7.485405206983384e-18,0.05283056768132849,-1.2318301399155732e-17,0.05283056768132849,2.2922700049657505e-19,0.012470588256635176,-1.2318301399155732e-17,0.012470588256635176,7.111541283600495e-18,0.0542824506907892,1.1965189506898958e-17,-0.05428245069078918,0.08437259293152774,0.992855745374937,0.08437259293152793,1000.0,96.42857142857196,[0.16305273]
-5.0188126426434535e-18,0.05459221040185395,-1.1632626977888933e-17,0.05459221040185395,2.8935942665428445e-19,0.011351496936376517,-1.1632626977888933e-17,0.011351496936376517,8.382610794292088e-18,0.055759895258661124,1.2420205083631761e-17,-0.05575989525866107,0.06553346160848642,0.9956961036477033,0.06553346160848664,1000.0,96.42857142857196,[0.16346313]
-2.533762163319862e-18,0.055505696419767755,-1.094928549675522e-17,0.055505696419767755,3.275141922334527e-19,0.010462974280302385,-1.094928549675522e-17,0.010462974280302385,9.612707994217095e-18,0.0564832379191711,1.3224678954156667e-17,-0.05648323791917114,0.05236044724844518,0.9972546149945286,0.05236044724844533,1000.0,96.42857142857196,[0.16346313]
-8.236537212162547e-20,0.05571873047922681,-1.0250318880811935e-17,0.05571873047922681,3.2659810586092154e-19,0.009733854360664648,-1.0250318880811935e-17,0.009733854360664648,1.080346607394682e-17,0.056562574613708595,1.3944250886341668e-17,-0.056562574613708595,0.04293117241611488,0.998155212815099,0.04293117241611514,1000.0,96.42857142857196,[0.16346313]
2.3961608235180306e-18,0.05523974222213871,-9.556372060499127e-18,0.05523974222213871,3.1075855517370146e-19,0.009127091799287904,-9.556372060499127e-18,0.009127091799287904,1.1966549999102972e-17,0.055988685691673125,1.478731983668363e-17,-0.05598868569167311,0.036433635646780566,0.9986717080137573,0.03643363564678076,1000.0,96.42857142857196,[0.16515897]
4.837247635561406e-18,0.05394058536237265,-8.852930365937981e-18,0.05394058536237265,2.588322889895109e-19,0.008627943677206498,-8.852930365937981e-18,0.008627943677206498,1.3079711390017744e-17,0.05462625889929184,1.5596336009788274e-17,-0.05462625889929183,0.03280464397928287,0.9989232756657467,0.032804643979283114,1000.0,96.42857142857196,[0.16515897]
7.273987044799144e-18,0.05147933836675746,-8.155882099773068e-18,0.05147933836675746,1.724475299492166e-19,0.008243030863954443,-8.155882099773068e-18,0.008243030863954443,1.4139425798122107e-17,0.05213511135984284,1.655732988747532e-17,-0.05213511135984281,0.032921975970631866,0.9989155554882396,0.032921975970632046,1000.0,96.42857142857196,[0.16515897]
9.716699628637705e-18,0.04704068347208326,-7.446879568837346e-18,0.04704068347208326,-5.1009384942789566e-21,0.008012016651047477,-7.446879568837346e-18,0.008012016651047477,1.509196909632636e-17,0.04771811304250608,1.7378572826378476e-17,-0.04771811304250607,0.039931971416414955,0.9984041643130287,0.03993197141641515,1000.0,96.42857142857196,[0.16346313]
1.2099169630741005e-17,0.03840023577609999,-6.737759132352594e-18,0.03840023577609999,-3.459827054687124e-19,0.008049719547120563,-6.737759132352594e-18,0.008049719547120563,1.5832070971154556e-17,0.03923488361709978,1.8357452081869818e-17,-0.039234883617099744,0.06667643511969036,0.9955443264865002,0.06667643511969061,1000.0,96.42857142857196,[0.16346313]
1.4421405529710325e-17,0.016993901581415793,-6.004627396405262e-18,0.016993901581415793,-1.193411948169021e-18,0.008669855331040598,-6.004627396405262e-18,0.008669855331040598,1.5980708270345734e-17,0.01907771166623554,2.024595734251942e-17,-0.01907771166623552,0.24880052331003238,0.9360537373470116,0.24880052331003263,1000.0,96.42857142857196,[0.16368432]
1.595194567533301e-17,-0.09604933380238014,-5.257269263022584e-18,-0.09604933380238014,-5.8487523855998985e-18,0.007891650266723015,-5.257269263022584e-18,0.007891650266723015,1.3522818990218359e-17,0.09637298723093163,1.2679066607944032e-17,-0.09637298723093164,0.13644340483575557,0.9812066013606168,0.13644340483575554,1000.0,96.42857142857196,[0.2767836]
1.6565285572181573e-17,-0.09600833086196861,-5.314232546996101e-18,-0.09600833086196861,-5.8648439759579415e-18,0.0009301984443495086,-5.314232546996101e-18,0.0009301984443495086,1.3638317146399281e-17,0.09601283697530817,1.3535610688619722e-17,-0.09601283697530816,0.07235955746344677,0.9947503148465889,0.07235955746344681,1000.0,83.57142857142804,[0.27012071]
1.628639470102169e-17,0.017128250285753054,-5.5376557793197464e-18,0.017128250285753054,-1.228390285266023e-18,0.00015759491080474084,-5.5376557793197464e-18,0.00015759491080474084,1.6325573257705257e-17,0.017128975276043554,1.642746709004046e-17,-0.01712897527604354,0.08563230932738242,0.992640022968306,0.08563230932738285,1000.0,83.57142857142804,[0.16046909]
1.5211467032660495e-17,0.038626068109291575,-5.781462529583863e-18,0.038626068109291575,-4.1639609806753235e-19,0.0007787454958437213,-5.781462529583863e-18,0.0007787454958437213,1.6399792813648402e-17,0.038633917509501015,1.6632310748834795e-17,-0.038633917509501,0.09331831490249999,0.9912534409562045,0.09331831490250017,1000.0,83.57142857142804,[0.16338823]
1.407196209766032e-17,0.0473572088552564,-6.0328327221011296e-18,0.0473572088552564,-1.169160035275622e-19,0.0008128611387582359,-6.0328327221011296e-18,0.0008128611387582359,1.5889058299911387e-17,0.04736418450465793,1.609557238938546e-17,-0.047364184504657916,0.09121819776878684,0.9916443318002824,0.09121819776878701,1000.0,83.57142857142804,[0.16159526]
1.2878738864608824e-17,0.05188598517078247,-6.2983798977056655e-18,0.05188598517078247,3.944550014570054e-20,0.0005736480608579319,-6.2983798977056655e-18,0.0005736480608579319,1.516316921038914e-17,0.051889156181618386,1.5302147192266814e-17,-0.05188915618161838,0.0869340974641229,0.9924136866227696,0.08693409746412306,1000.0,83.57142857142804,[0.16046909]
1.1687692512435623e-17,0.05443680531468132,-6.565877648397338e-18,0.05443680531468132,9.474220905537933e-20,0.0001759210077140783,-6.565877648397338e-18,0.0001759210077140783,1.4337164267055794e-17,0.05443708957199562,1.437957366338427e-17,-0.0544370895719956,0.08144117224803511,0.9933451922296355,0.08144117224803527,1000.0,83.57142857142804,[0.16046909]
1.0474391951556238e-17,0.05582496006533033,-6.839124685624818e-18,0.05582496006533033,1.178883931117095e-19,-0.00034065469974063097,-6.839124685624818e-18,-0.00034065469974063097,1.3443605008209499e-17,0.05582599942607551,1.336003169508277e-17,-0.0558259994260755,0.07488167504830524,0.9943769252571785,0.07488167504830541,1000.0,83.57142857142804,[0.15948513]
9.257837727436164e-18,0.05639232752154102,-7.110066536890586e-18,0.05639232752154102,1.1024023108484305e-19,-0.0009694504114639652,-7.110066536890586e-18,-0.0009694504114639652,1.2513416602101614e-17,0.05640065990214157,1.2268146000574628e-17,-0.05640065990214155,0.0670813659718761,0.9954899199282202,0.06708136597187626,1000.0,83.57142857142804,[0.16087949]
8.047250318965952e-18,0.056267005018712575,-7.387486072652796e-18,0.056267005018712575,7.559640130391346e-20,-0.0017251956161704598,-7.387486072652796e-18,-0.0017251956161704598,1.1555011940850899e-17,0.05629344680946338,1.1099061276887029e-17,-0.05629344680946337,0.057599582065328794,0.9966767662044695,0.05759958206532896,1000.0,83.57142857142804,[0.16087949]
6.812248778113816e-18,0.055440513280777856,-7.667806217399322e-18,0.055440513280777856,5.138959721887986e-21,-0.0026449168188864584,-7.667806217399322e-18,-0.0026449168188864584,1.0551705137140937e-17,0.05550356833407144,9.812504077296894e-18,-0.055503568334071426,0.04559694356406825,0.997918752942959,0.04559694356406845,1000.0,83.57142857142804,[0.16087949]
5.58429931387521e-18,0.053765100713501546,-7.950517559543188e-18,0.053765100713501546,-8.281804994301938e-20,-0.003799756053039212,-7.950517559543188e-18,-0.003799756053039212,9.508106960329582e-18,0.05389920408313629,8.375560084141802e-18,-0.05389920408313628,0.02943808171660943,0.9991330235207384,0.029438081716609662,1000.0,83.57142857142804,[0.17414238]
4.365570328527158e-18,0.05086905046323406,-8.243200299822886e-18,0.05086905046323406,-2.249028476053816e-19,-0.005326864083911234,-8.243200299822886e-18,-0.005326864083911234,8.400887479173418e-18,0.0511471971470531,6.6304734954195894e-18,-0.05114719714705312,0.005559791124788603,0.9999690882448803,0.005559791124788851,1000.0,83.57142857142804,[0.15741655]
3.0757546304084283e-18,0.04588001501453552,-8.557537950800418e-18,0.04588001501453552,-4.3074672688333125e-19,-0.007515756177177096,-8.557537950800418e-18,-0.007515756177177096,7.19829963100963e-18,0.04649153007429182,4.296186907714172e-18,-0.0464915300742918,0.03546165758092288,0.9987416791559399,0.03546165758092262,1000.0,83.57142857142804,[0.16257533]
1.7989705424550125e-18,0.03643599888755103,-8.89871951581694e-18,0.03643599888755103,-8.224415461896952e-19,-0.011084152606956131,-8.89871951581694e-18,-0.011084152606956131,5.789784044902121e-18,0.038084648533863494,5.364061251052828e-19,-0.03808464853386349,0.12875868173008384,0.9832814468697464,0.12875868173008348,1000.0,83.57142857142804,[0.17113423]
3.854393337785912e-19,0.013521224550532524,-9.335726331843581e-18,0.013521224550532524,-1.7201396872414321e-18,-0.01832472614273481,-9.335726331843581e-18,-0.01832472614273481,3.8067594959771924e-18,0.022773210172308888,-6.5307246658071306e-18,-0.022773210172308864,0.5183975838269637,0.680094030384573,0.5183975838269635,1000.0,83.57142857142804,[0.15400881]
-1.8670028391150488e-18,-0.10373709645336868,-1.016095184001094e-17,-0.10373709645336868,-6.3984800528565834e-18,-0.03602709514183657,-1.016095184001094e-17,-0.03602709514183657,-7.046523129695025e-19,0.10981501156460562,5.418434659754988e-18,-0.10981501156460564,0.3053113998435222,0.9019810963934763,0.30531139984352207,1000.0,83.57142857142804,[0.26160711]
-3.6308147417177425e-18,-0.10672277537657412,-8.801978178434286e-18,-0.10672277537657412,-6.320025965487324e-18,-0.042323753193398386,-8.801978178434286e-18,-0.042323753193398386,-2.4786078021769633e-18,0.1148087578038122,3.3131331189100923e-18,-0.11480875780381217,0.4631379853087797,0.7556496629578081,0.4631379853087797,1000.0,70.71428571428592,[0.25323139]
-4.654760580590304e-18,0.009943001098456276,-4.700150110144931e-18,0.009943001098456276,-1.459815098187803e-18,-0.026070340946454898,-4.700150110144931e-18,-0.026070340946454898,-1.790217976372527e-18,0.02790207784213042,-4.861323919184568e-18,-0.027902077842130422,0.5403868987878951,0.644952710853131,0.5403868987878951,1000.0,70.71428571428592,[0.14639355]
-6.526848460822235e-18,0.0334748895012152,-1.017097579885079e-18,0.0334748895012152,-3.7902487447684352e-19,-0.017762780215122023,-1.017097579885079e-18,-0.017762780215122023,-3.616920963784904e-18,0.037895706723708164,-5.838976363371605e-18,-0.03789570672370817,0.10654334095440823,0.9885833465098154,0.10654334095440814,1000.0,70.71428571428592,[0.15068419]
-8.560623267438373e-18,0.04302784536578688,2.544405258770273e-18,0.04302784536578688,1.7066603009460887e-19,-0.014180905578377737,2.544405258770273e-18,-0.014180905578377737,-5.996021251792514e-18,0.045304454083952235,-4.7390990042523834e-18,-0.045304454083952214,0.012893300851246563,0.9998337489734574,0.012893300851246509,1000.0,70.71428571428592,[0.1493184]
-1.0593859682873317e-17,0.04789008887186236,6.06482033195569e-18,0.04789008887186236,5.544483272358003e-19,-0.012466779567793951,6.06482033195569e-18,-0.012466779567793951,-8.583084142050726e-18,0.0494861718558512,-5.771582071335038e-18,-0.049486171855851184,0.057869046101428075,0.9966455473269432,0.057869046101427894,1000.0,70.71428571428592,[0.1434837]
-1.2673762319746054e-17,0.050523278226131084,9.565123434278308e-18,0.050523278226131084,8.742010223893568e-19,-0.011695769876625049,9.565123434278308e-18,-0.011695769876625049,-1.1262394214220851e-17,0.05185935475612883,-7.083127426975647e-18,-0.05185935475612884,0.07700195117663934,0.9940530162068727,0.07700195117663906,1000.0,70.71428571428592,[0.14208934]
-1.4750951804209614e-17,0.051834161127319395,1.3039787047617015e-17,0.051834161127319395,1.1443038233239003e-18,-0.011506857966305482,1.3039787047617015e-17,-0.011506857966305482,-1.4005057454970348e-17,0.05309602659361273,-8.467006807986525e-18,-0.05309602659361281,0.08334904736301141,0.9930286363480948,0.08334904736301112,1000.0,70.71428571428592,[0.1430733]
-1.6830311810600514e-17,0.05220016835495583,1.6514348255349652e-17,0.05220016835495583,1.380356031610731e-18,-0.011750921370021785,1.6514348255349652e-17,-0.011750921370021785,-1.6778106942877432e-17,0.05350646436955227,-9.69570271962714e-18,-0.05350646436955226,0.08126283838288828,0.993374401822351,0.08126283838288789,1000.0,70.71428571428592,[0.14208934]
-1.8941687015419667e-17,0.051756223854050425,1.9972341812510265e-17,0.051756223854050425,1.586294102849761e-18,-0.012383336271603531,1.9972341812510265e-17,-0.012383336271603531,-1.9586968982760453e-17,0.05321704355604683,-1.0552799224764533e-17,-0.05321704355604689,0.07182505140933688,0.9948277860916895,0.07182505140933644,1000.0,70.71428571428592,[0.1434837]
-2.1038945349109837e-17,0.05047862760565065,2.3422788818381212e-17,0.05047862760565065,1.7801589108242566e-18,-0.01343377701752896,2.3422788818381212e-17,-0.01343377701752896,-2.2432052667131105e-17,0.052235602895981254,-1.045272769574315e-17,-0.052235602895981295,0.054040766154619314,0.997075318713107,0.05404076615461872,1000.0,70.71428571428592,[0.1434837]
-2.31785373389844e-17,0.04817749908118417,2.6867028825725447e-17,0.04817749908118417,1.9335980128583508e-18,-0.015015694248858893,2.6867028825725447e-17,-0.015015694248858893,-2.5308201946586802e-17,0.05046327864390813,-9.519764745096642e-18,-0.050463278643908156,0.02436677535279331,0.9994060838907343,0.024366775352792573,1000.0,70.71428571428592,[0.14338096]
-2.5312151914957502e-17,0.04439190211496999,3.0283119479390064e-17,0.04439190211496999,2.036437617330221e-18,-0.017382845813298558,3.0283119479390064e-17,-0.017382845813298558,-2.824064701888253e-17,0.04767393734477977,-7.405158212146796e-18,-0.04767393734477981,0.02589192200634033,0.9993293835115802,0.02589192200634111,1000.0,70.71428571428592,[0.15243826]
-2.7478604113682886e-17,0.03805528743309599,3.3670890876154133e-17,0.03805528743309599,2.068328816214773e-18,-0.02109658317451694,3.3670890876154133e-17,-0.02109658317451694,-3.1263576783849377e-17,0.04351173086944327,-2.4231281975500943e-18,-0.043511730869443356,0.11934448493037207,0.9856539899140104,0.11934448493037284,1000.0,70.71428571428592,[0.15068419]
-2.9693074870750006e-17,0.02632045713821998,3.6992901910205493e-17,0.02632045713821998,1.9412973776882517e-18,-0.027565011814207466,3.6992901910205493e-17,-0.027565011814207466,-3.447100091264005e-17,0.03811294190012454,7.919449421111458e-18,-0.038112941900124646,0.3214306289298739,0.8907102231205677,0.3214306289298741,1000.0,70.71428571428592,[0.13770227]
-3.209095049137665e-17,-0.0013661835771118678,4.013006161807137e-17,-0.0013661835771118678,1.2852695780956233e-18,-0.041233101666470304,4.013006161807137e-17,-0.041233101666470304,-3.818415559067558e-17,0.04125572845804378,-3.469446951953614e-17,-0.04125572845804383,0.6747940148928692,0.298841220265084,0.6747940148928692,1000.0,70.71428571428592,[0.1187586]
-3.560312204575166e-17,-0.12976743315740974,4.2554543685662123e-17,-0.12976743315740974,-3.156012010287145e-18,-0.07235455361638746,4.2554543685662123e-17,-0.07235455361638746,-4.417961301548306e-17,0.14857579929884124,-7.48312689449787e-17,-0.14857579929884113,0.5290064179188193,0.6635543833035839,0.5290064179188191,1000.0,70.71428571428592,[0.26336882]
-3.567796265923847e-17,-0.13519348802294046,4.2724730144871914e-17,-0.13519348802294046,-3.148994907903887e-18,-0.07673899736646311,4.2724730144871914e-17,-0.07673899736646311,-4.430005154664655e-17,0.155454665161966,-7.369415448617401e-17,-0.15545466516196596,0.6227267205125532,0.4737329027198351,0.6227267205125533,1000.0,57.857142857142705,[0.26730688]
-3.1858039074950983e-17,-0.00796229184190222,4.102897511362515e-17,-0.00796229184190222,1.3320258846720007e-18,-0.04667707833454971,4.102897511362515e-17,-0.04667707833454971,-3.9027730845421226e-17,0.04735132240207565,-4.178587008721033e-17,-0.04735132240207568,0.6534590207623063,0.3820767152925386,0.6534590207623061,1000.0,57.857142857142705,[0.14944726]
-2.919120526456242e-17,0.020735704989665413,3.860161873396185e-17,0.020735704989665413,2.009412605667045e-18,-0.03232703063344331,3.860161873396185e-17,-0.03232703063344331,-3.600705532856935e-17,0.03840581168253075,1.978063432344877e-19,-0.03840581168253081,0.3008434841770318,0.9049786716030649,0.3008434841770317,1000.0,57.857142857142705,[0.14764829]
-2.6723254004367585e-17,0.03256693200058259,3.5968808755635715e-17,0.03256693200058259,2.1658735341881146e-18,-0.025905521663716354,3.5968808755635715e-17,-0.025905521663716354,-3.347542977277171e-17,0.04161371303548681,1.176782959148596e-18,-0.041613713035486874,0.07830291570752251,0.9938497405460252,0.07830291570752317,1000.0,57.857142857142705,[0.13537586]
-2.4310074508432944e-17,0.03857573598960204,3.3259148602841575e-17,0.03857573598960204,2.1572391386109505e-18,-0.022576430906882997,3.3259148602841575e-17,-0.022576430906882997,-3.1116625666487494e-17,0.04469656183234611,4.989713800707961e-19,-0.04469656183234613,0.022267169193724803,0.9995040501929924,0.02226716919372406,1000.0,57.857142857142705,[0.13666748]
-2.193355648442727e-17,0.041788904418876976,3.051197885303433e-17,0.041788904418876976,2.0825394818704012e-18,-0.02078844281427618,3.051197885303433e-17,-0.02078844281427618,-2.8836982021041565e-17,0.04667410296055473,-3.4692073359716495e-18,-0.04667410296055483,0.07015846069642945,0.9950656163215645,0.07015846069642905,1000.0,57.857142857142705,[0.13677022]
-1.9577107309648202e-17,0.04333502235431324,2.774746201748906e-17,0.04333502235431324,1.95805559807183e-18,-0.01993068944408966,2.774746201748906e-17,-0.01993068944408966,-2.6612216122371822e-17,0.04769860107136868,-4.8039071960263374e-18,-0.0476986010713687,0.09161266732230405,0.9915716002247068,0.0916126673223033,1000.0,57.857142857142705,[0.13667195]
-1.7237479679806013e-17,0.04368538557540416,2.4964631270703726e-17,0.04368538557540416,1.7886679820762704e-18,-0.019741089640784384,2.4964631270703726e-17,-0.019741089640784384,-2.4418305973405467e-17,0.047938747721203726,-5.1186088996156596e-18,-0.047938747721203726,0.09627122505597784,0.990688499202672,0.09627122505597735,1000.0,57.857142857142705,[0.13846492]
-1.4921719312563276e-17,0.04300682817402162,2.2166335157751663e-17,0.04300682817402162,1.621788972234037e-18,-0.020124504048898158,2.2166335157751663e-17,-0.020124504048898158,-2.2243457839763882e-17,0.047482448681633295,-3.284019783741506e-18,-0.047482448681633295,0.08698554630586489,0.9924046702166109,0.08698554630586448,1000.0,57.857142857142705,[0.13635982]
-1.258699231426016e-17,0.04126513357223911,1.9360102941524625e-17,0.04126513357223911,1.4145560596059803e-18,-0.02109737682248548,1.9360102941524625e-17,-0.02109737682248548,-2.010489599994468e-17,0.046345555963055195,-2.401240421425131e-18,-0.04634555596305526,0.06241315703651942,0.9960969810502739,0.06241315703651867,1000.0,57.857142857142705,[0.13677022]
-1.0301314024354138e-17,0.038214113949625345,1.6524330616051983e-17,0.038214113949625345,1.1662146486782995e-18,-0.022792996117965137,1.6524330616051983e-17,-0.022792996117965137,-1.7993067189957117e-17,0.044495383771673724,1.9616119721072957e-21,-0.04449538377167371,0.016396297517087065,0.9997311252809238,0.016396297517086635,1000.0,57.857142857142705,[0.1436111]
-8.033305139512862e-18,0.033261861647676694,1.3674907874998825e-17,0.033261861647676694,8.90680243799609e-19,-0.025531466096930716,1.3674907874998825e-17,-0.025531466096930716,-1.5926130454089785e-17,0.041930981401916964,-1.3195070975080772e-19,-0.04193098140191702,0.06613448600618219,0.9956166227626958,0.06613448600618227,1000.0,57.857142857142705,[0.13677022]
-5.798142356025149e-18,0.02504891825060281,1.0780548017256145e-17,0.02504891825060281,5.272704357933183e-19,-0.03003479090928885,1.0780548017256145e-17,-0.03003479090928885,-1.3924317854643907e-17,0.03910929519295998,2.127993553177712e-18,-0.039109295192959984,0.21885008084542984,0.9508991977217657,0.21885008084543012,1000.0,57.857142857142705,[0.15542474]
-3.6712004392583604e-18,0.009991392195588944,7.796382019900938e-18,0.009991392195588944,-3.3045348483610614e-21,-0.038122567850526166,7.796382019900938e-18,-0.038122567850526166,-1.2081964429096267e-17,0.03941012683973558,-3.0661898113164665e-19,-0.03941012683973559,0.4837872233874563,0.7293146405867021,0.4837872233874566,1000.0,57.857142857142705,[0.14166128]
-1.8161333510933572e-18,-0.024783678420992113,4.572729318350316e-18,-0.024783678420992113,-1.046119500866599e-18,-0.055511683323408556,4.572729318350316e-18,-0.055511683323408556,-1.0652150066664163e-17,0.06079290831563782,-1.1293074145181612e-17,-0.06079290831563782,0.7000801252253729,0.1406258743220888,0.700080125225373,1000.0,57.857142857142705,[0.08913342]
-1.4318492267389846e-18,-0.16904687429642973,4.622824869049039e-19,-0.16904687429642973,-5.884053903131577e-18,-0.09388905425720416,4.622824869049039e-19,-0.09388905425720416,-1.1125951263318718e-17,0.19337011200985824,-1.487320614379649e-17,-0.19337011200985804,0.6195874457085656,0.4818950033364842,0.6195874457085658,1000.0,57.857142857142705,[0.4695435]
-4.518416193428035e-19,-0.1758419801801723,-1.0558158412539163e-18,-0.1758419801801723,-5.958826687808155e-18,-0.09549229497229164,-1.0558158412539163e-18,-0.09549229497229164,-9.582956052417668e-18,0.20009792700765117,-7.04699286651722e-18,-0.20009792700765108,0.6780037135069592,0.2839400094061182,0.6780037135069591,1000.0,45.00000000000011,[0.42000565]
1.7212238883799419e-18,-0.03310020323516292,1.6367568829663662e-19,-0.03310020323516292,-1.2735834159707184e-18,-0.05757397611252407,1.6367568829663662e-19,-0.05757397611252407,-6.631270914170316e-18,0.06641073843599832,-7.078164396918623e-19,-0.06641073843599836,0.6826770902048621,0.26058392317801393,0.6826770902048623,1000.0,45.00000000000011,[0.11276617]
2.389880299620857e-18,0.002874415872191136,4.851654368871604e-19,0.002874415872191136,-3.8671748292135054e-19,-0.040021783122818115,4.851654368871604e-19,-0.040021783122818115,-5.560131060930366e-18,0.04012487247252249,3.469446951953614e-18,-0.04012487247252251,0.462897013268585,0.7559449121556719,0.46289701326858523,1000.0,45.00000000000011,[0.13875998]
2.7702303529819273e-18,0.017990955364528844,5.531304346495473e-19,0.017990955364528844,1.9797533985691026e-21,-0.032030796156580284,5.531304346495473e-19,-0.032030796156580284,-4.8641311605657444e-18,0.03673753363187119,5.45010661227297e-19,-0.036737533631871204,0.19108306143708326,0.9627951637101548,0.1910830614370834,1000.0,45.00000000000011,[0.15485674]
3.0335078798871426e-18,0.025734282796230436,5.412272733231665e-19,0.025734282796230436,2.2241914734331164e-19,-0.027744564790573977,5.412272733231665e-19,-0.027744564790573977,-4.311381468104867e-18,0.03784196330074219,-2.020293498741313e-18,-0.037841963300742194,0.02656154463191147,0.9992942352948573,0.02656154463191166,1000.0,45.00000000000011,[0.14144603]
3.235637734370601e-18,0.029912260144042902,4.785722645678358e-19,0.029912260144042902,3.5499055693657284e-19,-0.025292348508335748,4.785722645678358e-19,-0.025292348508335748,-3.820983409447319e-18,0.039172007862656344,-3.2918799757383085e-18,-0.039172007862656344,0.058969553614729955,0.9965165244455101,0.058969553614729726,1000.0,45.00000000000011,[0.13249147]
3.4161301983908966e-18,0.03196174871254037,3.9604500415304576e-19,0.03196174871254037,4.571322665406927e-19,-0.023934421274744502,3.9604500415304576e-19,-0.023934421274744502,-3.368005657533174e-18,0.039930062641079296,1.2129391786648913e-18,-0.039930062641079324,0.10051734090616482,0.9898446991090611,0.10051734090616488,1000.0,45.00000000000011,[0.13418617]
3.557587182124202e-18,0.03248762583743997,2.885580663553053e-19,0.03248762583743997,5.104584292828784e-19,-0.02334765307849131,2.885580663553053e-19,-0.02334765307849131,-2.934613474572753e-18,0.04000698360070502,-4.272961603457994e-18,-0.040006983600705044,0.11422971611870637,0.9868653119402258,0.11422971611870637,1000.0,45.00000000000011,[0.13926078]
3.701282516595076e-18,0.031707393816246085,1.7145639470755475e-19,0.031707393816246085,5.518424821240595e-19,-0.02340523394245428,1.7145639470755475e-19,-0.02340523394245428,-2.5288869675846275e-18,0.03941019916873723,-3.9949538420615267e-19,-0.039410199168737205,0.10533009283010131,0.9888433359682436,0.10533009283010103,1000.0,45.00000000000011,[0.13926078]
3.818897673532766e-18,0.029583100759569263,3.372893571170326e-20,0.029583100759569263,5.660865322722227e-19,-0.02410712218998589,3.372893571170326e-20,-0.02410712218998589,-2.1421779632645557e-18,0.03816167175103494,-8.096309016377423e-19,-0.038161671751034916,0.07174710014420134,0.9948390358453953,0.07174710014420108,1000.0,45.00000000000011,[0.13249147]
3.8973416925630075e-18,0.025809219105775508,-1.1746413185241362e-19,0.025809219105775508,5.369159045729636e-19,-0.0255800453852868,-1.1746413185241362e-19,-0.0255800453852868,-1.77771680869971e-18,0.03633805873685688,1.947138572477515e-18,-0.03633805873685688,0.0031533566796756087,0.999990056292212,0.003153356679675285,1000.0,45.00000000000011,[0.12902853]
3.94336354030362e-18,0.01964705109178078,-3.0062735527548995e-19,0.01964705109178078,4.67586381917291e-19,-0.028147054619642474,-3.0062735527548995e-19,-0.028147054619642474,-1.4414724391902734e-18,0.03432584012612336,2.6504169085843794e-20,-0.034325840126123365,0.12381348128159758,0.9845508842644259,0.12381348128159769,1000.0,45.00000000000011,[0.14153323]
3.932917903528301e-18,0.009403528617614164,-5.2316520303670295e-19,0.009403528617614164,3.2228011320346963e-19,-0.03254780609288965,-5.2316520303670295e-19,-0.03254780609288965,-1.1648835082775485e-18,0.033878991010988416,5.406888683024195e-18,-0.033878991010988416,0.3415727089949178,0.8755890411258846,0.3415727089949178,1000.0,45.00000000000011,[0.13417099]
3.772604510551236e-18,-0.009347521389613027,-8.37712831874027e-19,-0.009347521389613027,3.332090302516734e-21,-0.040652996641785184,-8.37712831874027e-19,-0.040652996641785184,-9.833736121038125e-19,0.04171381416373082,2.779239946765881e-18,-0.04171381416373082,0.5993280527541943,0.5306710566478363,0.5993280527541947,1000.0,45.00000000000011,[0.13956561]
3.2476434337811955e-18,-0.052120606825122574,-1.399122355715904e-18,-0.052120606825122574,-8.126400181552644e-19,-0.05831913190636433,-1.399122355715904e-18,-0.05831913190636433,-1.1181070650231342e-18,0.0782155918096318,7.790054766198869e-18,-0.07821559180963171,0.7059956728339102,0.056037664829905014,0.7059956728339102,1000.0,45.00000000000011,[0.08646553]
8.420946789973589e-19,-0.2138200186874646,-2.8619004600943116e-18,-0.2138200186874646,-5.422735327209542e-18,-0.09635161446802662,-2.8619004600943116e-18,-0.09635161446802662,-2.7489490637724693e-18,0.23452640363528984,1.4253914884581672e-19,-0.23452640363528993,0.6612723095303082,0.354172084299291,0.6612723095303086,1000.0,45.00000000000011,[0.50705177]
3.356847818250446e-19,-0.22063891783603723,-3.4911732384832316e-18,-0.22063891783603723,-5.4445677255021136e-18,-0.09485496521491145,-3.4911732384832316e-18,-0.09485496521491145,-5.667385367105523e-18,0.24016451963139704,-3.854385934914583e-18,-0.2401645196313972,0.6986322455914874,0.15435663523020918,0.6986322455914873,1000.0,32.14285714285738,[0.2847333]
2.366547188901961e-18,-0.06051101608751528,-3.413472156890034e-18,-0.06051101608751528,-8.743811926665285e-19,-0.05658784410070598,-3.413472156890034e-18,-0.05658784410070598,-1.0479551180434308e-17,0.08284785554200745,-4.027593290957237e-18,-0.08284785554200742,0.6942601858802593,0.18975138630064162,0.6942601858802594,1000.0,32.14285714285738,[0.09961832]
2.4624571265662596e-18,-0.016588010313194842,-4.240520498093235e-18,-0.016588010313194842,-7.661264115404887e-20,-0.03930752943713299,-4.240520498093235e-18,-0.03930752943713299,-1.6763873490980867e-17,0.0426643171350689,1.4544321274379622e-18,-0.042664317135068935,0.5793899513034647,0.573249133149922,0.5793899513034648,1000.0,32.14285714285738,[0.07273433]
2.1751342864347403e-18,0.0021726777475001083,-5.2957385979570055e-18,0.0021726777475001083,2.083701050245579e-19,-0.03132755954644272,-5.2957385979570055e-18,-0.03132755954644272,-2.332040977418036e-17,0.03140281063424731,6.938893903907228e-18,-0.031402810634247325,0.33387782061896026,0.8815050775789475,0.3338778206189606,1000.0,32.14285714285738,[0.06843375]
1.709760819451182e-18,0.011897440771550319,-6.443368152632464e-18,0.011897440771550319,3.0451744352465906e-19,-0.02693109898821801,-6.443368152632464e-18,-0.02693109898821801,-2.996751447623859e-17,0.02944203100374945,-1.2174548301009275e-17,-0.029442031003749473,0.10217654626749997,0.9895048796169177,0.1021765462675011,1000.0,32.14285714285738,[0.0756836]
1.1914808804887317e-18,0.017236444577898014,-7.638175824297913e-18,0.017236444577898014,3.4801266808422863e-19,-0.02429850927503125,-7.638175824297913e-18,-0.02429850927503125,-3.665887747697147e-17,0.029791149267454103,-1.699948902142055e-17,-0.029791149267454086,0.039565320410320626,0.998433358237623,0.03956532041031983,1000.0,32.14285714285738,[0.06891429]
6.210405864599128e-19,0.019960193379653168,-8.85280328627741e-18,0.019960193379653168,3.160652984662056e-19,-0.022707721992363983,-8.85280328627741e-18,-0.022707721992363983,-4.338446011246505e-17,0.030233259133537697,-2.704529442929846e-17,-0.030233259133537704,0.11272125863763198,0.9872121533400487,0.1127212586376311,1000.0,32.14285714285738,[0.0756836]
2.2112192134767536e-20,0.02082039120523856,-1.0082836366780247e-17,0.02082039120523856,2.7652110210249556e-19,-0.021838561829093495,-1.0082836366780247e-17,-0.021838561829093495,-5.0120098369075144e-17,0.030173025580844778,-3.60324889531399e-17,-0.030173025580844805,0.14085208471162206,0.9799598871712963,0.14085208471162153,1000.0,32.14285714285738,[0.07652657]
-6.089670582390888e-19,0.020093917615219184,-1.1333032620948918e-17,0.020093917615219184,2.0545346618469593e-19,-0.021557667871969857,-1.1333032620948918e-17,-0.021557667871969857,-5.687398257563692e-17,0.029470299781396474,-3.67141567266378e-17,-0.029470299781396495,0.1330373084048306,0.9821416135898102,0.13303730840482952,1000.0,32.14285714285738,[0.07994836]
-1.2479144505995495e-18,0.017746593437864618,-1.2584775160025788e-17,0.017746593437864618,1.1266365379094748e-19,-0.021848523964624045,-1.2584775160025788e-17,-0.021848523964624045,-6.363807501813822e-17,0.02814781657751824,-3.864027889117553e-17,-0.02814781657751825,0.08547121100657973,0.9926677914479434,0.08547121100657797,1000.0,32.14285714285738,[0.06850389]
-1.9411248911434888e-18,0.013422259423435168,-1.3868246744737754e-17,0.013422259423435168,-2.289222345240504e-20,-0.022806199892871772,-1.3868246744737754e-17,-0.022806199892871772,-7.041912466319685e-17,0.026462800335255856,-3.2071875391014344e-17,-0.0264628003352559,0.020539679725338662,0.9995780325285071,0.020539679725340765,1000.0,32.14285714285738,[0.07031469]
-2.6712342044521935e-18,0.006248670856874953,-1.516176971126558e-17,0.006248670856874953,-1.9009024066774852e-19,-0.02469271187752036,-1.516176971126558e-17,-0.02469271187752036,-7.722405004945622e-17,0.025471079822885236,-1.8696327654283628e-17,-0.025471079822885306,0.21782557115082335,0.9513695607415839,0.21782557115082546,1000.0,32.14285714285738,[0.08268813]
-3.4835520357588684e-18,-0.005775486228946762,-1.649978413800322e-17,-0.005775486228946762,-4.402089783884703e-19,-0.028118872331729782,-1.649978413800322e-17,-0.028118872331729782,-8.405909142745741e-17,0.028705874353324782,2.2823580442525384e-18,-0.028705874353324872,0.48897108545508017,0.7223673270419699,0.4889710854550814,1000.0,32.14285714285738,[0.06813959]
-4.461100848784236e-18,-0.027857440448983316,-1.790892555086761e-17,-0.027857440448983316,-8.645460151832731e-19,-0.03463596521553182,-1.790892555086761e-17,-0.03463596521553182,-9.096308079105674e-17,0.04444870160961037,-1.9502481498896086e-17,-0.044448701609610404,0.668390748166333,0.32635504520582853,0.6683907481663334,1000.0,32.14285714285738,[0.08023249]
-5.948722314734302e-18,-0.07795224359659923,-1.9525879600722486e-17,-0.07795224359659923,-1.778335746593053e-18,-0.04908016536507029,-1.9525879600722486e-17,-0.04908016536507029,-9.806279018657285e-17,0.09211631187800653,-5.57389521743944e-17,-0.09211631187800676,0.7071064853003023,0.0009148182909676893,0.7071064853003026,1000.0,32.14285714285738,[0.08519884]
-9.6706247896391e-18,-0.2552070394923048,-2.186839631395038e-17,-0.2552070394923048,-6.507970855075279e-18,-0.07923522558922909,-2.186839631395038e-17,-0.07923522558922909,-1.0630304102609547e-16,0.26722435139897494,-8.509479865252908e-17,-0.26722435139897494,0.6833481112574973,0.25704224882618437,0.6833481112574973,1000.0,32.14285714285738,[0.45912821]
-1.0276743037848556e-17,-0.2606985189508574,-2.1418757011289712e-17,-0.2606985189508574,-6.485960406155856e-18,-0.07493389175199759,-2.1418757011289712e-17,-0.07493389175199759,-1.0636625747722922e-16,0.271254135298009,-8.768312760348545e-17,-0.27125413529800885,0.7059700743849684,0.05667899210258141,0.7059700743849683,1000.0,19.285714285714306,[0.16758857]
-7.288070001523013e-18,-0.08475169381478306,-1.8562833435184282e-17,-0.08475169381478306,-1.7070137526368934e-18,-0.043894544582798956,-1.8562833435184282e-17,-0.043894544582798956,-9.874680982333071e-17,0.09544412317479821,-6.342455982599536e-17,-0.09544412317479828,0.700061481012783,0.14081138307813562,0.7000614810127833,1000.0,19.285714285714306,[0.1115138]
-6.586448788510635e-18,-0.03378223273942733,-1.6423012523075196e-17,-0.03378223273942733,-7.325511504769613e-19,-0.03030624364100119,-1.6423012523075196e-17,-0.03030624364100119,-9.223836416658383e-17,0.045384002164733754,-3.411086179111003e-17,-0.0453840021647338,0.6527619241485,0.38445252081875586,0.6527619241485,1000.0,19.285714285714306,[0.09497428]
-6.384318934027177e-18,-0.011739962838683457,-1.4454840893852754e-17,-0.011739962838683457,-2.7321444760381483e-19,-0.023915630030012968,-1.4454840893852754e-17,-0.023915630030012968,-8.58934537712999e-17,0.026641773349124577,-1.3534712910503868e-17,-0.02664177334912467,0.5037531620423444,0.701758864186751,0.5037531620423445,1000.0,19.285714285714306,[0.07449951]
-6.351218474635255e-18,-0.00017915107192863428,-1.2562930043831299e-17,-0.00017915107192863428,3.418572035559153e-20,-0.020277774455980467,-1.2562930043831299e-17,-0.020277774455980467,-7.961766093363969e-17,0.02027856582685732,-6.938893903907228e-18,-0.020278565826857397,0.23942983077717064,0.9409286435580706,0.2394298307771719,1000.0,19.285714285714306,[0.09369509]
-6.431799101187721e-18,0.006287071658244383,-1.0700020249483525e-17,0.006287071658244383,2.612087481932202e-19,-0.017984544542378203,-1.0700020249483525e-17,-0.017984544542378203,-7.336018187474139e-17,0.019051800766139777,-1.898927931358717e-17,-0.01905180076613984,0.00020993580299939104,0.9999999559269578,0.00020993580300119008,1000.0,19.285714285714306,[0.07631765]
-6.5487359700231175e-18,0.009722137157457601,-8.855462387603432e-18,0.009722137157457601,4.305094585256735e-19,-0.016474546121211242,-8.855462387603432e-18,-0.016474546121211242,-6.7129291709453e-17,0.01912931312954894,-2.957826364464934e-17,-0.019129313129548985,0.13807617131793395,0.9807496835729093,0.1380761713179318,1000.0,19.285714285714306,[0.08253367]
-6.709897223128049e-18,0.01100874181234979,-7.02286783212754e-18,0.01100874181234979,5.699654923572135e-19,-0.015493974923990395,-7.02286783212754e-18,-0.015493974923990395,-6.090063989490218e-17,0.019006726578667383,-3.0416953651697623e-17,-0.019006726578667418,0.1961948156773662,0.9607367946543157,0.19619481567736496,1000.0,19.285714285714306,[0.06878931]
-6.8952055326746284e-18,0.010480093727353833,-5.2019271141091775e-18,0.010480093727353833,7.0942152618875355e-19,-0.014929334077538384,-5.2019271141091775e-18,-0.014929334077538384,-5.468772436432457e-17,0.018240542221460133,-2.8505355033219553e-17,-0.018240542221460158,0.1923218733936063,0.9623017167337633,0.19232187339360446,1000.0,19.285714285714306,[0.07789249]
-7.127722694140834e-18,0.00811255101708505,-3.38630671839318e-18,0.00811255101708505,7.916978729969531e-19,-0.014750904892127109,-3.38630671839318e-18,-0.014750904892127109,-4.8473520086352594e-17,0.016834567982023964,-1.9160195171279984e-17,-0.016834567982024005,0.11699532675006458,0.9862171094831459,0.11699532675006297,1000.0,19.285714285714306,[0.0816907]
-7.382759020603183e-18,0.003518063898734888,-1.5908102828121018e-18,0.003518063898734888,8.462322364213491e-19,-0.015003269868337742,-1.5908102828121018e-18,-0.015003269868337742,-4.227620518212773e-17,0.015410219996409914,-1.1027795727110504e-17,-0.015410219996409963,0.07500566092813626,0.9943582360786614,0.0750056609281373,1000.0,19.285714285714306,[0.07352703]
-7.710779146872311e-18,-0.004269459652588552,1.983356804112537e-19,-0.004269459652588552,8.725498147903361e-19,-0.015835514600062585,1.983356804112537e-19,-0.015835514600062585,-3.6089675058729334e-17,0.016400969738825703,-1.0335575337587999e-17,-0.01640096973882573,0.3992334884067308,0.8253637037507684,0.39923348840673023,1000.0,19.285714285714306,[0.07169592]
-8.13348829222161e-18,-0.017473156957242057,1.9619992074915707e-18,-0.017473156957242057,8.125891465475924e-19,-0.017608628197890233,1.9619992074915707e-18,-0.017608628197890233,-2.992173002933378e-17,0.024806753134256634,-1.9912033016120987e-17,-0.024806753134256645,0.6358917129548302,0.4373596446755733,0.6358917129548302,1000.0,19.285714285714306,[0.08661408]
-8.74340495380391e-18,-0.04186538093017164,3.683825076562298e-18,-0.04186538093017164,5.783084360154233e-19,-0.021247230110314343,3.683825076562298e-18,-0.021247230110314343,-2.3793939655593997e-17,0.04694842817165475,-2.385524346895721e-17,-0.04694842817165484,0.7008581613244911,0.13264869169994564,0.7008581613244911,1000.0,19.285714285714306,[0.06579872]
-9.918742577458056e-18,-0.09715733710209307,5.280803541804631e-18,-0.09715733710209307,-1.722851779825446e-19,-0.029609300434866464,5.280803541804631e-18,-0.029609300434866464,-1.779678757035594e-17,0.10156898554682883,-1.961379647073339e-17,-0.10156898554682879,0.706518765822102,0.0407733624125758,0.7065187658221024,1000.0,19.285714285714306,[0.10362049]
-1.3611885636825612e-17,-0.28500780653216756,6.460100672255917e-18,-0.28500780653216756,-4.6909048578412676e-18,-0.04591527861265519,6.460100672255917e-18,-0.04591527861265519,-1.2669336489878589e-17,0.28868263299747565,-1.4649820374261023e-17,-0.2886826329974757,0.6960753981310822,0.17594908420708064,0.6960753981310823,1000.0,19.285714285714306,[0.30968957]
-1.3945603383154004e-17,-0.28808550717011366,7.573383413151488e-18,-0.28808550717011366,-4.629587613393937e-18,-0.039660673414316866,7.573383413151488e-18,-0.039660673414316866,-9.477177022864999e-18,0.29080273117207595,-1.1510895858923598e-17,-0.29080273117207595,0.7068926604603859,0.02460758367810219,0.7068926604603859,1000.0,6.428571428571418,[0.18828799]
-1.0639355857334652e-17,-0.10102189848427669,8.049634925575578e-18,-0.10102189848427669,2.6181920748528435e-20,-0.021994892858241303,8.049634925575578e-18,-0.021994892858241303,-8.509531216133116e-18,0.10338858392111301,-1.2152184892365743e-17,-0.10338858392111298,0.7034187281935703,0.10200091006006073,0.70341872819357,1000.0,6.428571428571418,[0.11568639]
-9.866650051201917e-18,-0.04530547156448301,8.145002232758042e-18,-0.04530547156448301,8.809605872587753e-19,-0.014788303052876014,8.145002232758042e-18,-0.014788303052876014,-8.384726205311116e-18,0.04765794436254966,-1.3200297097633005e-17,-0.04765794436254969,0.6925429655821749,0.2019120641400437,0.6925429655821748,1000.0,6.428571428571418,[0.06668148]
-9.660993098586533e-18,-0.0209961599313682,8.145595734847548e-18,-0.0209961599313682,1.2233604212965254e-18,-0.011251446880811453,8.145595734847548e-18,-0.011251446880811453,-8.380385161456437e-18,0.023820868766174626,-1.6754620067545723e-17,-0.023820868766174612,0.6567334666967084,0.37067817232883654,0.6567334666967082,1000.0,6.428571428571418,[0.09563465]
-9.664248881477541e-18,-0.008110428779481451,8.110409539541074e-18,-0.008110428779481451,1.4002579583746657e-18,-0.009091673851727976,8.110409539541074e-18,-0.009091673851727976,-8.406567082204966e-18,0.012183496559413276,-1.7856382607625548e-17,-0.012183496559413282,0.5268335343410653,0.6670028891896967,0.5268335343410653,1000.0,6.428571428571418,[0.07515988]
-9.746728714716429e-18,-0.0007761995305925417,8.065142287314263e-18,-0.0007761995305925417,1.4992880213095141e-18,-0.007591256203263594,8.065142287314263e-18,-0.007591256203263594,-8.446586080240281e-18,0.007630835894899069,-1.1357297177092055e-17,-0.007630835894899072,0.15023399912972327,0.9771691209872431,0.15023399912972182,1000.0,6.428571428571418,[0.07344244]
-9.926339404203743e-18,0.0032641736717618614,8.00810673651266e-18,0.0032641736717618614,1.553551069492993e-18,-0.006460665548095588,8.00810673651266e-18,-0.006460665548095588,-8.50193438938743e-18,0.007238441067230739,-3.0072661732568344e-18,-0.007238441067230754,0.246200809181246,0.937427502859287,0.24620080918124754,1000.0,6.428571428571418,[0.09015956]
-1.0140135814046649e-17,0.004982619988322922,7.945602487886315e-18,0.004982619988322922,1.5787833868983105e-18,-0.0055627379785418265,7.945602487886315e-18,-0.0055627379785418265,-8.563794264316595e-18,0.007467968650573367,-1.4811014416292752e-18,-0.00746796865057338,0.4098416133897874,0.8148985850203146,0.40984161338978814,1000.0,6.428571428571418,[0.07117875]
-1.0374009551717442e-17,0.004754489739784295,7.875043568045235e-18,0.004754489739784295,1.5668455162979452e-18,-0.004826320068646988,7.875043568045235e-18,-0.004826320068646988,-8.626468084968513e-18,0.006774845982805712,-1.6983279601186622e-18,-0.0067748459828057255,0.4367167911729804,0.7864838768945934,0.436716791172981,1000.0,6.428571428571418,[0.07698353]
-1.0654006880344191e-17,0.0025713743155949802,7.802873713961209e-18,0.0025713743155949802,1.5464968732291407e-18,-0.004214376381785041,7.802873713961209e-18,-0.004214376381785041,-8.701622406702631e-18,0.004936895194173061,-3.582360960267369e-18,-0.004936895194173072,0.29839560095809564,0.9065981086775512,0.2983956009580971,1000.0,6.428571428571418,[0.08157914]
-1.0966562037881028e-17,-0.0019615912875982763,7.731314319169246e-18,-0.0019615912875982763,1.4952182926957532e-18,-0.003712171342310988,7.731314319169246e-18,-0.003712171342310988,-8.775962782713996e-18,0.004198577908561001,-1.6507553181167253e-17,-0.0041985779085609975,0.39828455128146706,0.8262801174063443,0.398284551281466,1000.0,6.428571428571418,[0.07235628]
-1.1356170723838405e-17,-0.009846041971841593,7.657601359652502e-18,-0.009846041971841593,1.3921185011471439e-18,-0.003326330714391343,7.657601359652502e-18,-0.003326330714391343,-8.86305497504848e-18,0.01039273874071553,-1.3751047587046837e-17,-0.010392738740715534,0.6910377285205265,0.21197574276879122,0.6910377285205273,1000.0,6.428571428571418,[0.08600218]
-1.1830429764962008e-17,-0.023396564634838548,7.574697596349681e-18,-0.023396564634838548,1.2043683544323079e-18,-0.0030965207837381934,7.574697596349681e-18,-0.0030965207837381934,-8.961542407501493e-18,0.023600586384162164,-1.0970399021915236e-17,-0.02360058638416216,0.7069739290206374,0.019383688251871412,0.7069739290206377,1000.0,6.428571428571418,[0.05667206]
-1.25119736501465e-17,-0.04862275981274942,7.489775925942537e-18,-0.04862275981274942,8.527438022033665e-19,-0.0031375630270185375,7.489775925942537e-18,-0.0031375630270185375,-9.09095977741909e-18,0.04872388606789111,-1.006863773532382e-17,-0.048723886067891124,0.7063004598440424,0.04774223338081565,0.7063004598440427,1000.0,6.428571428571418,[0.04962717]
-1.3792581587276596e-17,-0.10595975405733637,7.390508462171886e-18,-0.10595975405733637,-7.05419626385222e-21,-0.0037631843344145214,7.390508462171886e-18,-0.0037631843344145214,-9.315066166416857e-18,0.1060265581645749,-9.845670475565058e-18,-0.10602655816457493,0.7050279155468661,0.07662425594602326,0.7050279155468661,1000.0,6.428571428571418,[0.10772579]
-1.7696265273596046e-17,-0.29734927563835123,7.26675479790844e-18,-0.29734927563835123,-4.66987792667017e-18,-0.0029926672415791487,7.26675479790844e-18,-0.0029926672415791487,-1.031377756823378e-17,0.2973643350838682,-1.0460737075968255e-17,-0.2973643350838682,0.7034218306244883,0.10195811101519713,0.7034218306244882,1000.0,6.428571428571418,[0.18760923]
-1.7672389532395315e-17,-0.29740668856834546,6.955963189437566e-18,-0.29740668856834546,-4.761039847618414e-18,0.003975297296159099,6.955963189437566e-18,0.003975297296159099,-1.00286252500296e-17,0.29743325535955406,-9.844054936797032e-18,-0.29743325535955406,0.7036560257779982,0.09867317149370902,0.7036560257779981,1000.0,6.428571428571418,[0.18760923]
-1.3723124885601743e-17,-0.10613186455711837,5.825104308091315e-18,-0.10613186455711837,-2.713152409173931e-19,0.004768479792238584,5.825104308091315e-18,0.004768479792238584,-8.471004451922847e-18,0.1062389338891327,-7.958261330617476e-18,-0.1062389338891327,0.7055060316592284,0.06724937609298699,0.7055060316592283,1000.0,6.428571428571418,[0.11037577]
-1.2395850727033856e-17,-0.04890931721304903,4.709049064577618e-18,-0.04890931721304903,4.0751549185792445e-19,0.004165508118084674,4.709049064577618e-18,0.004165508118084674,-7.68798866663525e-18,0.04908638067864124,-6.9290046373701935e-18,-0.04908638067864124,0.7068445165238162,0.027233415511545747,0.7068445165238161,1000.0,6.428571428571418,[0.05667206]
-1.1658958532702215e-17,-0.02379722327000446,3.609238821113851e-18,-0.02379722327000446,5.751883107448733e-19,0.0041472057450703545,3.609238821113851e-18,0.0041472057450703545,-6.997762693741402e-18,0.024155892673515204,-5.896493615408886e-18,-0.024155892673515224,0.7058199081606977,0.060303519698671856,0.7058199081606978,1000.0,6.428571428571418,[0.06416463]
-1.1131521704358803e-17,-0.010360361933587841,2.519772471210059e-18,-0.010360361933587841,5.882114423089082e-19,0.004399855962282372,2.519772471210059e-18,0.004399855962282372,-6.3341256144574596e-18,0.011255924301618573,-5.3740233944130896e-18,-0.011255924301618593,0.6777016847880082,0.285378437992414,0.6777016847880087,1000.0,6.428571428571418,[0.08626335]
-1.070935518949134e-17,-0.002589039321884789,1.4310013666111178e-18,-0.002589039321884789,5.225531540068991e-19,0.004808625735377656,1.4310013666111178e-18,0.004808625735377656,-5.6927363849287415e-18,0.005461319078135053,-7.863992031257638e-18,-0.005461319078135057,0.40281824614309963,0.8218728132432618,0.40281824614310047,1000.0,6.428571428571418,[0.07235628]
-1.0350133810516711e-17,0.0018314237727743805,3.4884357100953815e-19,0.0018314237727743805,4.0697286137608966e-19,0.00533383190843539,3.4884357100953815e-19,0.00533383190843539,-5.054602938291033e-18,0.005639492518208237,-1.0087755816658841e-17,-0.005639492518208238,0.15330908716074534,0.9762134231754231,0.15330908716074515,1000.0,6.428571428571418,[0.07344244]
-1.0029981826234187e-17,0.0039027533986115727,-7.320085199951265e-19,0.0039027533986115727,2.6100526176253214e-19,0.005968830405630515,-7.320085199951265e-19,0.005968830405630515,-4.422438426953507e-18,0.007131508991900204,-8.002102787097928e-18,-0.0071315089919002156,0.3182711951989342,0.8929764233244254,0.3182711951989352,1000.0,6.428571428571418,[0.07520099]
-9.726108756406707e-18,0.004019904425557412,-1.8076377926121314e-18,0.004019904425557412,8.356509420255707e-20,0.006728338326790861,-1.8076377926121314e-18,0.006728338326790861,-3.797870742361668e-18,0.007837739995073763,-6.445285868853213e-18,-0.00783773999507377,0.2924236358123817,0.9104816496978592,0.2924236358123821,1000.0,6.428571428571418,[0.08157914]
-9.497118693072427e-18,0.002191373942955838,-2.8888629420730575e-18,0.002191373942955838,-1.1612292311264424e-19,0.007649373051458981,-2.8888629420730575e-18,0.007649373051458981,-3.1787293625881777e-18,0.007957074075202058,-8.055332654779258e-18,-0.007957074075202061,0.1174030706338485,0.9861201945054604,0.11740307063384922,1000.0,6.428571428571418,[0.08235107]
-9.280066500338513e-18,-0.0019581013420703983,-3.955572726144903e-18,-0.0019581013420703983,-3.494540303016023e-19,0.00880307078774205,-3.955572726144903e-18,0.00880307078774205,-2.5612158742601907e-18,0.009018215796919884,-1.0231858076761242e-17,-0.009018215796919886,0.22984893072474122,0.9456949498064302,0.22984893072474075,1000.0,6.428571428571418,[0.08935559]
-9.124874182533764e-18,-0.00940036502486657,-5.019128470541084e-18,-0.00940036502486657,-6.164282273643171e-19,0.010326579622051706,-5.019128470541084e-18,0.010326579622051706,-1.9583534089417432e-18,0.013964422984545697,-1.17319989552979e-17,-0.013964422984545699,0.5315529699514545,0.6594716675275561,0.5315529699514546,1000.0,6.428571428571418,[0.07515988]
-9.081463743986981e-18,-0.02239297869994428,-6.0632512608065565e-18,-0.02239297869994428,-9.76734867302615e-19,0.01250941473345221,-6.0632512608065565e-18,0.01250941473345221,-1.3771961628966873e-18,0.0256501647563845,-9.331663916665344e-18,-0.025650164756384514,0.6520443758653657,0.38688016724134544,0.6520443758653657,1000.0,6.428571428571418,[0.08636361]
-9.248593932392095e-18,-0.046807937229541303,-7.07444316370568e-18,-0.046807937229541303,-1.4954896079366706e-18,0.016069297017701118,-7.07444316370568e-18,0.016069297017701118,-8.204572885341968e-19,0.049489446292394275,-6.025239893687038e-18,-0.049489446292394296,0.6902949525482835,0.21676198230484575,0.6902949525482831,1000.0,6.428571428571418,[0.08600218]
-9.958354602631996e-18,-0.10262868869715915,-7.992065222893419e-18,-0.10262868869715915,-2.5264875234227643e-18,0.02329889239333568,-7.992065222893419e-18,0.02329889239333568,-3.7875607632068074e-19,0.10524013554939313,-4.287143308070197e-18,-0.10524013554939314,0.7027521658651655,0.11080968704783141,0.7027521658651653,1000.0,6.428571428571418,[0.11340753]
-1.3240183756768784e-17,-0.28979519345851085,-8.526284932259766e-18,-0.28979519345851085,-7.353728289825022e-18,0.04098776786259889,-8.526284932259766e-18,0.04098776786259889,-7.933257644424575e-19,0.29267943430657034,-3.4282589826567305e-18,-0.2926794343065702,0.7068235362879011,0.028301538808562714,0.706823536287901,1000.0,6.428571428571418,[0.18828799]
-1.312297557269247e-17,-0.28681889047455017,-7.953029742606429e-18,-0.28681889047455017,-7.339619897297318e-18,0.04728389102422215,-7.953029742606429e-18,0.04728389102422215,-1.2952589601396346e-18,0.2906902858429269,-3.9459313764064795e-18,-0.2906902858429269,0.6965257625427494,0.17234768414018012,0.6965257625427493,1000.0,19.28571428571425,[0.30827329]
-9.884556857102465e-18,-0.0990669928291332,-6.838398904107549e-18,-0.0990669928291332,-2.455945560784242e-18,0.031042641299042592,-6.838398904107549e-18,0.031042641299042592,-1.6121551615311499e-18,0.10381673587157592,-6.26056080295443e-18,-0.10381673587157594,0.7067231912304774,0.03293420644284655,0.7067231912304772,1000.0,19.28571428571425,[0.10362049]
-9.168284621080547e-18,-0.04387196555551013,-5.310758440122167e-18,-0.04387196555551013,-1.3945603383154004e-18,0.022744373049223908,-5.310758440122167e-18,0.022744373049223908,-2.7983453948219922e-18,0.04941716166582343,-9.039344110374283e-18,-0.04941716166582346,0.700021649154525,0.14120687458462494,0.7000216491545248,1000.0,19.28571428571425,[0.06579872]
-9.001154432675433e-18,-0.01957487760003692,-3.658584280555702e-18,-0.01957487760003692,-8.334804200982316e-19,0.0191689655771245,-3.658584280555702e-18,0.0191689655771245,-4.108255377971166e-18,0.02739753774253101,-9.015113410655114e-18,-0.027397537742531012,0.6402603672173824,0.4244211638706595,0.6402603672173823,1000.0,19.28571428571425,[0.08661408]
-9.044564871222216e-18,-0.006464440251006176,-1.9640510290010085e-18,-0.006464440251006176,-4.341043854678289e-19,0.017458482817447468,-1.9640510290010085e-18,0.017458482817447468,-5.459947908221618e-18,0.018616863593149548,-6.454016848068049e-18,-0.01861686359314955,0.45076531106270973,0.770468213935576,0.45076531106270984,1000.0,19.28571428571425,[0.07632316]
-9.189989840353938e-18,0.0012317643495489499,-2.4184362287274125e-19,0.0012317643495489499,-1.2371974985833124e-19,0.016688287604143603,-2.4184362287274125e-19,0.016688287604143603,-6.8344309187091324e-18,0.01673368419002321,-8.673617379884035e-18,-0.016733684190023218,0.183779825222756,0.9656344814070107,0.18377982522275646,1000.0,19.28571428571425,[0.08949385]
-9.385336813814461e-18,0.0057369309892911155,1.4930477707684141e-18,0.0057369309892911155,1.5736283973208798e-19,0.016497358476097478,1.4930477707684141e-18,0.016497358476097478,-8.217596016906002e-18,0.01746640243051653,-1.2327097634555162e-17,-0.01746640243051654,0.0013658657316200859,0.9999981344090628,0.0013658657316202147,1000.0,19.28571428571425,[0.0762827]
-9.637117357385802e-18,0.008017204220127272,3.2377404274877107e-18,0.008017204220127272,3.896086859573765e-19,0.016736573873727137,3.2377404274877107e-18,0.016736573873727137,-9.611071094257732e-18,0.018557706446055037,-1.4462663224063803e-17,-0.01855770644605503,0.0777138381676052,0.9939422109531914,0.07771383816760487,1000.0,19.28571428571425,[0.07352703]
-9.906262076375856e-18,0.008460682304490767,4.990402969408955e-18,0.008460682304490767,6.077461396549605e-19,0.017361315273524674,4.990402969408955e-18,0.017361315273524674,-1.1009972476427811e-17,0.01931316683209267,-1.0989427732231162e-17,-0.019313166832092676,0.08244509247485708,0.9931795474402524,0.08244509247485719,1000.0,19.28571428571425,[0.07451099]
-1.0207964624275997e-17,0.007091052033387355,6.7562582149198085e-18,0.007091052033387355,7.94411025406127e-19,0.018401266846310785,6.7562582149198085e-18,0.018401266846310785,-1.2425152773052935e-17,0.019720285000205846,-1.7283763570541987e-17,-0.019720285000205843,0.02207248015327094,0.9995126868828464,0.02207248015327018,1000.0,19.28571428571425,[0.07632179]
-1.0550907088795582e-17,0.0035751470981507764,8.530219003253068e-18,0.0035751470981507764,9.53944387065554e-19,0.01996989353797683,8.530219003253068e-18,0.01996989353797683,-1.3844674113532735e-17,0.020287393245351764,-1.607513624192775e-17,-0.020287393245351774,0.112270359613675,0.9873149106057458,0.11227035961367586,1000.0,19.28571428571425,[0.0816907]
-1.0948112601498645e-17,-0.002969689477337212,1.0323171858450545e-17,-0.002969689477337212,1.073323093069207e-18,0.022320971734064297,1.0323171858450545e-17,0.022320971734064297,-1.5284815412322256e-17,0.022517656066844614,-9.717666240041437e-18,-0.022517656066844638,0.31952463558274,0.8920807219705142,0.3195246355827407,1000.0,19.28571428571425,[0.07229435]
-1.1429968469367936e-17,-0.01460685081483246,1.2153803617730426e-17,-0.01460685081483246,1.1091367048703029e-18,0.02601587501301168,1.2153803617730426e-17,0.02601587501301168,-1.67455766694215e-17,0.02983598236055613,-5.009071351882568e-18,-0.02983598236055615,0.5303934832606,0.6613361519147237,0.5303934832606001,1000.0,19.28571428571425,[0.07449951]
-1.2096318701061053e-17,-0.03672316306988575,1.404497259014e-17,-0.03672316306988575,9.74564345375276e-19,0.03246273255904117,1.404497259014e-17,0.03246273255904117,-1.8275794628195598e-17,0.049014484706638,-4.302958041588413e-18,-0.04901448470663807,0.6547336972331027,0.37768713429893613,0.6547336972331028,1000.0,19.28571428571425,[0.09497428]
-1.3268400541824193e-17,-0.0877642910247076,1.612782578025771e-17,-0.0877642910247076,3.288340719918804e-19,0.04610653130516196,1.612782578025771e-17,0.04610653130516196,-1.997314277537481e-17,0.0991382015575401,-5.493269142439008e-18,-0.09913820155754018,0.6994683462640315,0.14658807983366404,0.6994683462640319,1000.0,19.28571428571425,[0.1137446]
-1.6710848318584074e-17,-0.2637802191085685,1.891670905605271e-17,-0.2637802191085685,-4.1044569645983225e-18,0.07720094528671485,1.891670905605271e-17,0.07720094528671485,-2.2780712888387992e-17,0.2748453928049854,-1.2312006106977876e-17,-0.2748453928049854,0.7061554182651933,0.051856055667778976,0.7061554182651932,1000.0,19.28571428571425,[0.17126937]
-1.5803570152956312e-17,-0.25835400185952,2.0089130040866994e-17,-0.25835400185952,-4.0892633111069485e-18,0.08156936411296538,2.0089130040866994e-17,0.08156936411296538,-2.2983656688594202e-17,0.2709249922739177,-1.0274467932630772e-17,-0.27092499227391786,0.6842097827117973,0.25241621675904785,0.6842097827117972,1000.0,32.142857142857125,[0.45912821]
-1.101105773739148e-17,-0.08115642184333173,1.9252834725144245e-17,-0.08115642184333173,3.8635290306636774e-19,0.05150222192191625,1.9252834725144245e-17,0.05150222192191625,-2.0083839393669105e-17,0.09611890380828911,8.625220521889253e-18,-0.09611890380828908,0.7070996935851641,0.004477350057049005,0.7070996935851644,1000.0,32.142857142857125,[0.08332547]
-8.460694472767986e-18,-0.031117005677144764,1.914047630099933e-17,-0.031117005677144764,1.0744083540328766e-18,0.03714397501374196,1.914047630099933e-17,0.03714397501374196,-1.8313778761924033e-17,0.04845557679083952,9.144225899570351e-18,-0.04845557679083956,0.67286794277797,0.3074043967861959,0.6728679427779701,1000.0,32.142857142857125,[0.08216817]
-6.394357597941121e-18,-0.009088333634140366,1.923967593595975e-17,-0.009088333634140366,1.2393680205106516e-18,0.030711381752959146,1.923967593595975e-17,0.030711381752959146,-1.674991771327618e-17,0.0320279062291221,4.63805145454665e-18,-0.03202790622912214,0.5306352579252805,0.6609481417578397,0.5306352579252812,1000.0,32.142857142857125,[0.06849241]
-4.514685608865421e-18,0.002884720637851823,1.9410875852978626e-17,0.002884720637851823,1.245879586292669e-18,0.027368369662788335,1.9410875852978626e-17,0.027368369662788335,-1.525334284437584e-17,0.027519979490498912,-9.069093178378005e-18,-0.027519979490498923,0.3113709972717718,0.8978286050889469,0.3113709972717726,1000.0,32.142857142857125,[0.07604626]
-2.6957882337552176e-18,0.01000941185007165,1.961849984109066e-17,0.01000941185007165,1.1764228846178164e-18,0.02556366509920945,1.961849984109066e-17,0.02556366509920945,-1.3789325804385587e-17,0.027453402319000356,-1.922334060801895e-17,-0.027453402319000356,0.13201499134878994,0.9824174693674567,0.1320149913487908,1000.0,32.142857142857125,[0.07994836]
-9.44177038392528e-19,0.014287065621027571,1.9848236021337464e-17,0.014287065621027571,1.0592147005415026e-18,0.02468644381523015,1.9848236021337464e-17,0.02468644381523015,-1.2347013983668724e-17,0.028522635788125597,-2.1323717472799965e-17,-0.028522635788125587,0.025702785016842485,0.9993391484800124,0.025702785016843043,1000.0,32.142857142857125,[0.07937199]
7.727058061327355e-19,0.016589932023030707,2.0099440020021855e-17,0.016589932023030707,9.029371217730842e-19,0.024474671768629504,2.0099440020021855e-17,0.024474671768629504,-1.0920981077406906e-17,0.02956747203788191,-2.1769108773985227e-17,-0.02956747203788192,0.024531707143139424,0.9993980141511621,0.024531707143139205,1000.0,32.142857142857125,[0.07031469]
2.491759172585338e-18,0.017274172216899947,2.0353255427900076e-17,0.017274172216899947,7.292953675859526e-19,0.024833260431914146,2.0353255427900076e-17,0.024833260431914146,-9.505800780781784e-18,0.03025041899641047,-1.9446165561383025e-17,-0.030250418996410452,0.0330610155894382,0.9989063712362586,0.03306101558943764,1000.0,32.142857142857125,[0.07061013]
4.147867403145105e-18,0.016373965296790957,2.0631489207460863e-17,0.016373965296790957,5.230957844887339e-19,0.025778708399273192,2.0631489207460863e-17,0.025778708399273192,-8.106899398611705e-18,0.030539295117524786,-1.8563709289433614e-17,-0.030539295117524765,0.0034530227577771935,0.9999880765627502,0.0034530227577765794,1000.0,32.142857142857125,[0.0669545]
5.8018051117775336e-18,0.01361243086716506,2.092315309144706e-17,0.01361243086716506,2.8867941633610623e-19,0.027444361590593182,2.092315309144706e-17,0.027444361590593182,-6.723191669933001e-18,0.030634804670971467,-1.2221917526860387e-17,-0.030634804670971447,0.07098363422577222,0.9949485651752074,0.07098363422577307,1000.0,32.142857142857125,[0.06891429]
7.386286118735109e-18,0.008237865066724403,2.1238150086152154e-17,0.008237865066724403,1.9534697346052302e-20,0.030150384782115496,2.1238150086152154e-17,0.030150384782115496,-5.366615465346035e-18,0.03125552948467167,-8.267668832347539e-18,-0.03125552948467167,0.20509871531283264,0.9570104670033921,0.20509871531283394,1000.0,32.142857142857125,[0.08192343]
8.920845121363884e-18,-0.0015202313432307864,2.1597981924418847e-17,-0.0015202313432307864,-3.3860142066490656e-19,0.03461884472365105,2.1597981924418847e-17,0.03461884472365105,-4.056705482196861e-18,0.03465220791431915,3.469446951953614e-18,-0.03465220791431917,0.4021079938816743,0.8225681263657806,0.4021079938816749,1000.0,32.142857142857125,[0.06568882]
1.0294785501369563e-17,-0.020312002917992546,2.2047551278618967e-17,-0.020312002917992546,-8.638677270809797e-19,0.042669401112938515,2.2047551278618967e-17,0.042669401112938515,-2.836872159032262e-18,0.047257330160276466,1.5917262397155364e-17,-0.047257330160276466,0.5970220854585491,0.5358444354002845,0.597022085458549,1000.0,32.142857142857125,[0.07549469]
1.1258497237108143e-17,-0.06426375614368332,2.273347012206325e-17,-0.06426375614368332,-1.8948656425670733e-18,0.060018994089267155,2.273347012206325e-17,0.060018994089267155,-1.888354076785056e-18,0.08793241725997464,2.811237716824381e-17,-0.08793241725997457,0.6943472863970698,0.18911290740203662,0.6943472863970696,1000.0,32.142857142857125,[0.09019898]
1.0299126545224241e-17,-0.22441769870737518,2.4309811671793305e-17,-0.22441769870737518,-6.7199358870419925e-18,0.09835454834938928,2.4309811671793305e-17,0.09835454834938928,-2.415790905128468e-18,0.24502432669864985,1.9167283939438187e-17,-0.24502432669864949,0.6993823174748272,0.14740674342471635,0.6993823174748272,1000.0,32.142857142857125,[0.26134884]
1.1028421912810194e-17,-0.2176212612822014,2.395452436381198e-17,-0.2176212612822014,-6.804586242208219e-18,0.09992663191430061,2.395452436381198e-17,0.09992663191430061,-1.9404466030411953e-18,0.23946679337184146,1.49522240583178e-17,-0.2394667933718419,0.6630311633718184,0.34753323984278967,0.6630311633718184,1000.0,45.0,[0.50254025]
1.2836466678283703e-17,-0.05593185179972979,2.1521369283264798e-17,-0.05593185179972979,-2.1379640984290574e-18,0.06198783983402663,2.1521369283264798e-17,0.06198783983402663,1.4976601298640098e-19,0.08349170218073092,3.130444020261411e-17,-0.08349170218073099,0.7061761142352844,0.05128929095931397,0.7061761142352844,1000.0,45.0,[0.10382518]
1.2751816323117476e-17,-0.013167408193545733,1.9991015666870242e-17,-0.013167408193545733,-1.2654142836387213e-18,0.04441302787817203,1.9991015666870242e-17,0.04441302787817203,7.314658895132917e-19,0.046323834943177364,2.2175181692678963e-17,-0.04632383494317738,0.6214990203460936,0.47694647018055564,0.6214990203460938,1000.0,45.0,[0.14251327]
1.2285154108739559e-17,0.005576843377603211,1.8704540537655308e-17,0.005576843377603211,-9.072781656277625e-19,0.03639740654411702,1.8704540537655308e-17,0.03639740654411702,1.0082074352490327e-18,0.03682217246708903,5.80611797867045e-18,-0.03682217246708903,0.41850549684515015,0.8060436081384109,0.4185054968451507,1000.0,45.0,[0.1278627]
1.1694772144503311e-17,0.015815515706809596,1.750909167176816e-17,0.015815515706809596,-7.075901483125611e-19,0.03208460811691107,1.750909167176816e-17,0.03208460811691107,1.1861902332908425e-18,0.035770834699348227,-2.434812274299945e-18,-0.035770834699348254,0.22740722360607815,0.9468748118434405,0.22740722360607812,1000.0,45.0,[0.15114599]
1.1045786088228907e-17,0.02197480044799091,1.6360783828990408e-17,0.02197480044799091,-5.903819642362473e-19,0.029603963834940825,1.6360783828990408e-17,0.029603963834940825,1.3023131564034868e-18,0.03686850321710258,-6.845394644279764e-18,-0.03686850321710261,0.10346451199856271,0.9892371755619572,0.10346451199856267,1000.0,45.0,[0.13926078]
1.032734333027965e-17,0.02574776254255954,1.5235910840146896e-17,0.02574776254255954,-5.187547406340556e-19,0.028215816333037207,1.5235910840146896e-17,0.028215816333037207,1.3934750773517308e-18,0.03819790003766859,-8.274565104963747e-18,-0.03819790003766858,0.03230614494571453,0.9989557677882905,0.03230614494571424,1000.0,45.0,[0.13418731]
9.611071094257732e-18,0.027873089977714545,1.412831724070931e-17,0.027873089977714545,-4.753443020872727e-19,0.0275971027920683,1.412831724070931e-17,0.0275971027920683,1.4585907351719052e-18,0.03922383494027268,-9.743010431568991e-18,-0.03922383494027266,0.0035181055863928415,0.9999876228564861,0.003518105586392652,1000.0,45.0,[0.12902853]
8.868752595107745e-18,0.02865629887129706,1.303968179373083e-17,0.02865629887129706,-4.6449169245057695e-19,0.027621079266838596,1.303968179373083e-17,0.027621079266838596,1.502001173718688e-18,0.03980084779079564,-7.579387045442408e-18,-0.03980084779079564,0.01300499438981627,0.9998308558160435,0.013004994389816466,1000.0,45.0,[0.13832617]
8.104728876684366e-18,0.02813533024557946,1.1965731284167e-17,0.02813533024557946,-4.710032582325944e-19,0.028287768906338877,1.1965731284167e-17,0.028287768906338877,1.530217958774097e-18,0.03989730163465011,-6.821038674517463e-18,-0.039897301634650044,0.0019103881028759845,0.9999963504106367,0.0019103881028767426,1000.0,45.0,[0.13234963]
7.323340982842274e-18,0.026092673240074454,1.0904006917647012e-17,0.026092673240074454,-5.10072652924699e-19,0.02972396269615138,1.0904006917647012e-17,0.02972396269615138,1.5323884807014361e-18,0.03955175792775204,-9.102308757537019e-18,-0.03955175792775202,0.04590553803841142,0.9978904564904947,0.04590553803841142,1000.0,45.0,[0.13249147]
6.4942016065987215e-18,0.0219234467903843,9.877909633699988e-18,0.0219234467903843,-6.0557561772762135e-19,0.0322527733957162,9.877909633699988e-18,0.0322527733957162,1.4911485640819924e-18,0.03899844754456553,-4.725554192887833e-18,-0.03899844754456555,0.13243253585322917,0.9823050681407312,0.13243253585322912,1000.0,45.0,[0.14352554]
5.630333879517741e-18,0.014190796639575327,8.893323581613326e-18,0.014190796639575327,-7.683647622780572e-19,0.03661391640816783,8.893323581613326e-18,0.03661391640816783,1.3934750773517308e-18,0.039267767749263334,2.5952931784433673e-18,-0.039267767749263306,0.2855155901880006,0.9148561064556521,0.28551559018800066,1000.0,45.0,[0.14445774]
4.6449169245057695e-18,-0.0009131026677165607,8.000255551728612e-18,-0.0009131026677165607,-1.0982840952336072e-18,0.04467814330187693,8.000255551728612e-18,0.04467814330187693,1.1503766214897466e-18,0.04468747302527679,0.0,-0.04468747302527682,0.5101121509355148,0.6925107847072746,0.5101121509355149,1000.0,45.0,[0.13421276]
3.3599679435209963e-18,-0.03687297205368804,7.344096598772455e-18,-0.03687297205368804,-1.9469581688232127e-18,0.06230200171271375,7.344096598772455e-18,0.06230200171271375,5.339483941254296e-19,0.07239582505561384,1.489510577490406e-17,-0.07239582505561384,0.6849495374230244,0.24837121888006736,0.6849495374230243,1000.0,45.0,[0.15912621]
5.86040920381569e-19,-0.17959726767015669,7.593062246719277e-18,-0.17959726767015669,-6.5831930056196264e-18,0.1002908863987168,7.593062246719277e-18,0.1002908863987168,-1.964322344241926e-18,0.2057023102671096,1.3787393170016079e-17,-0.2057023102671095,0.6803233121335188,0.27261764787951165,0.680323312133519,1000.0,45.0,[0.45655136]
-1.5627757876841841e-19,-0.17278429508412607,6.585473749363588e-18,-0.17278429508412607,-6.544123610927522e-18,0.09876331227491837,6.585473749363588e-18,0.09876331227491837,-1.8818425110030384e-18,0.19901910581457088,6.652785839950071e-18,-0.19901910581457108,0.6237293717538069,0.47108740337988547,0.6237293717538068,1000.0,57.8571428571429,[0.47170813]
5.86040920381569e-19,-0.028488869074764382,4.457310914012671e-18,-0.028488869074764382,-1.8254089408922206e-18,0.06047814229340838,4.457310914012671e-18,0.06047814229340838,1.39564559927907e-18,0.0668522352387773,3.40626293101576e-18,-0.06685223523877734,0.7019563763590186,0.12047610293262086,0.7019563763590185,1000.0,57.8571428571429,[0.08622239]
-1.64959666477775e-19,0.006319090614751532,3.227269354908555e-18,0.006319090614751532,-9.051076437004233e-19,0.04317879324158831,3.227269354908555e-18,0.04317879324158831,2.758733369648053e-18,0.043638733849612005,1.2700844242726508e-18,-0.04363873384961202,0.5379380212083792,0.6490341829802392,0.5379380212083793,1000.0,57.8571428571429,[0.13849151]
-1.1677407969084598e-18,0.021410913301862358,2.2218174650750892e-18,0.021410913301862358,-4.992200432880033e-19,0.035178887578800354,2.2218174650750892e-18,0.035178887578800354,3.718104061531955e-18,0.04118229400727627,-3.4785431890603415e-18,-0.04118229400727623,0.3158541600008816,0.8946911753338549,0.31585416000088185,1000.0,57.8571428571429,[0.14616738]
-2.2877301114154584e-18,0.02965974197632259,1.3133777310721492e-18,0.02965974197632259,-2.5178054357134078e-19,0.030761622565300448,1.3133777310721492e-18,0.030761622565300448,4.5255382185021165e-18,0.042731460505721484,-4.339987417954841e-19,-0.042731460505721484,0.1698897304113768,0.9707084830171723,0.16988973041137684,1000.0,57.8571428571429,[0.14477787]
-3.4381067329052055e-18,0.034649519184180695,4.474624217823712e-19,0.034649519184180695,-8.24798332388875e-20,0.028107378157471722,4.474624217823712e-19,0.028107378157471722,5.2591746299427474e-18,0.04461629619972979,3.54106805686127e-18,-0.04461629619972983,0.08502058846765723,0.9927451833543323,0.08502058846765694,1000.0,57.8571428571429,[0.13635982]
-4.6015064859589866e-18,0.03773972073144412,-3.929619727630899e-19,0.03773972073144412,3.0387306982748025e-20,0.026494098491149178,-3.929619727630899e-19,0.026494098491149178,5.947230080909256e-18,0.046110994087593754,7.027528136491465e-18,-0.046110994087593754,0.03610525536221513,0.9986955597530505,0.03610525536221502,1000.0,57.8571428571429,[0.13846606]
-5.7996345898501944e-18,0.03952226039280258,-1.2235829845800904e-18,0.03952226039280258,1.215492279309921e-19,0.025601617010980113,-1.2235829845800904e-18,0.025601617010980113,6.604898224893018e-18,0.04708982756533942,4.560358924725929e-18,-0.04708982756533939,0.009766464243281741,0.999904611626714,0.009766464243281694,1000.0,57.8571428571429,[0.13992929]
-7.006444781450759e-18,0.04024332787458295,-2.0383956443130135e-18,0.04024332787458295,1.844943638238273e-19,0.025296578560356924,-2.0383956443130135e-18,0.025296578560356924,7.23217906189403e-18,0.04753359154620545,6.906030494659945e-18,-0.04753359154620547,0.00012620641633178758,0.9999999840719405,0.00012620641633162956,1000.0,57.8571428571429,[0.13666333]
-8.243642280034071e-18,0.039937140443465656,-2.837006491871271e-18,0.039937140443465656,2.235637585159319e-19,0.025562470159682393,-2.837006491871271e-18,0.025562470159682393,7.83992520154899e-18,0.04741745530356676,7.939328057219478e-18,-0.04741745530356675,0.005913088687768312,0.999965034770887,0.005913088687768163,1000.0,57.8571428571429,[0.13330728]
-9.459134559343992e-18,0.03843686572268049,-3.616517700311588e-18,0.03843686572268049,2.2573428044327104e-19,0.02649436244186281,-3.616517700311588e-18,0.02649436244186281,8.406431424584507e-18,0.046683443401104835,7.133376504958104e-18,-0.04668344340110486,0.03004788785831346,0.9990967164746908,0.030047887858312947,1000.0,57.8571428571429,[0.13846606]
-1.0713696233346018e-17,0.035271214027456456,-4.377048235008155e-18,0.035271214027456456,1.8883540767850558e-19,0.028354270221532217,-4.377048235008155e-18,0.028354270221532217,8.93169773100058e-18,0.04525509008682129,8.039923326604681e-18,-0.04525509008682132,0.08191874749221022,0.9932666498068962,0.08191874749220981,1000.0,57.8571428571429,[0.13635982]
-1.2020350433604183e-17,0.029311618824194263,-5.098445785503028e-18,0.029311618824194263,7.379774552953092e-20,0.03175300194357239,-5.098445785503028e-18,0.03175300194357239,9.372313682250426e-18,0.04321370304108839,2.3046856552033232e-18,-0.04321370304108839,0.18476001671460465,0.965260313307886,0.1847600167146044,1000.0,57.8571428571429,[0.15743394]
-1.337475611626381e-17,0.01753134934094962,-5.747715874920268e-18,0.01753134934094962,-2.1705219273391446e-19,0.038241833410358035,-5.747715874920268e-18,0.038241833410358035,9.632776313531124e-18,0.04206882494555785,2.309390772053451e-19,-0.042068824945557845,0.3874832462255761,0.8364887732593783,0.3874832462255758,1000.0,57.8571428571429,[0.13570481]
-1.4941872947802672e-17,-0.011113735160188775,-6.187963007014493e-18,-0.011113735160188775,-1.0006106085033457e-18,0.052656919195582415,-6.187963007014493e-18,0.052656919195582415,9.420065164651888e-18,0.05381696989222742,-1.1595675688500666e-17,-0.05381696989222741,0.6635083614297833,0.34570696930424777,0.6635083614297833,1000.0,57.8571428571429,[0.11788139]
-1.7628979093848533e-17,-0.13828920465904856,-5.901530420017233e-18,-0.13828920465904856,-5.593435006752976e-18,0.08278194298169288,-5.901530420017233e-18,0.08278194298169288,6.947840689412602e-18,0.16117305670941542,-6.887497222083578e-18,-0.16117305670941554,0.6303066680355254,0.4532405635641056,0.6303066680355254,1000.0,57.8571428571429,[0.26947152]
-1.6513330823196212e-17,-0.1328107869770482,-6.496456914538847e-18,-0.1328107869770482,-5.6498685768637934e-18,0.07846534061748194,-6.496456914538847e-18,0.07846534061748194,7.468765951973997e-18,0.15425794895460115,-1.0740099374907375e-18,-0.15425794895460126,0.5405673067526391,0.6446502724271482,0.5405673067526392,1000.0,70.71428571428567,[0.26231965]
-1.2076784003715e-17,-0.004341902946974671,-7.572204887573753e-18,-0.004341902946974671,-1.1677407969084598e-18,0.047425606966897314,-7.572204887573753e-18,0.047425606966897314,1.1473378907914718e-17,0.047623946889979264,-1.5679413716715072e-17,-0.04762394688997926,0.6859388780539515,0.24284915307279334,0.6859388780539513,1000.0,70.71428571428567,[0.10630003]
-8.768908586450144e-18,0.023412526450533683,-7.946764056261493e-18,0.023412526450533683,-4.775148240146118e-19,0.0338361011364369,-7.946764056261493e-18,0.0338361011364369,1.3192432274367323e-17,0.04114642311200483,5.312698655219017e-18,-0.04114642311200487,0.4159603957294018,0.8086741608146503,0.41596039572940124,1000.0,70.71428571428567,[0.14109266]
-5.6042876163896714e-18,0.035216254135877874,-8.133886786481707e-18,0.035216254135877874,-2.973615040454628e-19,0.027443475316731275,-8.133886786481707e-18,0.027443475316731275,1.441226559753192e-17,0.0446467120046121,1.7945352390823807e-17,-0.0446467120046121,0.2260413484845773,0.9475286895659402,0.226041348484577,1000.0,70.71428571428567,[0.16256941]
-2.5134643918587295e-18,0.041623097359702745,-8.252188710122969e-18,0.041623097359702745,-2.930204601907845e-19,0.023802763222599617,-8.252188710122969e-18,0.023802763222599617,1.5436751947235997e-17,0.047948449097405,1.531209689892195e-17,-0.04794844909740502,0.1285928010542484,0.9833248613932453,0.12859280105424822,1000.0,70.71428571428567,[0.15295664]
5.296073502707513e-19,0.045480306502690485,-8.343316716666099e-18,0.045480306502690485,-3.60306639938298e-19,0.02150578480352589,-8.343316716666099e-18,0.02150578480352589,1.638961107333788e-17,0.050308618144352106,1.9684421762236468e-17,-0.05030861814435212,0.07418090941791132,0.994481968341238,0.07418090941791126,1000.0,70.71428571428567,[0.14208934]
3.581361180109589e-18,0.04785443749794231,-8.40558356445664e-18,0.04785443749794231,-4.688327363052552e-19,0.019991096071590587,-8.40558356445664e-18,0.019991096071590587,1.7273013497764913e-17,0.05186223202281245,2.1216733237365938e-17,-0.05186223202281243,0.04177481799076844,0.9982533391698104,0.041774817990768466,1000.0,70.71428571428567,[0.1434837]
6.6287739660937484e-18,0.049206416205773686,-8.462017134567458e-18,0.049206416205773686,-6.164282273643171e-19,0.01900484302138386,-8.462017134567458e-18,0.01900484302138386,1.8123858093281858e-17,0.052748985337002195,2.2972743285022113e-17,-0.05274898533700215,0.02260781877932397,0.9994887558447481,0.022607818779324027,1000.0,70.71428571428567,[0.14338096]
9.663163620513872e-18,0.04972610513212384,-8.505987160798633e-18,0.04972610513212384,-7.813878938420922e-19,0.018433480014835954,-8.505987160798633e-18,0.018433480014835954,1.8939974337961376e-17,0.05303280793120789,2.3411339244536082e-17,-0.0530328079312079,0.013007557853964574,0.9998307891225151,0.013007557853964737,1000.0,70.71428571428567,[0.1493184]
1.2675848055660606e-17,0.049437182637704684,-8.545683971985359e-18,0.049437182637704684,-9.789053892299542e-19,0.01824724104339568,-8.545683971985359e-18,0.01824724104339568,1.9730044319512825e-17,0.05269721845457839,2.4608405734278656e-17,-0.05269721845457836,0.012012061506593725,0.9998556999671122,0.01201206150659375,1000.0,70.71428571428567,[0.1493184]
1.5692873534662016e-17,0.04820470249433603,-8.57191676434156e-18,0.04820470249433603,-1.2089807135279036e-18,0.018490663005986528,-8.57191676434156e-18,0.018490663005986528,2.047670386251749e-17,0.05162942921404814,2.574616204483332e-17,-0.05162942921404813,0.02098231647577952,0.9995596454392407,0.020982316475779764,1000.0,70.71428571428567,[0.14338096]
1.8692534838244713e-17,0.04565121534704041,-8.584261607803301e-18,0.04565121534704041,-1.4802959544452966e-18,0.019312787676998174,-8.584261607803301e-18,0.019312787676998174,2.1164759313484e-17,0.04956830873167522,2.6389212558893485e-17,-0.04956830873167524,0.044955348426670275,0.9979769703233003,0.044955348426670386,1000.0,70.71428571428567,[0.1434837]
2.1650956225207968e-17,0.040869968634169494,-8.576800438678073e-18,0.040869968634169494,-1.8275794628195598e-18,0.02107456177983562,-8.576800438678073e-18,0.02107456177983562,2.1759482321574925e-17,0.0459836002328016,2.825502968887189e-17,-0.04598360023280152,0.09831417206262028,0.9902871538817832,0.09831417206262037,1000.0,70.71428571428567,[0.14560958]
2.4600695524461865e-17,0.03139934429308153,-8.517958945804113e-18,0.03139934429308153,-2.3376521157442588e-18,0.024700562111101103,-8.517958945804113e-18,0.024700562111101103,2.215017626849597e-17,0.03995042666405246,2.6690223978599005e-17,-0.039950426664052435,0.22910197067356075,0.9460573841300444,0.2291019706735608,1000.0,70.71428571428567,[0.16256941]
2.741152142036606e-17,0.007951341718616006,-8.342638428563805e-18,0.007951341718616006,-3.368650031230353e-18,0.033048717841835024,-8.342638428563805e-18,0.033048717841835024,2.1985216602018196e-17,0.033991787039157395,3.067662127494569e-17,-0.03399178703915737,0.5942790482396245,0.5419085030213241,0.5942790482396243,1000.0,70.71428571428567,[0.15279557]
2.9345456457625235e-17,-0.10862798726098523,-7.751866448668739e-18,-0.10862798726098523,-8.198061319559949e-18,0.049339372332863535,-7.751866448668739e-18,0.049339372332863535,1.9304622021754352e-17,0.11930806040906747,1.5167885100960108e-17,-0.11930806040906751,0.4886480712489572,0.7228043476137564,0.48864807124895715,1000.0,70.71428571428567,[0.25185394]
2.997273729462625e-17,-0.1055633403155109,-7.341536061186297e-18,-0.1055633403155109,-8.24798332388875e-18,0.04308482948672918,-7.341536061186297e-18,0.04308482948672918,1.865129492162527e-17,0.11401719760838235,1.6285325182357866e-17,-0.11401719760838232,0.3388221524745611,0.8777238164622231,0.33882215247456093,1000.0,83.57142857142856,[0.25174224]
2.90329013000884e-17,0.011788269436671318,-6.534441048267282e-18,0.011788269436671318,-3.5357802196354666e-18,0.025434456201610042,-6.534441048267282e-18,0.025434456201610042,2.0281356889056967e-17,0.028033459625654112,3.420046597026996e-17,-0.0280334596256541,0.6042245358528638,0.5194472259496461,0.6042245358528637,1000.0,83.57142857142856,[0.16209008]
2.723570914425159e-17,0.034795697614525924,-5.356356357798846e-18,0.034795697614525924,-2.61330840051633e-18,0.018241724672825577,-5.356356357798846e-18,0.018241724672825577,1.938276081113856e-17,0.03928741645260858,2.612280216290319e-17,-0.039287416452608574,0.25613639842633673,0.9320881346752409,0.2561363984263368,1000.0,83.57142857142856,[0.15954121]
2.531045619470177e-17,0.04433278436121227,-4.081836056386835e-18,0.04433278436121227,-2.20742080010391e-18,0.014717171951022016,-4.081836056386835e-18,0.014717171951022016,1.7919829032111978e-17,0.046711785659014314,2.106786229047877e-17,-0.04671178565901432,0.14624389983459776,0.9783789876741712,0.14624389983459782,1000.0,83.57142857142856,[0.17066827]
2.337000959166057e-17,0.04941552536971082,-2.775046198508211e-18,0.04941552536971082,-1.9708339100239433e-18,0.012568096808497117,-2.775046198508211e-18,0.012568096808497117,1.6248527148060837e-17,0.05098873605956796,1.7809244148926655e-17,-0.050988736059568,0.09646911625477418,0.990649998343535,0.09646911625477425,1000.0,83.57142857142856,[0.16338823]
2.1397005159709288e-17,0.05240594123965312,-1.4492473165628125e-18,0.05240594123965312,-1.80153319969149e-18,0.011076712644962221,-1.4492473165628125e-18,0.011076712644962221,1.4473040211497416e-17,0.05356375864549685,1.534126990710662e-17,-0.05356375864549689,0.06784713595849508,0.9953861222080902,0.06784713595849516,1000.0,83.57142857142856,[0.16087949]
1.941097759619397e-17,0.054176353114981014,-1.154615922129081e-19,0.054176353114981014,-1.677813449833159e-18,0.009953431835157898,-1.154615922129081e-19,0.009953431835157898,1.2636778660968502e-17,0.05508310123927523,1.2912774179551438e-17,-0.05508310123927523,0.049102126485547355,0.9975860676398779,0.04910212648554741,1000.0,83.57142857142856,[0.16087949]
1.742929107653333e-17,0.055098432915749514,1.2228517052198053e-18,0.055098432915749514,-1.5931630946669323e-18,0.00906103178304524,1.2228517052198053e-18,0.00906103178304524,1.0763618237674818e-17,0.05583851365092651,1.0519604564946586e-17,-0.05583851365092653,0.03590069016629241,0.9987103087938803,0.03590069016629237,1000.0,83.57142857142856,[0.16257533]
1.5441092991090675e-17,0.05531987923149947,2.5600627844862917e-18,0.05531987923149947,-1.5367295245561144e-18,0.008328299682696957,2.5600627844862917e-18,0.008328299682696957,8.849217897761693e-18,0.05594327138979715,8.176252896930884e-18,-0.05594327138979714,0.026316785598848116,0.9993071868006798,0.026316785598848088,1000.0,83.57142857142856,[0.16983405]
1.3455065427575359e-17,0.05484911460756227,3.902886697799257e-18,0.05484911460756227,-1.499830651791349e-18,0.00771813661798872,3.902886697799257e-18,0.00771813661798872,6.906600772793159e-18,0.05538948461655371,5.940526647892485e-18,-0.0553894846165537,0.019512373988238994,0.9996191947550259,0.019512373988238914,1000.0,83.57142857142856,[0.16772037]
1.144299160093197e-17,0.05355798389060149,5.260158147691073e-18,0.05355798389060149,-1.4976601298640098e-18,0.0072157318823669134,5.260158147691073e-18,0.0072157318823669134,4.918402687350502e-18,0.05404187658681124,3.633939425140953e-18,-0.05404187658681124,0.015358093776920153,0.9997641011314014,0.015358093776920056,1000.0,83.57142857142856,[0.16671419]
9.435258818143262e-18,0.051104552959190135,6.612189821992673e-18,0.051104552959190135,-1.5280474368467578e-18,0.006827606811491611,6.612189821992673e-18,0.006827606811491611,2.86725946601501e-18,0.051558622440199,1.226357738416794e-18,-0.051558622440199,0.014575645156170275,0.9997875279961053,0.014575645156170122,1000.0,83.57142857142856,[0.16671419]
7.416673425717857e-18,0.04667348254982579,7.964950656004237e-18,0.04667348254982579,-1.6452556209230718e-18,0.006593247150250321,7.964950656004237e-18,0.006593247150250321,7.227838018039352e-19,0.04713687390263778,-1.3522784930451365e-18,-0.04713687390263781,0.01989178249409254,0.9996042386756949,0.019891782494092323,1000.0,83.57142857142856,[0.16772037]
5.352507072818331e-18,0.03804034058118903,9.325630503610078e-18,0.03804034058118903,-1.936105559186517e-18,0.006627066879306262,9.325630503610078e-18,0.006627066879306262,-1.6495966647777501e-18,0.03861328174288811,-4.6068627426679576e-18,-0.03861328174288807,0.04259915929285752,0.9981836620858325,0.04259915929285722,1000.0,83.57142857142856,[0.16087949]
3.205860886679917e-18,0.016640888011810597,1.0705098931649448e-17,0.016640888011810597,-2.7283460626653048e-18,0.00724150671021128,1.0705098931649448e-17,0.00724150671021128,-4.6015064859589866e-18,0.01814823884721756,-1.1072164997682968e-17,-0.018148238847217567,0.20778041878675418,0.9558528103937354,0.20778041878675385,1000.0,83.57142857142856,[0.16722105]
2.9519098211812367e-19,-0.09639646176258516,1.2097692234468197e-17,-0.09639646176258516,-7.327682026696952e-18,0.006450732519643124,1.2097692234468197e-17,0.006450732519643124,-1.0166724707656553e-17,0.09661205820385739,-8.508534384502034e-18,-0.0966120582038574,0.12591041906122763,0.9840188680831542,0.12591041906122777,1000.0,83.57142857142856,[0.26808106]
