stress_11,stress_12,stress_13,stress_21,stress_22,stress_23,stress_31,stress_32,stress_33,e1,e2,e3,anev1,anev2,anev3,temp,miss,velo
-2.7109818872465916e-18,-0.10695686457358813,-1.7094555898051498e-19,-0.10695686457358813,-3.459811952178597e-18,-0.043769850213241125,-1.7094555898051498e-19,-0.043769850213241125,-1.4784510108070584e-17,0.11556630420283603,-1.253576775904013e-17,-0.11556630420283605,0.46892673551092984,0.7484754060395872,0.46892673551093006,300.0,109.28571428571416,[0.44848767]
-1.7906805900547943e-18,0.009717771855921405,3.9823990205906107e-19,0.009717771855921405,9.962695646486674e-19,-0.027505284047732587,3.9823990205906107e-19,-0.027505284047732587,-1.1185784752542282e-17,0.029171488484309303,-1.2036842529769917e-18,-0.02917148848430932,0.5515055122473939,0.6258460992300571,0.5515055122473943,300.0,109.28571428571416,[0.27821562]
-1.7342470199439767e-18,0.033258005454900305,5.467086890498257e-19,0.033258005454900305,1.662619796341785e-18,-0.019193104714060792,5.467086890498257e-19,-0.019193104714060792,-1.0103779571763718e-17,0.03839883065150656,-7.828586702116513e-18,-0.03839883065150658,0.13132751612770974,0.9826017336721182,0.13132751612770982,300.0,109.28571428571416,[0.29190515]
-1.814556331255525e-18,0.04281933169640436,5.73763905730057e-19,0.04281933169640436,1.8102152874008466e-18,-0.015608339216046466,5.73763905730057e-19,-0.015608339216046466,-9.577428004383976e-18,0.04557538173191616,-7.805283494806678e-18,-0.04557538173191612,0.009155811780186915,0.99991616759671,0.009155811780186967,300.0,109.28571428571416,[0.26925586]
-1.9100592960584473e-18,0.04769010566321607,5.535848346868259e-19,0.04769010566321607,1.788510068127455e-18,-0.013891837888508304,5.535848346868259e-19,-0.013891837888508304,-9.255105498174113e-18,0.049672218976902056,-8.377150698262754e-18,-0.049672218976902056,0.03756408713518379,0.9985879424043737,0.03756408713518382,300.0,109.28571428571416,[0.27568399]
-2.0381200897714568e-18,0.05033202738925733,5.0870759811883335e-19,0.05033202738925733,1.7016891910338896e-18,-0.013118582995255793,5.0870759811883335e-19,-0.013118582995255793,-9.026115434839833e-18,0.05201355785673926,-8.356431905042327e-18,-0.05201355785673925,0.057657724549523205,0.9966700424912663,0.05765772454952316,300.0,109.28571428571416,[0.27568399]
-2.1661808834844663e-18,0.051651862226094226,4.5314732393971845e-19,0.051651862226094226,1.5519231780474886e-18,-0.012927386055864817,4.5314732393971845e-19,-0.012927386055864817,-8.861155768362058e-18,0.05324502025223382,-8.331077336171595e-18,-0.05324502025223384,0.064509898847676,0.9958297775731177,0.0645098988476759,300.0,109.28571428571416,[0.27568399]
-2.324628984180224e-18,0.05202705038941418,3.9139767082717557e-19,0.05202705038941418,1.3978161212064091e-18,-0.013169028657859592,3.9139767082717557e-19,-0.013169028657859592,-8.730924452721709e-18,0.05366784221500028,-8.158443873525105e-18,-0.0536678422150003,0.06262921162956901,0.9960698588459131,0.06262921162956901,300.0,109.28571428571416,[0.27568399]
-2.4830770848759814e-18,0.051592522020159556,3.115885969910686e-19,0.051592522020159556,1.1872754942545121e-18,-0.013798821094675376,3.115885969910686e-19,-0.013798821094675376,-8.629995183100439e-18,0.053405952776853546,-8.027046392824769e-18,-0.053405952776853526,0.05316549171793229,0.9971694244113087,0.05316549171793215,300.0,109.28571428571416,[0.27568399]
-2.6502072732810956e-18,0.05032458194525588,2.2951149731291787e-19,0.05032458194525588,9.637117357385802e-19,-0.014846385264374484,2.2951149731291787e-19,-0.014846385264374484,-8.563794264316595e-18,0.05246883554437823,-8.222352488700256e-18,-0.05246883554437825,0.03514588922839066,0.998764002625591,0.03514588922839063,300.0,109.28571428571416,[0.27568399]
-2.8260195493955663e-18,0.04803335396695306,1.3366514915820943e-19,0.04803335396695306,7.141017140945786e-19,-0.016425125597423165,1.3366514915820943e-19,-0.016425125597423165,-8.537748001188525e-18,0.05076404085773446,-8.185113037851486e-18,-0.05076404085773444,0.0050285949527033745,0.9999747129130833,0.005028594952703371,300.0,109.28571428571416,[0.26263385]
-2.999661303582698e-18,0.04425790613992759,1.8421880928227057e-20,0.04425790613992759,4.1891073197645496e-19,-0.018788756524097436,1.8421880928227057e-20,-0.018788756524097436,-8.562709003352926e-18,0.04808096949534661,-7.482837179422227e-18,-0.04808096949534664,0.04583945463251778,0.997896532110412,0.045839454632517804,300.0,109.28571428571416,[0.27568399]
-3.2449302813720216e-18,0.03793169352011512,-1.3083965528209314e-19,0.03793169352011512,3.9069394692104603e-20,-0.02249858711788008,-1.3083965528209314e-19,-0.02249858711788008,-8.67883192646557e-18,0.04410215182510696,-9.308444497971444e-18,-0.04410215182510695,0.13961867172076145,0.9803128342594829,0.13961867172076137,300.0,109.28571428571416,[0.2833216]
-3.5184160442167534e-18,0.026207522770416308,-3.523060198067144e-19,0.026207522770416308,-4.992200432880033e-19,-0.0289626805543617,-3.523060198067144e-19,-0.0289626805543617,-8.979449213402041e-18,0.039059840177039756,-7.170872457751066e-18,-0.03905984017703978,0.33819602661168413,0.8782066358028378,0.338196026611684,300.0,109.28571428571416,[0.27208819]
-3.980737214739991e-18,-0.0014681960578713177,-7.459197850431019e-19,-0.0014681960578713177,-1.5540936999748277e-18,-0.04262596403658658,-7.459197850431019e-19,-0.04262596403658658,-9.781457065553855e-18,0.04265124159637937,-6.938893903907228e-18,-0.04265124159637939,0.6750700520127183,0.29759175013950123,0.6750700520127184,300.0,109.28571428571416,[0.21129658]
-5.528319348932801e-18,-0.12985825621262953,-1.8558746749367963e-18,-0.12985825621262953,-6.401954424686808e-18,-0.07374209502988309,-1.8558746749367963e-18,-0.07374209502988309,-1.286793924623012e-17,0.14933540533303297,-1.0792507313673222e-17,-0.149335405333033,0.5326589758464232,0.6576844462966106,0.5326589758464233,300.0,109.28571428571416,[0.4700816]
-2.7543923257933745e-18,-0.1039737722903407,1.7006378444753345e-19,-0.1039737722903407,-3.47717612759731e-18,-0.03743423857880638,1.7006378444753345e-19,-0.03743423857880638,-1.4887609899619193e-17,0.11050731895335533,-1.397762736713282e-17,-0.11050731895335549,0.31251556338208614,0.8970329120427826,0.31251556338208625,300.0,96.42857142857144,[0.443405]
-2.129282010719701e-18,0.013276808444703036,8.604932437720696e-19,0.013276808444703036,9.289833849011539e-19,-0.019742414550620913,8.604932437720696e-19,-0.019742414550620913,-1.1232450973980073e-17,0.0237915231703627,-2.339941180692008e-18,-0.023791523170362722,0.5388928448614551,0.6474480701293777,0.5388928448614553,300.0,96.42857142857144,[0.28499045]
-2.3658689007996676e-18,0.036184598950410256,1.163772811510043e-18,0.036184598950410256,1.5367295245561144e-18,-0.012505284834248944,1.163772811510043e-18,-0.012505284834248944,-1.0101609049836379e-17,0.03828455759164164,-8.525961558320915e-18,-0.03828455759164171,0.15468916815618713,0.9757779063446219,0.154689168156187,300.0,96.42857142857144,[0.27613621]
-2.7109818872465916e-18,0.045621824807216736,1.3752799990077082e-18,0.045621824807216736,1.6452556209230718e-18,-0.008938284176975448,1.3752799990077082e-18,-0.008938284176975448,-9.545955436437558e-18,0.04648917963105765,-8.777822117969167e-18,-0.046489179631057635,0.057403944629531155,0.9966993399626286,0.05740394462953123,300.0,96.42857142857144,[0.2826664]
-3.103846356094977e-18,0.05060412788444492,1.5444450517197028e-18,0.05060412788444492,1.586651528884915e-18,-0.006750002394049411,1.5444450517197028e-18,-0.006750002394049411,-9.200842449990634e-18,0.05105232895044973,-8.711375074754118e-18,-0.05105232895044975,0.014428130987455086,0.9997918073641221,0.014428130987455113,300.0,96.42857142857144,[0.27662814]
-3.507563434580058e-18,0.05349346680932421,1.711219138871113e-18,0.05349346680932421,1.441226559753192e-18,-0.0052231056935499,1.711219138871113e-18,-0.0052231056935499,-8.946891384491954e-18,0.05374785413731661,-8.56687470631811e-18,-0.05374785413731664,0.010513013523152264,0.9998894704382701,0.010513013523152209,300.0,96.42857142857144,[0.27487792]
-3.9112805130651386e-18,0.055162178597370555,1.858831587132732e-18,0.055162178597370555,1.2523911520746864e-18,-0.004068232139627072,1.858831587132732e-18,-0.004068232139627072,-8.758055976813449e-18,0.055311992012131495,-8.45485086783098e-18,-0.0553119920121315,0.027275268346111232,0.9992557828070326,0.027275268346111173,300.0,96.42857142857144,[0.29099996]
-4.328020723114254e-18,0.055981979255570496,1.9999833412200057e-18,0.055981979255570496,1.0331684374134328e-18,-0.0031482990660997726,1.9999833412200057e-18,-0.0031482990660997726,-8.610460485754387e-18,0.05607043595675649,-8.372602272942458e-18,-0.056070435956756474,0.03959224604183524,0.9984312235235463,0.039592246041835186,300.0,96.42857142857144,[0.2826664]
-4.755613542800066e-18,0.05610062417847368,2.144424792603403e-18,0.05610062417847368,7.94411025406127e-19,-0.002392191676554372,2.144424792603403e-18,-0.002392191676554372,-8.49976386746009e-18,0.05615160384380595,-8.309608086150211e-18,-0.05615160384380595,0.04916394954414051,0.997579977811525,0.04916394954414046,300.0,96.42857142857144,[0.2826664]
-5.174524274776521e-18,0.05552659949170369,2.284847386980711e-18,0.05552659949170369,5.209252625613947e-19,-0.00176288368867387,2.284847386980711e-18,-0.00176288368867387,-8.42596612193056e-18,0.055554576859263904,-8.277654988153606e-18,-0.05555457685926391,0.056833815227744035,0.996764683811238,0.05683381522774396,300.0,96.42857142857144,[0.2826664]
-5.610799182171689e-18,0.054131817743464886,2.4160791775719427e-18,0.054131817743464886,2.2139323658859275e-19,-0.0012456188210384707,2.4160791775719427e-18,-0.0012456188210384707,-8.384726205311116e-18,0.05414614721712918,-8.272182208822933e-18,-0.054146147217129195,0.06298535265326534,0.996024944819299,0.0629853526532653,300.0,96.42857142857144,[0.2826664]
-6.06443826498557e-18,0.05157441528826123,2.551380696776935e-18,0.05157441528826123,-1.1937870600365295e-19,-0.0008469580671331652,2.551380696776935e-18,-0.0008469580671331652,-8.417284034221203e-18,0.051581369216932564,-8.332917202164126e-18,-0.05158136921693257,0.06762258835328236,0.995416682143114,0.06762258835328228,300.0,96.42857142857144,[0.2826664]
-6.520247869726791e-18,0.04703912534936061,2.680408051035713e-18,0.04703912534936061,-5.426304818347862e-19,-0.0006064138564984718,2.680408051035713e-18,-0.0006064138564984718,-8.543174306006873e-18,0.047043034036913615,-8.473729048106573e-18,-0.047043034036913636,0.07010653115385142,0.9950729363112778,0.07010653115385133,300.0,96.42857142857144,[0.2826664]
-6.997762693741402e-18,0.03830158985868394,2.808350144330821e-18,0.03830158985868394,-1.1351829679983726e-18,-0.0006384148862485015,2.808350144330821e-18,-0.0006384148862485015,-8.877434682817101e-18,0.038306910072072195,-8.783310508056517e-18,-0.03830691007207219,0.06744945064263193,0.9954401756087677,0.0674494506426318,300.0,96.42857142857144,[0.2826664]
-7.58597413605031e-18,0.016797644976873045,2.9103985893208755e-18,0.016797644976873045,-2.2399786290139972e-18,-0.0012554052197339392,2.9103985893208755e-18,-0.0012554052197339392,-9.815100155427612e-18,0.016844492246274538,-9.368286518491814e-18,-0.016844492246274555,0.02658197252480051,0.9992931489174643,0.026581972524800247,300.0,96.42857142857144,[0.28669162]
-8.944720862564615e-18,-0.09634421977006428,3.0008652649642688e-18,-0.09634421977006428,-7.143187662873125e-18,-0.00047154311094700245,3.0008652649642688e-18,-0.00047154311094700245,-1.3361732984699776e-17,0.09634537371357245,-1.3391000805896773e-17,-0.09634537371357242,0.08260892366766796,0.9931523203723277,0.08260892366766788,300.0,96.42857142857144,[0.4366423]
-5.945059558981917e-18,-0.13527145483956773,-1.6118435729341588e-18,-0.13527145483956773,-6.525674174545139e-18,-0.07812051045406855,-1.6118435729341588e-18,-0.07812051045406855,-1.2727940581916746e-17,0.1562087726346297,-1.6168380679388386e-17,-0.15620877263462965,0.6252033684939582,0.4671632434680791,0.625203368493958,300.0,122.14285714285735,[0.48514362]
-4.714373626180622e-18,-0.008025476201923702,3.7774924241883885e-19,-0.008025476201923702,-1.9165708618404647e-18,-0.04805186029045783,3.7774924241883885e-19,-0.04805186029045783,-9.84440220144669e-18,0.0487174460090153,-1.1607077911772461e-17,-0.048717446009015314,0.6525184935366325,0.3852781218618147,0.6525184935366325,300.0,122.14285714285735,[0.28046335]
-4.6145296175230215e-18,0.02068793039816825,1.630583401410336e-18,0.02068793039816825,-1.088516746560581e-18,-0.03369450567567343,1.630583401410336e-18,-0.03369450567567343,-9.222547669264025e-18,0.039538717441103766,-2.1686933109925775e-18,-0.03953871744110376,0.31338527587318565,0.89642586850881,0.31338527587318565,300.0,122.14285714285735,[0.29746433]
-4.7208851919626395e-18,0.032535205378728456,2.6859700134745195e-18,0.032535205378728456,-7.987520692608053e-19,-0.027265076944701358,2.6859700134745195e-18,-0.027265076944701358,-9.077122700132303e-18,0.04244907548859602,-3.520096188469268e-18,-0.04244907548859609,0.09621904915855163,0.9906986369012771,0.09621904915855127,300.0,122.14285714285735,[0.29400692]
-4.890185902295093e-18,0.038560706076868595,3.6611193823380235e-18,0.038560706076868595,-6.620091878384391e-19,-0.02392741607991426,3.6611193823380235e-18,-0.02392741607991426,-9.100998441333033e-18,0.04538115570815704,-5.108524173808697e-18,-0.04538115570815698,0.00398279369418473,0.9999841372285758,0.003982793694184196,300.0,122.14285714285735,[0.28493196]
-5.105067573101668e-18,0.041791230094644576,4.601938894624199e-18,0.041791230094644576,-5.925524861635865e-19,-0.022130169714049398,4.601938894624199e-18,-0.022130169714049398,-9.213865581554669e-18,0.047289019067814846,-4.904163426262486e-18,-0.047289019067814846,0.052277114860627465,0.9972633586589339,0.05227711486062729,300.0,122.14285714285735,[0.29149818]
-5.337313419326957e-18,0.04335537220335559,5.519705090033674e-18,0.04335537220335559,-5.816998765268908e-19,-0.02126243190134581,5.519705090033674e-18,-0.02126243190134581,-9.376654726105105e-18,0.04828850079730023,-5.219102076831662e-18,-0.04828850079730024,0.07413990830931223,0.9944880833834931,0.0741399083093122,300.0,122.14285714285735,[0.29010382]
-5.580411875188941e-18,0.04372443738357245,6.422336982160727e-18,0.04372443738357245,-6.066608786912909e-19,-0.021062083456936925,6.422336982160727e-18,-0.021062083456936925,-9.56766065571095e-18,0.04853285262641096,-4.259157098437929e-18,-0.04853285262641095,0.07909904176364063,0.9937236452777742,0.07909904176364049,300.0,122.14285714285735,[0.29010382]
-5.823510331050925e-18,0.04306526836583986,7.310394158689747e-18,0.04306526836583986,-6.533271001290825e-19,-0.021433947148042375,7.310394158689747e-18,-0.021433947148042375,-9.79339493615422e-18,0.048104380567333765,-3.717313666674623e-18,-0.048104380567333835,0.07002016321126715,0.9950850986160605,0.07002016321126707,300.0,122.14285714285735,[0.29149818]
-6.099166615822996e-18,0.04134365656465464,8.184597300729424e-18,0.04134365656465464,-7.162722360219177e-19,-0.022394429602881107,8.184597300729424e-18,-0.022394429602881107,-1.0035408131052535e-17,0.04701923452561207,-3.1673856261678116e-18,-0.047019234525612054,0.04563102589830692,0.9979156371913089,0.04563102589830676,300.0,122.14285714285735,[0.29149818]
-6.387846032159103e-18,0.03831342141554428,9.042809800757531e-18,0.03831342141554428,-8.074341569701619e-19,-0.024076782021601344,9.042809800757531e-18,-0.024076782021601344,-1.0316490720642954e-17,0.04525052146750119,-2.8670877069397726e-18,-0.04525052146750129,3.789147201410827e-05,0.9999999985642364,3.789147201365121e-05,300.0,122.14285714285735,[0.28485695]
-6.711253799332636e-18,0.03338266168036714,9.87382294788367e-18,0.03338266168036714,-9.485180822472062e-19,-0.02680107241491679,9.87382294788367e-18,-0.02680107241491679,-1.0635557443961809e-17,0.042810040685048005,2.6508637191710726e-18,-0.04281004068504804,0.0814711400273597,0.9933402773900214,0.08147114002735979,300.0,122.14285714285735,[0.29108778]
-7.071560439270933e-18,0.02519192441025243,1.0657347449247987e-17,0.02519192441025243,-1.1829344503998338e-18,-0.031289269841898976,1.0657347449247987e-17,-0.031289269841898976,-1.1029507173773863e-17,0.040170280839583884,3.1311206708813497e-18,-0.04017028083958387,0.23042806722477083,0.945413037603202,0.23042806722477066,300.0,122.14285714285735,[0.29546568]
-7.520858478230136e-18,0.010157322437376982,1.1363886251001993e-17,0.010157322437376982,-1.5703726144298713e-18,-0.0393609378366558,1.1363886251001993e-17,-0.0393609378366558,-1.1580819743318006e-17,0.0406503951577094,-3.846029558316064e-18,-0.04065039515770941,0.48573044813267885,0.7267268149130415,0.48573044813267874,300.0,122.14285714285735,[0.31298554]
-8.232789670397376e-18,-0.024594102965782363,1.1827479211717031e-17,-0.024594102965782363,-2.4700539533119466e-18,-0.056732930657464105,1.1827479211717031e-17,-0.056732930657464105,-1.2531508347492553e-17,0.061834418584443204,-1.9710475389292547e-17,-0.061834418584443204,0.6989598918151213,0.15136095687986445,0.6989598918151212,300.0,122.14285714285735,[0.1279786]
-1.0422846295082572e-17,-0.16883293068369867,1.1401276882640921e-17,-0.16883293068369867,-7.15512553347349e-18,-0.0950921350056761,1.1401276882640921e-17,-0.0950921350056761,-1.539876781350756e-17,0.1937706701830398,-2.60740759622843e-17,-0.19377067018303973,0.6216086322880544,0.4766606932923552,0.6216086322880545,300.0,122.14285714285735,[0.75089443]
-1.1176017403869256e-17,-0.1756007623284294,1.1548058427977231e-17,-0.1756007623284294,-7.096521441435333e-18,-0.09667701824104746,1.1548058427977231e-17,-0.09667701824104746,-1.560388213564111e-17,0.20045466716019691,-2.3646016498624918e-17,-0.2004546671601971,0.6791505142454012,0.27840466590991936,0.6791505142454013,300.0,135.00000000000023,[0.66355913]
-9.810759111572934e-18,-0.032828584369815256,1.2428001583082568e-17,-0.032828584369815256,-2.2931564162338063e-18,-0.05874028019646488,1.2428001583082568e-17,-0.05874028019646488,-1.3747000626802474e-17,0.0672914293895239,-2.218070429845784e-17,-0.0672914293895239,0.6803902472945215,0.2722833501575134,0.6803902472945215,300.0,135.00000000000023,[0.20990003]
-9.977889299978048e-18,0.0031774480699015674,1.2397071645617985e-17,0.0031774480699015674,-1.2589027178567039e-18,-0.04116876164897452,1.2397071645617985e-17,-0.04116876164897452,-1.3771961628966874e-17,0.04129119896475514,-6.938893903907228e-18,-0.04129119896475515,0.46004129852830106,0.759423470335747,0.4600412985283007,300.0,135.00000000000023,[0.31038288]
-1.0420675773155233e-17,0.01832640460077995,1.21203470570848e-17,0.01832640460077995,-7.727058061327355e-19,-0.03315753145996373,1.21203470570848e-17,-0.03315753145996373,-1.4180019751306632e-17,0.037885076192479446,-1.2853647065761103e-18,-0.03788507619247948,0.1957383797228274,0.9609229799557112,0.19573837972282765,300.0,135.00000000000023,[0.28145729]
-1.0995864083900107e-17,0.026103141442311732,1.1759701273095355e-17,0.026103141442311732,-4.2325177583113325e-19,-0.028850130442675637,1.1759701273095355e-17,-0.028850130442675637,-1.471830918928674e-17,0.038906349349646395,-2.507911682252928e-18,-0.03890634934964642,0.03530257973675276,0.9987529502974498,0.035302579736752715,300.0,135.00000000000023,[0.29288725]
-1.1614462833191763e-17,0.030315506370756615,1.1354305431557098e-17,0.030315506370756615,-1.5085127395007055e-19,-0.02637581207346163,1.1354305431557098e-17,-0.02637581207346163,-1.53260553289417e-17,0.040183496476164794,-2.393123010592707e-18,-0.04018349647616481,0.04902129783096472,0.9975940179842376,0.049021297830964594,300.0,135.00000000000023,[0.29288725]
-1.225476680175681e-17,0.03240034346190558,1.0918234010592618e-17,0.03240034346190558,6.728617974751348e-20,-0.024994847297676825,1.0918234010592618e-17,-0.024994847297676825,-1.5968529819434087e-17,0.04092095609689037,-6.09212220982786e-18,-0.04092095609689041,0.09048537559453186,0.9917786011036095,0.09048537559453187,300.0,135.00000000000023,[0.29285971]
-1.2931969643086625e-17,0.03296250964702779,1.046495102903244e-17,0.03296250964702779,2.4961002164400163e-19,-0.024384106299006683,1.046495102903244e-17,-0.024384106299006683,-1.66457326607639e-17,0.0410013619558138,-7.889999229108034e-18,-0.04100136195581382,0.10461119995557785,0.9889959523110842,0.10461119995557762,300.0,135.00000000000023,[0.3004706]
-1.3624366137907812e-17,0.03221948347395781,1.0001358068317402e-17,0.03221948347395781,4.0805812233975924e-19,-0.02441678273682375,1.0001358068317402e-17,-0.02441678273682375,-1.733487337269408e-17,0.04042615977984917,-7.670035531687605e-18,-0.04042615977984921,0.09650558919800799,0.9906428935328263,0.09650558919800756,300.0,135.00000000000023,[0.29539599]
-1.4325444720438354e-17,0.030133285803300956,9.518349110674213e-18,0.030133285803300956,5.469715256894644e-19,-0.02509284223086115,9.518349110674213e-18,-0.02509284223086115,-1.8047889825824988e-17,0.03921308001836003,-1.0191786994788517e-17,-0.03921308001836007,0.06426992689786183,0.9958608100498216,0.06426992689786182,300.0,135.00000000000023,[0.29288725]
-1.5080786351152377e-17,0.026398358163475185,9.011735727071211e-18,0.026398358163475185,6.576681439837608e-19,-0.026539023512457377,9.011735727071211e-18,-0.026539023512457377,-1.877935571533828e-17,0.037432513710968986,-8.165231176358362e-18,-0.037432513710969034,0.0018789193542829946,0.9999964696558286,0.001878919354282851,300.0,135.00000000000023,[0.28621107]
-1.5844810069575756e-17,0.02027596807456657,8.484400641943143e-18,0.02027596807456657,7.086754092762307e-19,-0.02907839290865611,8.484400641943143e-18,-0.02907839290865611,-1.954120891183432e-17,0.03544951079367701,-6.546498083220558e-18,-0.03544951079367704,0.12415439080839757,0.9844650194323775,0.12415439080839752,300.0,135.00000000000023,[0.303142]
-1.6689143099310683e-17,0.010073008756305096,7.91850487819969e-18,0.010073008756305096,6.967375386758654e-19,-0.033450626109852735,7.91850487819969e-18,-0.033450626109852735,-2.0360580939404846e-17,0.034934365495107526,-1.114508304673751e-17,-0.034934365495107575,0.3345934157129811,0.8809622536312439,0.3345934157129809,300.0,135.00000000000023,[0.29400382]
-1.765719587890394e-17,-0.008636735623971319,7.253341650685587e-18,-0.008636735623971319,5.133284358157077e-19,-0.04152644386131521,7.253341650685587e-18,-0.04152644386131521,-2.128630854141499e-17,0.042415076824230034,-2.1636272504346693e-17,-0.042415076824230076,0.5913366571651492,0.5483082306381087,0.5913366571651493,300.0,135.00000000000023,[0.27627678]
-1.9018113127345585e-17,-0.051367819936849746,6.3415189547724585e-18,-0.051367819936849746,-1.8883540767850558e-19,-0.059162380277518946,6.3415189547724585e-18,-0.059162380277518946,-2.2512653430361608e-17,0.07835075089089046,-3.000049062044197e-17,-0.07835075089089051,0.7053550792913936,0.07034503703647361,0.705355079291394,300.0,135.00000000000023,[0.17317933]
-2.2236997145589537e-17,-0.21302458646014033,4.534762936693308e-18,-0.21302458646014033,-4.679645275343196e-18,-0.09716387109856077,4.534762936693308e-18,-0.09716387109856077,-2.5242084753990585e-17,0.2341373363719923,-2.585843386366117e-17,-0.23413733637199216,0.6624070777543155,0.3499053110228194,0.6624070777543155,300.0,135.00000000000023,[0.76311854]
-2.2094827959348823e-17,-0.219797969454296,4.073560941538854e-18,-0.219797969454296,-4.7056915384712655e-18,-0.09563808362856784,4.073560941538854e-18,-0.09563808362856784,-2.4466665795448673e-17,0.23970354694158505,-2.796017658102067e-17,-0.23970354694158486,0.6991043534588958,0.15002068507255384,0.6991043534588959,300.0,147.8571428571427,[0.34386095]
-1.79154879882573e-17,-0.059621614518512486,4.81818562023664e-18,-0.059621614518512486,-2.702299799537235e-19,-0.0573438817458482,4.81818562023664e-18,-0.0573438817458482,-2.0791429541981666e-17,0.08272277613496731,-2.2912723619186356e-17,-0.08272277613496734,0.6923109670988408,0.20349705076323693,0.6923109670988409,300.0,147.8571428571427,[0.2231174]
-1.5664656749606607e-17,-0.01564952210509507,4.674931173032256e-18,-0.01564952210509507,3.841823811390286e-19,-0.04003602756571707,4.674931173032256e-18,-0.04003602756571707,-1.858455137235959e-17,0.04298594008929798,-1.783015659944325e-17,-0.04298594008929801,0.5683589634974511,0.594925354329605,0.568358963497451,300.0,147.8571428571427,[0.30845611]
-1.380886050173164e-17,0.0031608189290580468,4.28895132842215e-18,0.0031608189290580468,5.198400015977251e-19,-0.03202809947871629,4.28895132842215e-18,-0.03202809947871629,-1.6653872117991422e-17,0.03218369047391611,-1.5699787535530988e-17,-0.03218369047391611,0.3155829283173444,0.8948825792858522,0.31558292831734464,300.0,147.8571428571427,[0.30288163]
-1.2121279703225453e-17,0.012935730313076594,3.814420972057629e-18,0.012935730313076594,4.992200432880033e-19,-0.02760330519327374,3.814420972057629e-18,-0.02760330519327374,-1.4810556371198653e-17,0.030484021656035823,-7.856195674823149e-18,-0.030484021656035847,0.08658706800116062,0.9924743620416222,0.08658706800116028,300.0,147.8571428571427,[0.30347876]
-1.0497729301575773e-17,0.018325303150540522,3.299735960037335e-18,0.018325303150540522,3.9612025173939394e-19,-0.024942052411585782,3.299735960037335e-18,-0.024942052411585782,-1.301987578114386e-17,0.030950326558236863,-9.668494314352725e-18,-0.030950326558236884,0.05132480300368836,0.9973622858286075,0.05132480300368824,300.0,147.8571428571427,[0.30388916]
-8.912163033654528e-18,0.021099963237553247,2.7581568247611034e-18,0.021099963237553247,2.279048023706102e-19,-0.023322321889402867,2.7581568247611034e-18,-0.023322321889402867,-1.1248187257953282e-17,0.03145058261684541,-8.627960233809402e-18,-0.03145058261684545,0.12270438656711662,0.9848285470244936,0.12270438656711666,300.0,147.8571428571427,[0.31187146]
-7.353728289825022e-18,0.022011332578530607,2.197110820949049e-18,0.022011332578530607,5.317778721980905e-20,-0.022423990381246234,2.197110820949049e-18,-0.022423990381246234,-9.497661323554262e-18,0.03142187305844298,-4.057584779263581e-18,-0.03142187305844302,0.15093750041524062,0.9769522720874334,0.15093750041524062,300.0,147.8571428571427,[0.30345681]
-5.8321924187602816e-18,0.021336205243630814,1.6218546813939467e-18,0.021336205243630814,-1.64959666477775e-19,-0.022113751821175583,1.6218546813939467e-18,-0.022113751821175583,-7.758530629273772e-18,0.03072867836088765,-5.933343847138436e-18,-0.030728678360887673,0.14498627406465328,0.978753268533852,0.1449862740646532,300.0,147.8571428571427,[0.30851617]
-4.343214376605628e-18,0.01904031325540367,1.0432749301376057e-18,0.01904031325540367,-3.8743816403003736e-19,-0.022375147544149668,1.0432749301376057e-18,-0.022375147544149668,-6.036764110411996e-18,0.029379937993235575,-3.657347814034078e-18,-0.02937993799323559,0.1015077701682246,0.98964253404497,0.10150777016822475,300.0,147.8571428571427,[0.30801023]
-2.877026814688036e-18,0.01476740542779896,4.401411495782409e-19,0.01476740542779896,-6.576681439837608e-19,-0.023303307305903295,4.401411495782409e-19,-0.023303307305903295,-4.328563353596089e-18,0.02758841050989259,-3.146930567376376e-18,-0.027588410509892566,0.0027120365854898043,0.9999926448305096,0.002712036585489013,300.0,147.8571428571427,[0.29673978]
-1.4520791693898878e-18,0.007645142205837785,-1.8347693167038707e-19,0.007645142205837785,-9.713085624842672e-19,-0.025160309581181654,-1.8347693167038707e-19,-0.025160309581181654,-2.6431530770172434e-18,0.026296185608722475,3.5608175471683095e-18,-0.026296185608722485,0.1858848643624219,0.9648282927039028,0.18588486436242202,300.0,147.8571428571427,[0.31259692]
-1.2806079371300953e-19,-0.004327887866668967,-8.404667875518545e-19,-0.004327887866668967,-1.3674288142236611e-18,-0.028557031099502268,-8.404667875518545e-19,-0.028557031099502268,-9.8975799886665e-19,0.028883120305888008,-2.7333077974534736e-19,-0.028883120305888015,0.4616698875742637,0.7574442750554876,0.46166988757426364,300.0,147.8571428571427,[0.32102605]
1.0331684374134328e-18,-0.026359013257439858,-1.577901612365329e-18,-0.026359013257439858,-1.926338210513491e-18,-0.03504482195098082,-1.577901612365329e-18,-0.03504482195098082,5.952656385727604e-19,0.043851306998558624,5.480472588206906e-18,-0.043851306998558576,0.6605451759847656,0.35687552587213106,0.6605451759847653,300.0,147.8571428571427,[0.21825055]
1.6951776252518721e-18,-0.07640338764347383,-2.5172288908264583e-18,-0.07640338764347383,-2.986638172018663e-18,-0.04945992463790877,-2.5172288908264583e-18,-0.04945992463790877,1.9827717806243086e-18,0.09101517339755254,4.471957577383213e-18,-0.09101517339755254,0.707042221699783,0.013512715036960672,0.7070422216997829,300.0,147.8571428571427,[0.17875234]
1.2697553274933996e-19,-0.25360825840569245,-4.192736161111819e-18,-0.25360825840569245,-7.849692550222017e-18,-0.07958616086967875,-4.192736161111819e-18,-0.07958616086967875,2.2340096937138146e-18,0.2658027571970291,3.486815717902192e-18,-0.26580275719702917,0.6838982842793221,0.2540989443496344,0.683898284279322,300.0,147.8571428571427,[0.62175641]
6.175134883279866e-19,-0.25904848624302235,-4.129926682839443e-18,-0.25904848624302235,-7.862173051304217e-18,-0.07526009020991223,-4.129926682839443e-18,-0.07526009020991223,3.0338470239382894e-18,0.26975952143196996,5.659252171370297e-18,-0.2697595214319699,0.7060815019836172,0.05383145096612544,0.7060815019836172,300.0,160.7142857142859,[0.23572535]
3.611748487092337e-18,-0.08304903446613067,-2.7203761774633564e-18,-0.08304903446613067,-3.0235370447834285e-18,-0.044200109243671425,-2.7203761774633564e-18,-0.044200109243671425,3.89445896812826e-18,0.09407864679569458,6.942207157704816e-18,-0.09407864679569462,0.6989016018245375,0.15189832762144406,0.6989016018245375,300.0,160.7142857142859,[0.21297708]
4.336702810823611e-18,-0.03202754928765342,-2.02530044463811e-18,-0.03202754928765342,-1.987112824478987e-18,-0.030591565727083204,-2.02530044463811e-18,-0.030591565727083204,3.649732620820772e-18,0.044290041849241034,4.239451051650325e-18,-0.04429004184924099,0.6439474958571032,0.4131140824986876,0.643947495857103,300.0,160.7142857142859,[0.28954568]
4.5689486570488994e-18,-0.00993394968434304,-1.5108189190485034e-18,-0.00993394968434304,-1.464017039990253e-18,-0.024181146938142446,-1.5108189190485034e-18,-0.024181146938142446,3.2270234754714736e-18,0.02614213502327412,5.298148186067635e-18,-0.026142135023274112,0.469644364242961,0.7475749743468212,0.4696443642429608,300.0,160.7142857142859,[0.31575204]
4.600421224995317e-18,0.0016774055190162719,-1.0657601807286347e-18,0.0016774055190162719,-1.1102219658339725e-18,-0.02052396954220864,-1.0657601807286347e-18,-0.02052396954220864,2.7435397161566788e-18,0.020592401876535292,3.469446951953614e-18,-0.020592401876535292,0.17839958327257183,0.967650338384866,0.17839958327257185,300.0,160.7142857142859,[0.31616142]
4.545072915848169e-18,0.00819329386610985,-6.516652942784635e-19,0.00819329386610985,-8.134030922703445e-19,-0.018211946704011855,-6.516652942784635e-19,-0.018211946704011855,2.23346706323198e-18,0.019970104334384477,5.315910272701133e-18,-0.019970104334384474,0.06084871077530395,0.9962905544036675,0.0608487107753034,300.0,160.7142857142859,[0.30171899]
4.447399429117907e-18,0.011677056253328667,-2.589703974556517e-19,0.011677056253328667,-5.768162021903777e-19,-0.016683729168798837,-2.589703974556517e-19,-0.016683729168798837,1.7119991701887505e-18,0.020364195582473456,4.010676530909627e-18,-0.02036419558247345,0.19137576937639858,0.9626788819700904,0.19137576937639833,300.0,160.7142857142859,[0.30746428]
4.296548155167837e-18,0.013011299148187404,1.2636507345727583e-19,0.013011299148187404,-3.7821344583884595e-19,-0.01568555673766114,1.2636507345727583e-19,-0.01568555673766114,1.172081840763138e-18,0.020379661324320605,2.0360401442444783e-18,-0.0203796613243206,0.24636514169689955,0.9373411512962253,0.24636514169689955,300.0,160.7142857142859,[0.30755891]
4.143526359290427e-18,0.012529142074133977,4.949129138384396e-19,0.012529142074133977,-1.9426171249685347e-19,-0.015103975544353923,4.949129138384396e-19,-0.015103975544353923,6.305366198920215e-19,0.019624206438943605,2.5911535040280013e-18,-0.01962420643894361,0.24637214322955547,0.9373374707547709,0.24637214322955553,300.0,160.7142857142859,[0.30755891]
3.929729949447521e-18,0.010206856269848335,8.616972051536405e-19,0.010206856269848335,-3.5813611801095886e-20,-0.014909308621044436,8.616972051536405e-19,-0.014909308621044436,7.868141986604399e-20,0.018068408852770966,4.866182569313434e-18,-0.01806840885277096,0.18431983740809738,0.9654286069283972,0.184319837408097,300.0,160.7142857142859,[0.31042675]
3.671980470575998e-18,0.005656307144644028,1.2082345966153807e-18,0.005656307144644028,9.767348673026152e-20,-0.015146178683074971,1.2082345966153807e-18,-0.015146178683074971,-4.802279764237857e-19,0.016167886046548747,3.4265638615581137e-18,-0.016167886046548747,0.014713782493934667,0.9997834811645183,0.01471378249393427,300.0,160.7142857142859,[0.29818615]
3.3643089873756745e-18,-0.0020886796903469202,1.5518214348321446e-18,-0.0020886796903469202,1.7065728653704025e-19,-0.015963709810224356,1.5518214348321446e-18,-0.015963709810224356,-1.0570441786141634e-18,0.016099770611841684,3.243662251921512e-18,-0.01609977061184168,0.3181564268669449,0.8930582153961278,0.3181564268669451,300.0,160.7142857142859,[0.30007716]
2.9855529110549934e-18,-0.015251321110848298,1.865071837673832e-18,-0.015251321110848298,1.644170359959402e-19,-0.017722927652686384,1.865071837673832e-18,-0.017722927652686384,-1.6457982514049066e-18,0.023381722781021963,-3.380304316088977e-18,-0.023381722781021984,0.612366803733928,0.5000137951790788,0.6123668037339278,300.0,160.7142857142859,[0.28768412]
2.3718378360998503e-18,-0.03960404640388133,2.13979547630525e-18,-0.03960404640388133,-5.426304818347862e-22,-0.021348486038948136,2.13979547630525e-18,-0.021348486038948136,-2.282032491356193e-18,0.04499153640092713,-2.6472212774942243e-18,-0.04499153640092709,0.698321617444589,0.15714272881411664,0.6983216174445888,300.0,160.7142857142859,[0.12095348]
1.2160349097917558e-18,-0.09485813393293023,2.2832025383326494e-18,-0.09485813393293023,-6.853422985573349e-19,-0.029698397082213935,2.2832025383326494e-18,-0.029698397082213935,-3.0457848945386547e-18,0.09939849275763982,-3.9731786545728095e-18,-0.09939849275763984,0.706717491913244,0.03317790300348041,0.7067174919132438,300.0,160.7142857142859,[0.17942655]
-2.4624571265662596e-18,-0.28267243369521083,2.0178731899179963e-18,-0.28267243369521083,-5.1549895774304685e-18,-0.045993129678885435,2.0178731899179963e-18,-0.045993129678885435,-4.6766608076931045e-18,0.28638972179327976,-5.4330810556925245e-18,-0.2863897217932798,0.6962692994930194,0.17440792747751008,0.6962692994930194,300.0,160.7142857142859,[0.38531174]
-2.8835383804700536e-18,-0.28571353556605306,2.517008447193213e-18,-0.28571353556605306,-5.068168700336903e-18,-0.039731272110333435,2.517008447193213e-18,-0.039731272110333435,-4.962084441138202e-18,0.28846281976913374,-5.5737063566302125e-18,-0.28846281976913374,0.70686827071216,0.025971055442588747,0.7068682707121597,300.0,173.57142857142813,[0.24870408]
2.2953269381611454e-19,-0.09861271336704686,3.2244629378853158e-18,-0.09861271336704686,-4.419725274544333e-19,-0.022061968869392358,3.2244629378853158e-18,-0.022061968869392358,-4.174727611995927e-18,0.10105047109244654,-5.3529689607966726e-18,-0.10105047109244655,0.7029946159195839,0.10769001799681133,0.702994615919584,300.0,173.57142857142813,[0.21090884]
8.090620484156663e-19,-0.04286062381480224,3.5444792645473805e-18,-0.04286062381480224,3.763142391524242e-19,-0.014852449582729094,3.5444792645473805e-18,-0.014852449582729094,-4.2439129984298625e-18,0.045361088307066755,-5.7807426300637696e-18,-0.0453610883070667,0.6898501675147036,0.21957571076936297,0.6898501675147034,300.0,173.57142857142813,[0.18071772]
8.2479833238887505e-19,-0.018517252035014954,3.773011483412612e-18,-0.018517252035014954,6.968731962963241e-19,-0.011313265784058666,3.773011483412612e-18,-0.011313265784058666,-4.4267794708081855e-18,0.021699737455301595,-7.014521824404232e-18,-0.021699737455301585,0.6408844804406103,0.42253303475673704,0.6408844804406105,300.0,173.57142857142813,[0.28954568]
6.158855968824823e-19,-0.005599111860053061,3.9672731959094656e-18,-0.005599111860053061,8.432477687712578e-19,-0.009151774075191941,3.9672731959094656e-18,-0.009151774075191941,-4.640575880651091e-18,0.010728700869384988,-4.455279125745945e-18,-0.010728700869384985,0.4342398241556948,0.7892221171726391,0.43423982415569434,300.0,173.57142857142813,[0.31321731]
3.103846356094977e-19,0.00176582980602961,4.144577705848982e-18,0.00176582980602961,9.174524871621647e-19,-0.00765025218214027,4.144577705848982e-18,-0.00765025218214027,-4.87282172687638e-18,0.007851401999274045,1.3497010778635994e-18,-0.007851401999274052,0.08089029344213468,0.9934352122074648,0.0808902934421349,300.0,173.57142857142813,[0.30032463]
-4.7208851919626395e-20,0.005835176653750142,4.315641965247398e-18,0.005835176653750142,9.417352012242714e-19,-0.006519175564824047,4.315641965247398e-18,-0.006519175564824047,-5.114020976051942e-18,0.008749224915697936,1.171233005784757e-18,-0.008749224915697943,0.4096386138924912,0.8151027002878087,0.40963861389249095,300.0,173.57142857142813,[0.30081493]
-4.433291036590203e-19,0.007580819150291519,4.482704324842283e-18,0.007580819150291519,9.361732387854648e-19,-0.005621382491422884,4.482704324842283e-18,-0.005621382491422884,-5.364987573900531e-18,0.009437624706688769,2.9045914052863745e-19,-0.00943762470668877,0.5172587201193375,0.6818261016718337,0.517258720119337,300.0,173.57142857142813,[0.28908648]
-8.812319024996927e-19,0.007378072538283892,4.6391853900413896e-18,0.007378072538283892,9.143323618916147e-19,-0.004885720018052239,4.6391853900413896e-18,-0.004885720018052239,-5.617039432712789e-18,0.008849079866007265,9.635260979118547e-19,-0.00884907986600727,0.5421438952975264,0.6419968797301503,0.5421438952975263,300.0,173.57142857142813,[0.29550581]
-1.3522351607322871e-18,0.005218496873202928,4.7983117788394406e-18,0.005218496873202928,8.485384159691469e-19,-0.004275151482254194,4.7983117788394406e-18,-0.004275151482254194,-5.8738393082411014e-18,0.006746082552996883,1.1741416995759349e-18,-0.006746082552996885,0.4933774531552416,0.71635003834445,0.4933774531552412,300.0,173.57142857142813,[0.31575204]
-1.87750146714836e-18,0.0007071996686643115,4.951265745906621e-18,0.0007071996686643115,7.550703154731049e-19,-0.003774938369422545,4.951265745906621e-18,-0.003774938369422545,-6.140135217201523e-18,0.003840610767091274,3.1066443325931526e-19,-0.0038406107670912798,0.051568967158295856,0.99733709609763,0.05156896715829722,300.0,173.57142857142813,[0.30171899]
-2.46137186560259e-18,-0.007157477512163488,5.104694514645407e-18,-0.007157477512163488,6.442380395583499e-19,-0.0033917017951603655,5.104694514645407e-18,-0.0033917017951603655,-6.414434925769008e-18,0.007920424572232222,-9.521282381546792e-18,-0.007920424572232231,0.6688784897624893,0.32435032274702935,0.6688784897624894,300.0,173.57142857142813,[0.21557579]
-3.140202598377908e-18,-0.020690141081681716,5.252696978565845e-18,-0.020690141081681716,4.1999599294012453e-19,-0.0031651017000438155,5.252696978565845e-18,-0.0031651017000438155,-6.7060988097552055e-18,0.020930833876162548,-8.193505190468869e-18,-0.02093083387616254,0.7065524320552747,0.03958941163433057,0.7065524320552747,300.0,173.57142857142813,[0.09504747]
-4.0293026428642046e-18,-0.04590040702001676,5.392966958120137e-18,-0.04590040702001676,4.4902672371828554e-20,-0.0032099515415552177,5.392966958120137e-18,-0.0032099515415552177,-7.025572505935435e-18,0.04601251083675325,-7.760791758699788e-18,-0.046012510836753236,0.7064718582399667,0.042367759321644625,0.7064718582399667,300.0,173.57142857142813,[0.09453241]
-5.4987459876728055e-18,-0.10322341320871573,5.514753586886932e-18,-0.10322341320871573,-8.467748669031839e-19,-0.0038399685482493353,5.514753586886932e-18,-0.0038399685482493353,-7.429289584420516e-18,0.10329481300098667,-7.836713149806725e-18,-0.10329481300098667,0.7051181103115489,0.07494598735983679,0.7051181103115487,300.0,173.57142857142813,[0.20202922]
-9.601303745584706e-18,-0.2946008951287936,5.626433722929554e-18,-0.2946008951287936,-5.5260131693850035e-18,-0.0030744239934327026,5.626433722929554e-18,-0.0030744239934327026,-8.615615475331817e-18,0.29461693687494933,-8.733078674233521e-18,-0.29461693687494933,0.7034485562250092,0.10158866811755793,0.7034485562250093,300.0,173.57142857142813,[0.26333921]
-9.933393600467595e-18,-0.2946452948034189,6.347725290908444e-18,-0.2946452948034189,-5.599675257294076e-18,0.003887045198294332,6.347725290908444e-18,0.003887045198294332,-8.911484745552234e-18,0.29467093319526316,-8.744222273023836e-18,-0.29467093319526316,0.7036438594173946,0.09884653867681938,0.7036438594173946,300.0,173.57142857142813,[0.26333921]
-6.500170541898904e-18,-0.10335633838023817,7.06482842985567e-18,-0.10335633838023817,-1.0529066211901732e-18,0.004672589311421063,7.06482842985567e-18,0.004672589311421063,-8.309978856438374e-18,0.10346190494207755,-7.670518097389057e-18,-0.10346190494207759,0.7055192339727648,0.0669717924873301,0.7055192339727648,300.0,173.57142857142813,[0.20171939]
-5.685682188664889e-18,-0.04612143128455553,7.80012664714692e-18,-0.04612143128455553,-3.099776627481216e-19,0.004061932282953805,7.80012664714692e-18,0.004061932282953805,-8.478601278668534e-18,0.04629995375383521,-7.095011972692375e-18,-0.04629995375383522,0.706897058472569,0.024353592048377327,0.706897058472569,300.0,173.57142857142813,[0.09504747]
-5.453707657680518e-18,-0.02099876620098445,8.548329295584304e-18,-0.02099876620098445,-8.634607542196035e-20,0.004035913456219875,8.548329295584304e-18,0.004035913456219875,-8.742726665701616e-18,0.021383095645619302,-5.4721719026968414e-18,-0.02138309564561931,0.7049743148970338,0.07760432121290314,0.704974314897034,300.0,173.57142857142813,[0.11566625]
-5.440955841357401e-18,-0.007553135419877953,9.305722747807764e-18,-0.007553135419877953,-1.410839252770444e-20,0.0042808322638636515,9.305722747807764e-18,0.0042808322638636515,-9.038053305440198e-18,0.00868189953537535,2.4840545838824116e-20,-0.008681899535375364,0.6503424796619313,0.3925675971018762,0.6503424796619311,300.0,173.57142857142813,[0.28720989]
-5.5166527935733534e-18,0.00022514478621101994,1.0067050271024526e-17,0.00022514478621101994,-4.7954968832149226e-20,0.004681872020667608,1.0067050271024526e-17,0.004681872020667608,-9.346538734363274e-18,0.0046872823461647966,-6.938893903907228e-18,-0.004687282346164806,0.04532847529233352,0.9979432141436427,0.04532847529233698,300.0,173.57142857142813,[0.30171899]
-5.671573796137185e-18,0.004650746436700938,1.0830107428902137e-17,0.004650746436700938,-7.339077266815483e-20,0.005199366058886874,1.0830107428902137e-17,0.005199366058886874,-9.667029862696945e-18,0.0069758762770559075,-1.8217604111015805e-17,-0.0069758762770559,0.40944795813139406,0.8152942653815648,0.40944795813139323,300.0,173.57142857142813,[0.30081493]
-5.867463400079543e-18,0.006725391392984447,1.1596149054429839e-17,0.006725391392984447,-1.8869975005804689e-19,0.00582668686230444,1.1596149054429839e-17,0.00582668686230444,-9.991048089162541e-18,0.008898380143609313,-2.029581992022006e-17,-0.008898380143609308,0.47922926095446755,0.7353085276875758,0.47922926095446733,300.0,173.57142857142813,[0.31575204]
-6.082345070886118e-18,0.006844033357222995,1.2368227444067953e-17,0.006844033357222995,-3.008886021773889e-19,0.0065785680939504515,1.2368227444067953e-17,0.0065785680939504515,-1.031384539704401e-17,0.009493068564037872,-1.9885857636825226e-17,-0.009493068564037864,0.4517192813732809,0.7693499734654013,0.45171928137328066,300.0,173.57142857142813,[0.31321731]
-6.34552085457599e-18,0.005015171279599952,1.3136702428162634e-17,0.005015171279599952,-4.35867934533792e-19,0.007492043632101749,1.3136702428162634e-17,0.007492043632101749,-1.0648105773854238e-17,0.0090156896990214,-1.9876468958596298e-17,-0.0090156896990214,0.3250790765623343,0.8880580994297398,0.3250790765623328,300.0,173.57142857142813,[0.2967288]
-6.638269999525857e-18,0.0008635467432947021,1.3918531209271216e-17,0.0008635467432947021,-6.058469329685387e-19,0.00863826605165793,1.3918531209271216e-17,0.00863826605165793,-1.0989895148599924e-17,0.008681322097300659,-8.821731807773431e-18,-0.008681322097300668,0.008883263636462038,0.999921084513338,0.008883263636464096,300.0,173.57142857142813,[0.29643593]
-6.992336388923054e-18,-0.006582675974132335,1.4703268150618382e-17,-0.006582675974132335,-8.224243240308479e-19,0.010154399606730653,1.4703268150618382e-17,0.010154399606730653,-1.1344436339668727e-17,0.012101382332344946,4.465261626442805e-18,-0.012101382332344972,0.4486528503673287,0.7729302942145185,0.44865285036732927,300.0,173.57142857142813,[0.31321731]
-7.46849463673308e-18,-0.01958104762821567,1.5505267524168917e-17,-0.01958104762821567,-1.1147325817142241e-18,0.012329975378722102,1.5505267524168917e-17,0.012329975378722102,-1.1707252645585511e-17,0.02313970006413963,3.534380221794387e-18,-0.02313970006413965,0.636784658897901,0.4347534892149429,0.6367846588979011,300.0,173.57142857142813,[0.28954568]
-8.145426162821975e-18,-0.04400354932951125,1.6341130431226454e-17,-0.04400354932951125,-1.585803668757048e-18,0.015882729835630768,1.6341130431226454e-17,0.015882729835630768,-1.2115242939115041e-17,0.04678219170396322,-1.2801670336923824e-18,-0.04678219170396325,0.6878046992833631,0.23205471614997303,0.6878046992833634,300.0,173.57142857142813,[0.18211364]
-9.378825248032444e-18,-0.0998336125467921,1.727092776185036e-17,-0.0998336125467921,-2.560232356511865e-18,0.023105344074392464,1.727092776185036e-17,0.023105344074392464,-1.2625926051331806e-17,0.10247247005385918,-4.8865813365250345e-18,-0.10247247005385919,0.7024171445236492,0.11497960757667394,0.7024171445236493,300.0,173.57142857142813,[0.21010734]
-1.3138304883804303e-17,-0.2870111782382099,1.8586637108274143e-17,-0.2870111782382099,-7.32846205801459e-18,0.04078739982047951,1.8586637108274143e-17,0.04078739982047951,-1.39927444062634e-17,0.2898948575221732,-8.65582646046544e-18,-0.2898948575221731,0.7068101630981368,0.02896181421061944,0.7068101630981367,300.0,173.57142857142813,[0.24870408]
-1.2876485676319018e-17,-0.28404462490211974,1.9134659980522163e-17,-0.28404462490211974,-7.315608498476128e-18,0.047078321035615336,1.9134659980522163e-17,0.047078321035615336,-1.444448428239086e-17,0.2879196367865838,-8.467963479140995e-18,-0.28791963678658383,0.6966306573973733,0.17149768029978377,0.6966306573973734,300.0,160.7142857142859,[0.38381355]
-8.866310757939488e-18,-0.09630122485710683,1.8343174072557177e-17,-0.09630122485710683,-2.5194672415640268e-18,0.03083387356692669,1.8343174072557177e-17,0.03083387356692669,-1.3705421566131883e-17,0.10111702956535203,-2.9365532682771105e-18,-0.10111702956535198,0.7068541544393443,0.026728425013057514,0.7068541544393443,300.0,160.7142857142859,[0.17942655]
-7.352236055999976e-18,-0.041116499848586355,1.797057770006545e-17,-0.041116499848586355,-1.5149903908776083e-18,0.022533106368407625,1.797057770006545e-17,0.022533106368407625,-1.3832532756501682e-17,0.046886111402085484,1.9189898469557051e-19,-0.04688611140208551,0.6975343438432724,0.1639868236117479,0.6975343438432725,300.0,160.7142857142859,[0.12288014]
-6.3954428589047904e-18,-0.016831509137073465,1.7716897949807686e-17,-0.016831509137073465,-1.030658771434947e-18,0.018955909455737916,1.7716897949807686e-17,0.018955909455737916,-1.4088383028686782e-17,0.025350073039845888,7.360541173981144e-18,-0.02535007303984593,0.6177814007052055,0.4865103101532669,0.6177814007052058,300.0,160.7142857142859,[0.28768412]
-5.642814380599941e-18,-0.003734950592290707,1.7514272097149426e-17,-0.003734950592290707,-7.154582902991655e-19,0.017244355620840715,1.7514272097149426e-17,0.017244355620840715,-1.4387270680962405e-17,0.017644196119542346,4.936118744507415e-19,-0.017644196119542363,0.36953201247687467,0.8525797226708954,0.3695320124768757,300.0,160.7142857142859,[0.29346717]
-4.995727531011959e-18,0.003945610773707544,1.7334580860949964e-17,0.003945610773707544,-4.6912100874873e-19,0.01647381465841223,1.7334580860949964e-17,0.01647381465841223,-1.4693042957476307e-17,0.016939728857845233,-1.406988522314447e-17,-0.01693972885784524,0.07166186171298325,0.9948513231391203,0.07166186171298504,300.0,160.7142857142859,[0.30171899]
-4.3909658590070896e-18,0.008433390543818116,1.716472056293312e-17,0.008433390543818116,-2.748932106569912e-19,0.01628327014261387,1.716472056293312e-17,0.01628327014261387,-1.5025336298789885e-17,0.01833758333592246,-1.9474399375702073e-17,-0.01833758333592246,0.09956764626335497,0.9900366496424012,0.09956764626335407,300.0,160.7142857142859,[0.30422773]
-3.840195919944782e-18,0.01069455767993501,1.700990978218591e-17,0.01069455767993501,-1.0499899823503113e-19,0.016523603604155227,1.700990978218591e-17,0.016523603604155227,-1.5360037562866604e-17,0.019682556745420778,-2.3320860084627607e-17,-0.01968255674542077,0.16658731808497695,0.9718525252868924,0.16658731808497612,300.0,160.7142857142859,[0.30490683]
-3.3169644778355895e-18,0.01111723838488748,1.6862089608192964e-17,0.01111723838488748,4.045988530180624e-20,0.01715019765751311,1.6862089608192964e-17,0.01715019765751311,-1.5701419964750913e-17,0.020438255037996365,-2.1463645075316792e-17,-0.020438255037996362,0.1670708273942226,0.9716865118275647,0.16707082739422197,300.0,160.7142857142859,[0.30490683]
-2.835108609966299e-18,0.00972515083196002,1.6722235080101326e-17,0.00972515083196002,1.592959608236244e-19,0.01819273566112975,1.6722235080101326e-17,0.01819273566112975,-1.6059352596331184e-17,0.02062896481988651,-2.2917511081300406e-17,-0.020628964819886495,0.10868423843919761,0.9881171350754845,0.10868423843919629,300.0,160.7142857142859,[0.30930235]
-2.370209944654346e-18,0.00618516342434012,1.6595819135036378e-17,0.00618516342434012,2.4289496943129615e-19,0.019764679810981515,1.6595819135036378e-17,0.019764679810981515,-1.6431529278059618e-17,0.02070987239498146,-1.3299383104358205e-17,-0.02070987239498146,0.023551726308924447,0.9994451622654135,0.023551726308925852,300.0,160.7142857142859,[0.29919233]
-1.9782272503389423e-18,-0.0003853428902238243,1.6492130080698902e-17,-0.0003853428902238243,2.8315136830241435e-19,0.02211980182683102,1.6492130080698902e-17,0.02211980182683102,-1.679977188879475e-17,0.022123158047650485,0.0,-0.022123158047650505,0.2451324178770358,0.937987310901121,0.24513241787703682,300.0,160.7142857142859,[0.30755891]
-1.6621449946701795e-18,-0.01204972023876643,1.64144448964831e-17,-0.01204972023876643,2.3818086712035645e-19,0.025819468737362024,1.64144448964831e-17,0.025819468737362024,-1.7212578027850564e-17,0.028492818809520263,8.286064961550072e-18,-0.028492818809520287,0.49388743428786697,0.715646843425649,0.4938874342878672,300.0,160.7142857142859,[0.31575204]
-1.5224854744079513e-18,-0.034194750858126524,1.6403893277191798e-17,-0.034194750858126524,3.429594217221422e-20,0.032271801333100446,1.6403893277191798e-17,0.032271801333100446,-1.7683394756855027e-17,0.047018614904444464,2.3236572490838566e-18,-0.047018614904444464,0.645687148957464,0.4076471652573616,0.6456871489574643,300.0,160.7142857142859,[0.28720989]
-1.918944870198492e-18,-0.08526605284208995,1.6583533641783588e-17,-0.08526605284208995,-6.791953126303002e-19,0.04592177635722176,1.6583533641783588e-17,0.04592177635722176,-1.83221386627848e-17,0.0968458017214622,3.004176288561764e-19,-0.09684580172146208,0.6983627031115411,0.15677713419208408,0.698362703111541,300.0,160.7142857142859,[0.20713835]
-4.58244659028454e-18,-0.2613135613325921,1.7466399794679744e-17,-0.2613135613325921,-5.1947881318325386e-18,0.07702305591513095,1.7466399794679744e-17,0.07702305591513095,-2.0075869508467157e-17,0.272428575004216,-9.947554211888528e-18,-0.2724285750042161,0.7062243976793788,0.04994196877174037,0.7062243976793787,300.0,160.7142857142859,[0.24544724]
-4.054127987408146e-18,-0.25591780179387946,1.6794523634603254e-17,-0.25591780179387946,-5.063191761386324e-18,0.08140229501444013,1.6794523634603254e-17,0.08140229501444013,-2.0134151413656724e-17,0.2685521456042184,-8.62372097741054e-18,-0.2685521456042186,0.6845898223033048,0.2503468601709624,0.6845898223033045,300.0,147.85714285714295,[0.62175641]
-8.697010047607035e-19,-0.07874968191349806,1.4172885008330632e-17,-0.07874968191349806,-2.5404433011274527e-19,0.051350201418199425,1.4172885008330632e-17,0.051350201418199425,-1.8011855770390646e-17,0.09401252888400975,-3.9111508351245984e-18,-0.09401252888400982,0.7070066468768968,0.016828622753330205,0.7070066468768967,300.0,147.85714285714295,[0.1817354]
8.309029253095163e-20,-0.028741207314002468,1.2277960015554608e-17,-0.028741207314002468,7.596826745687006e-19,0.03700802015233055,1.2277960015554608e-17,0.03700802015233055,-1.7022216471941898e-17,0.04685776940339533,5.913109411420474e-18,-0.04685776940339531,0.6643638711404549,0.34240515978375313,0.6643638711404551,300.0,147.85714285714295,[0.21961114]
5.466323816383177e-19,-0.006744896448767921,1.0586226822072195e-17,-0.006744896448767921,1.2500680153243313e-18,0.030592475877173994,1.0586226822072195e-17,0.030592475877173994,-1.6241846010253246e-17,0.03132719598687495,5.3172727836521245e-18,-0.03132719598687497,0.4962886051804187,0.7123168120549651,0.49628860518041923,300.0,147.85714285714295,[0.32218333]
8.348369963028186e-19,0.005194442146336421,8.975476988702985e-18,0.005194442146336421,1.5788257799047039e-18,0.027267459617762276,8.975476988702985e-18,0.027267459617762276,-1.5526659035194998e-17,0.027757820217335735,-2.808908466355751e-18,-0.027757820217335742,0.25751568438173333,0.9313277321087429,0.25751568438173417,300.0,147.85714285714295,[0.30439556]
1.0319136044241899e-18,0.012284131282613187,7.396562183484855e-18,0.012284131282613187,1.81872780308463e-18,0.02548165865477584,7.396562183484855e-18,0.02548165865477584,-1.4847794388014566e-17,0.028288068318055724,-9.681946202465057e-18,-0.028288068318055727,0.07888412365701376,0.9937578125829905,0.07888412365701468,300.0,147.85714285714295,[0.3024948]
1.1760159117564403e-18,0.01652556734513074,5.8359632766789694e-18,0.01652556734513074,2.0260168864461575e-18,0.024624207317242058,5.8359632766789694e-18,0.024624207317242058,-1.4187209605190943e-17,0.029655454170876686,-9.38270813179143e-18,-0.029655454170876706,0.021262465298522965,0.9995478053294191,0.02126246529852234,300.0,147.85714285714295,[0.30136249]
1.3118770186458249e-18,0.01879107353039729,4.3047893556107026e-18,0.01879107353039729,2.1942620109194165e-18,0.024433028024003503,4.3047893556107026e-18,0.024433028024003503,-1.3535476482102251e-17,0.030823324007097926,-8.251326707623291e-18,-0.03082332400709791,0.0667963087187375,0.9955282548893839,0.06679630871873739,300.0,147.85714285714295,[0.30388916]
1.4176899626036082e-18,0.019436886160108628,2.7765787056893304e-18,0.019436886160108628,2.340789198217366e-18,0.024812986834295586,2.7765787056893304e-18,0.024812986834295586,-1.2901285585059124e-17,0.03151946794030556,-8.590673851816843e-18,-0.03151946794030552,0.07305346125957175,0.9946488745260775,0.07305346125957089,300.0,147.85714285714295,[0.3035267]
1.4728347853200683e-18,0.01849726120040598,1.2704611710498488e-18,0.01849726120040598,2.462308751043883e-18,0.025780535299449,1.2704611710498488e-18,0.025780535299449,-1.2283890797149037e-17,0.031729870347074855,-7.312507468528017e-18,-0.03172987034707486,0.04336717089203577,0.9981175166169772,0.04336717089203548,300.0,147.85714285714295,[0.30388916]
1.5282848376825605e-18,0.015695396535936414,-2.3191730042574007e-19,0.015695396535936414,2.550248803506233e-18,0.027468970909824773,-2.3191730042574007e-19,0.027468970909824773,-1.1688243621518736e-17,0.03163684300408441,-3.2022469829893905e-18,-0.03163684300408441,0.029608057373899835,0.999122978355061,0.02960805737390023,300.0,147.85714285714295,[0.30388916]
1.4981010171305006e-18,0.010279667673923383,-1.694929626164471e-18,0.010279667673923383,2.593574456040229e-18,0.030198408870729387,-1.694929626164471e-18,0.030198408870729387,-1.111269073091888e-17,0.031900085670888916,-2.195076397592966e-19,-0.03190008567088891,0.16319889354282432,0.9730016661305342,0.1631988935428247,300.0,147.85714285714295,[0.30345681]
1.4292886891528267e-18,0.0004796555351926262,-3.13152898926983e-18,0.0004796555351926262,2.5632295420638744e-18,0.034690865459771514,-3.13152898926983e-18,0.034690865459771514,-1.0579615632725154e-17,0.03469418129572174,6.938893903907228e-18,-0.03469418129572174,0.367890022650599,0.8539987485168133,0.36789002265059895,300.0,147.85714285714295,[0.29511711]
1.2100659744915731e-18,-0.018354703771402168,-4.4607065938247776e-18,-0.018354703771402168,2.366848179247354e-18,0.042765949236456546,-4.4607065938247776e-18,0.042765949236456546,-1.0140135814046649e-17,0.046538388075126745,-3.0215439200007514e-18,-0.04653838807512679,0.5818445774356901,0.5682550267418381,0.5818445774356898,300.0,147.85714285714295,[0.28691995]
5.690158890140026e-19,-0.06234963585718344,-5.567847647919114e-18,-0.06234963585718344,1.6516421273362289e-18,0.06014054876735798,-5.567847647919114e-18,0.06014054876735798,-9.97431133023845e-18,0.08662772476270135,-1.5162488252508212e-17,-0.08662772476270136,0.6921032983935538,0.20490497481888414,0.6921032983935537,300.0,147.85714285714295,[0.20848637]
-1.9764128296653072e-18,-0.22254726758454654,-5.777075151497977e-18,-0.22254726758454654,-2.8489499265537253e-18,0.09850153696275721,-5.777075151497977e-18,0.09850153696275721,-1.1281194452731139e-17,0.24337181244625136,-1.4519236369756664e-17,-0.2433718124462511,0.6997569051515564,0.1438073273009124,0.6997569051515566,300.0,147.85714285714295,[0.34386095]
-8.233060985638294e-19,-0.2157927600489402,-6.178275145228453e-18,-0.2157927600489402,-2.9015469295859456e-18,0.10010301517987125,-6.178275145228453e-18,0.10010301517987125,-1.0343032981945826e-17,0.23788049297418487,-1.587533458944458e-17,-0.23788049297418448,0.663979991127504,0.34389117866650626,0.6639799911275042,300.0,134.9999999999996,[0.68426867]
3.412382656625725e-18,-0.054143572916337805,-6.9188555311163145e-18,-0.054143572916337805,1.5109460980676834e-18,0.062197565874812275,-6.9188555311163145e-18,0.062197565874812275,-6.5501815715411305e-18,0.08246249868211858,-1.1391574138760632e-17,-0.08246249868211852,0.70541846688171,0.06906209643875798,0.70541846688171,300.0,134.9999999999996,[0.20871445]
5.755121933137185e-18,-0.011419790213341188,-6.763981690772096e-18,-0.011419790213341188,2.1233999810826246e-18,0.04465640078199053,-6.763981690772096e-18,0.04465640078199053,-4.262731253967867e-18,0.046093445730586116,3.7979349889959784e-18,-0.046093445730586116,0.6082881210822737,0.5098736348355288,0.6082881210822736,300.0,134.9999999999996,[0.28194352]
7.738114157394739e-18,0.007283449236917948,-6.367125390459197e-18,0.007283449236917948,2.221857738431163e-18,0.03667465529491741,-6.367125390459197e-18,0.03667465529491741,-2.282155431074734e-18,0.03739089426301241,9.2674491165164e-18,-0.03739089426301242,0.3930262519432967,0.8313006258669654,0.39302625194329704,300.0,134.9999999999996,[0.29034153]
9.584363500229926e-18,0.017480844175344033,-5.868523755151956e-18,0.017480844175344033,2.145984855238678e-18,0.032395887928619506,-5.868523755151956e-18,0.032395887928619506,-4.011480622976444e-19,0.03681132254845422,1.822616522713264e-17,-0.03681132254845423,0.2025877192220324,0.958079554129421,0.20258771922203264,300.0,134.9999999999996,[0.30059852]
1.1373653599675019e-17,0.023598670532581526,-5.336047988086115e-18,0.023598670532581526,2.0145050655600453e-18,0.02994935780798805,-5.336047988086115e-18,0.02994935780798805,1.4181138926675416e-18,0.038129532963520896,1.0678481615333649e-17,-0.0381295329635209,0.08327780045827841,0.9930405912658666,0.08327780045827858,300.0,134.9999999999996,[0.29247685]
1.3112479064309478e-17,0.02733007558573371,-4.763406967112902e-18,0.02733007558573371,1.829030363463372e-18,0.0285953374079647,-4.763406967112902e-18,0.0285953374079647,3.2118679756858536e-18,0.039555358082025545,1.4525220729294067e-17,-0.03955535808202551,0.015993557934776175,0.9997441733809574,0.015993557934776498,300.0,134.9999999999996,[0.29036058]
1.4839943203230518e-17,0.029413827493595616,-4.1878122134192325e-18,0.029413827493595616,1.611944256324343e-18,0.028010695967976906,-4.1878122134192325e-18,0.028010695967976906,4.981733599601516e-18,0.04061738958172276,1.6596311842705883e-17,-0.040617389581722736,0.017272546808986655,0.9997016146098108,0.01727254680898648,300.0,134.9999999999996,[0.29036058]
1.652180942447488e-17,0.030155520172846215,-3.587415961247718e-18,0.030155520172846215,1.3613538964074951e-18,0.02806862405730982,-3.587415961247718e-18,0.02806862405730982,6.735591624303054e-18,0.04119712433369017,1.2199792007259384e-17,-0.04119712433369018,0.025328177018284694,0.999358277545076,0.025328177018284583,300.0,134.9999999999996,[0.29036058]
1.8198232383698338e-17,0.029593169897577168,-2.976997472452237e-18,0.029593169897577168,1.0954299860781754e-18,0.028769082001717208,-2.976997472452237e-18,0.028769082001717208,8.46665069016625e-18,0.04127245793272309,1.6357972650883146e-17,-0.04127245793272309,0.009983508823279868,0.9999003245839813,0.009983508823279395,300.0,134.9999999999996,[0.28760419]
1.9849745212365067e-17,0.027509338361525512,-2.3456840007180574e-18,0.027509338361525512,7.902989037859728e-19,0.030238800802824456,-2.3456840007180574e-18,0.030238800802824456,1.0173282905745604e-17,0.04087968653355596,1.864925810615427e-17,-0.04087968653355599,0.03338409210964552,0.9988848806484305,0.03338409210964563,300.0,134.9999999999996,[0.29288725]
2.1475203299302448e-17,0.023299214229687705,-1.6887715120732581e-18,0.023299214229687705,4.44330638435063e-19,0.03280083622360187,-1.6887715120732581e-18,0.03280083622360187,1.1834732655110932e-17,0.04023367048491145,1.8164579116806146e-17,-0.04023367048491143,0.11808047686673158,0.9859584179699722,0.11808047686673158,300.0,134.9999999999996,[0.3004706]
2.3044770446610845e-17,0.015526010053574683,-9.824775299311733e-19,0.015526010053574683,2.211961091088637e-20,0.037194849776394055,-9.824775299311733e-19,0.037194849776394055,1.3438790752420955e-17,0.04030525819384144,2.6247269315351725e-17,-0.04030525819384145,0.2688090920867829,0.9249234260321009,0.2688090920867826,300.0,134.9999999999996,[0.29411783]
2.4496561343557258e-17,0.00038196417948058127,-1.8993656601957266e-19,0.00038196417948058127,-5.641078386988134e-19,0.0452915423374452,-1.8993656601957266e-19,0.0452915423374452,1.490162926683347e-17,0.04529315294764759,2.7755575615628914e-17,-0.04529315294764757,0.4957656426554584,0.7130447777838644,0.49576564265545847,300.0,134.9999999999996,[0.31154016]
2.5651550324142604e-17,-0.03561758357697691,8.45831887467222e-19,-0.03561758357697691,-1.6688234829148708e-18,0.06294741411428385,8.45831887467222e-19,0.06294741411428385,1.5991536504003754e-17,0.0723255777960887,1.1835169526533543e-17,-0.07232557779608872,0.6813979279166662,0.26719604724199647,0.6813979279166662,300.0,134.9999999999996,[0.26756556]
2.531917219681624e-17,-0.17838103173300868,2.7842446860266966e-18,-0.17838103173300868,-6.579829120562315e-18,0.10096781574101732,2.7842446860266966e-18,0.10096781574101732,1.5194032908781233e-17,0.2049738819890102,2.221656943951631e-17,-0.2049738819890102,0.681425469341023,0.2670555362967282,0.681425469341023,300.0,134.9999999999996,[0.64908394]
2.524448419815245e-17,-0.1716043884602386,2.8700468061853723e-18,-0.1716043884602386,-6.753566788926411e-18,0.0994734141700165,2.8700468061853723e-18,0.0994734141700165,1.510796238790083e-17,0.19835076572943236,2.556829646161723e-17,-0.19835076572943214,0.6257365921377913,0.4657332224778107,0.6257365921377916,300.0,122.14285714285755,[0.75275599]
2.482949057996674e-17,-0.02734258005905213,1.2366352613360207e-18,-0.02734258005905213,-2.207395894212654e-18,0.06122287421642089,1.2366352613360207e-18,0.06122287421642089,1.6341071081017504e-17,0.06705115220192245,2.9409242437791545e-17,-0.06705115220192247,0.7000924297624684,0.14050330806983274,0.7000924297624684,300.0,122.14285714285755,[0.13087416]
2.2960789900945633e-17,0.007432223516081389,5.042433495893244e-19,0.007432223516081389,-1.4801247926819835e-18,0.04395732637857414,5.042433495893244e-19,0.04395732637857414,1.5662899559491603e-17,0.04458121228438594,1.4473853764555063e-17,-0.04458121228438593,0.5276280130518829,0.6657457169864814,0.527628013051883,300.0,122.14285714285755,[0.29004719]
2.081859498047852e-17,0.022491395043506824,2.5957767727223633e-21,0.022491395043506824,-1.2523466394179734e-18,0.035990356878113285,2.5957767727223633e-21,0.035990356878113285,1.4568254903856864e-17,0.042440177181734755,2.2702167565676204e-17,-0.04244017718173476,0.30836262326326563,0.899902764274227,0.3083626232632655,300.0,122.14285714285755,[0.29907835]
1.8557572463090868e-17,0.030708117750482815,-4.043879478112556e-19,0.030708117750482815,-1.1860039690190018e-18,0.03160513166712487,-4.043879478112556e-19,0.03160513166712487,1.3324246968796463e-17,0.04406668632282006,1.5271453724300825e-17,-0.04406668632282005,0.1672524938138458,0.9716240047601227,0.16725249381384633,300.0,122.14285714285755,[0.29468601]
1.627321683498432e-17,0.03566637126804844,-7.743209796763219e-19,0.03566637126804844,-1.1937345986911178e-18,0.02898200419745397,-7.743209796763219e-19,0.02898200419745397,1.2014035995301895e-17,0.04595700824391761,1.2475717479984461e-17,-0.04595700824391762,0.08561089108744896,0.9926437178839275,0.08561089108744896,300.0,122.14285714285755,[0.29108778]
1.3968766921847327e-17,0.03872566541770961,-1.1134851675011e-18,0.03872566541770961,-1.2587161886285732e-18,0.027398896752791013,-1.1134851675011e-18,0.027398896752791013,1.065471802302644e-17,0.047438135559004536,1.5188943767028764e-17,-0.04743813555900454,0.03869583365907879,0.9985015097208707,0.038695833659078596,300.0,122.14285714285755,[0.29149818]
1.1632318767484639e-17,0.04047794501999268,-1.439355173477216e-18,0.04047794501999268,-1.347848544395736e-18,0.026535625403544566,-1.439355173477216e-18,0.026535625403544566,9.272328716846568e-18,0.04840044884707984,1.0342278975447184e-17,-0.048400448847079815,0.013627618701685214,0.9998142707608463,0.013627618701685355,300.0,122.14285714285755,[0.28796533]
9.282292133174163e-18,0.0411694279562553,-1.7543884671940336e-18,0.0411694279562553,-1.4683236395272367e-18,0.02625882190522592,-1.7543884671940336e-18,0.02625882190522592,7.85521317947959e-18,0.04883080509366676,5.755026922998552e-18,-0.04883080509366671,0.004786231832791919,0.9999770917224483,0.004786231832791936,300.0,122.14285714285755,[0.28493196]
6.919233888698375e-18,0.040834356908692276,-2.0463683115560065e-18,0.040834356908692276,-1.6082022786412606e-18,0.026551964268647706,-2.0463683115560065e-18,0.026551964268647706,6.410418188413239e-18,0.04870781775721433,6.469633080500037e-18,-0.048707817757214396,0.01098965151834535,0.9998792202656333,0.01098965151834524,300.0,122.14285714285755,[0.28621511]
4.545314555984611e-18,0.03930592225905937,-2.336057741269434e-18,0.03930592225905937,-1.7796952373168294e-18,0.02751011797731661,-2.336057741269434e-18,0.02751011797731661,4.941202706014001e-18,0.04797668304250616,7.328787037495858e-18,-0.047976683042506164,0.035099433955988954,0.9987672699242494,0.03509943395598874,300.0,122.14285714285755,[0.29149818]
2.1534884173702995e-18,0.036112854533928915,-2.5872108683461534e-18,0.036112854533928915,-2.0024734004330347e-18,0.029395296328432286,-2.5872108683461534e-18,0.029395296328432286,3.4133810119262884e-18,0.04656416764879467,2.020758352313311e-18,-0.04656416764879466,0.08620147552026962,0.992541490939425,0.08620147552026987,300.0,122.14285714285755,[0.29108778]
-2.622346589479391e-19,0.030126604980130412,-2.8111117837410574e-18,0.030126604980130412,-2.3040749999867017e-18,0.032818309646091046,-2.8111117837410574e-18,0.032818309646091046,1.8114913168932862e-18,0.04454945314653739,2.7512565143530463e-18,-0.0445494531465374,0.18665525641715527,0.9645307825589045,0.18665525641715494,300.0,122.14285714285755,[0.30020594]
-2.7631591995155178e-18,0.018320458271030175,-2.9617812976762165e-18,0.018320458271030175,-2.7667094813228153e-18,0.039330438772564466,-2.9617812976762165e-18,0.039330438772564466,2.4290132838225518e-20,0.04338804680212052,-4.441270960034112e-18,-0.04338804680212051,0.3838816256332752,0.8398034264054343,0.38388162563327494,300.0,122.14285714285755,[0.29348129]
-5.464322866481411e-18,-0.010349713112117109,-2.9077242530081805e-18,-0.010349713112117109,-3.744307046305535e-18,0.05376784624262319,-2.9077242530081805e-18,0.05376784624262319,-2.2377169621229124e-18,0.054754888832628426,-1.1179646059449052e-17,-0.054754888832628426,0.6590410769653848,0.3623944228939117,0.6590410769653848,300.0,122.14285714285755,[0.27741449]
-9.299592719083286e-18,-0.13754946806417845,-2.1146272783221022e-18,-0.13754946806417845,-8.508388592132671e-18,0.08391422638468699,-2.1146272783221022e-18,0.08391422638468699,-6.755982660378252e-18,0.16112558317808806,-1.0561421061668827e-17,-0.16112558317808803,0.6329726451824963,0.4457479791332179,0.6329726451824962,300.0,122.14285714285755,[0.48514362]
-1.0399839610512905e-17,-0.13209268079882577,-1.476128456960541e-18,-0.13209268079882577,-8.558402006381507e-18,0.0796185045776969,-1.476128456960541e-18,0.0796185045776969,-8.139248441965305e-18,0.15423223590355298,-6.490897866771768e-18,-0.15423223590355303,0.5445602673168453,0.6378935887117945,0.5445602673168453,300.0,109.28571428571402,[0.46903244]
-9.247457799820754e-18,-0.003643020234564756,-5.994981828267007e-19,-0.003643020234564756,-3.89054410646598e-18,0.048599061777353486,-5.994981828267007e-19,0.048599061777353486,-5.91434582584994e-18,0.04873541219758452,-1.0408340855860843e-17,-0.04873541219758452,0.683016536494509,0.2587988055422392,0.6830165364945089,300.0,109.28571428571402,[0.19589061]
-9.225934870474854e-18,0.024092668982904915,9.878299119446227e-19,0.024092668982904915,-3.006722521188234e-18,0.035028763708378846,9.878299119446227e-19,0.035028763708378846,-5.96306386879717e-18,0.04251436211043591,-1.1734785421337524e-17,-0.0425143621104359,0.41756370553011324,0.8070198904908856,0.4175637055301135,300.0,109.28571428571402,[0.27056993]
-9.365560476331967e-18,0.03587814476187042,2.7559774267980506e-18,0.03587814476187042,-2.6473555487322734e-18,0.028654292687610078,2.7559774267980506e-18,0.028654292687610078,-6.521042738596666e-18,0.04591633435914665,-1.1341970221150811e-17,-0.04591633435914668,0.23402466387682,0.943644484641691,0.23402466387681972,300.0,109.28571428571402,[0.27639188]
-9.55186502152879e-18,0.04226722841619688,4.590339306967038e-18,0.04226722841619688,-2.4458966960531352e-18,0.025030714546942313,4.590339306967038e-18,0.025030714546942313,-7.264601763096238e-18,0.0491228589224759,-9.562759881538145e-18,-0.04912285892247585,0.13914011765860482,0.9804489050001021,0.1391401176586049,300.0,109.28571428571402,[0.2833216]
-9.787553179873218e-18,0.04610717354743738,6.4652339354175705e-18,0.04610717354743738,-2.3242074387229e-18,0.02274988303563095,6.4652339354175705e-18,0.02274988303563095,-8.087928528250684e-18,0.051414284305710205,-1.2569284282947118e-17,-0.0514142843057102,0.08588824783291102,0.9925957977789271,0.08588824783291095,300.0,109.28571428571402,[0.27527359]
-1.0029757143300303e-17,0.04846453853743673,8.357641975917134e-18,0.04846453853743673,-2.2421340484328088e-18,0.02125038935525181,8.357641975917134e-18,0.02125038935525181,-8.972298573048644e-18,0.052918716380846616,-1.4913013391276465e-17,-0.052918716380846685,0.054130870877131816,0.9970655433000211,0.05413087087713155,300.0,109.28571428571402,[0.27568399]
-1.0288237901532111e-17,0.049800250990780615,1.0249792545141931e-17,0.049800250990780615,-2.2010321740404333e-18,0.020278415802082693,1.0249792545141931e-17,0.020278415802082693,-9.899811450540529e-18,0.05377061601085575,-1.665933039765506e-17,-0.05377061601085587,0.035407252460429806,0.9987455396378031,0.035407252460429514,300.0,109.28571428571402,[0.27568399]
-1.0538598279389275e-17,0.05030417450655092,1.2165917684263613e-17,0.05030417450655092,-2.1678021510227217e-18,0.01972045389235419,1.2165917684263613e-17,0.01972045389235419,-1.0856354528897995e-17,0.05403153037353276,-1.9296387928981834e-17,-0.054031530373532796,0.026165902043404403,0.9993151110338068,0.026165902043404035,300.0,109.28571428571402,[0.28106955]
-1.082530854057841e-17,0.0499999879362003,1.408287942287084e-17,0.0499999879362003,-2.1872111266091888e-18,0.019546775382505578,1.408287942287084e-17,0.019546775382505578,-1.1839758875931443e-17,0.05368496271279608,-2.085263443750745e-17,-0.05368496271279601,0.02549888400218327,0.9993495954015722,0.025498884002183166,300.0,109.28571428571402,[0.28106955]
-1.1104434692923777e-17,0.04875274498205376,1.6014066002295206e-17,0.04875274498205376,-2.2204614187830822e-18,0.019801955323841276,1.6014066002295206e-17,0.019801955323841276,-1.2866844976752592e-17,0.052620790358303984,-2.3550981080529962e-17,-0.05262079035830397,0.034786721129011274,0.9987891509553879,0.03478672112901088,300.0,109.28571428571402,[0.27568399]
-1.1392783443810015e-17,0.04618499568874464,1.7955975627730482e-17,0.04618499568874464,-2.3036378221082703e-18,0.02063507382727504,1.7955975627730482e-17,0.02063507382727504,-1.395307780009373e-17,0.05058517666892601,-2.6179770970294038e-17,-0.050585176668925896,0.05903367180341824,0.9965089318148695,0.05903367180341805,300.0,109.28571428571402,[0.27568399]
-1.1702307501389728e-17,0.04138998639481851,1.9929338346824858e-17,0.04138998639481851,-2.4692985629292752e-18,0.02240711595277596,1.9929338346824858e-17,0.02240711595277596,-1.5129117028003687e-17,0.04706601554289897,-3.1756533277366055e-17,-0.04706601554289903,0.11236929552804116,0.9872923998720252,0.11236929552804081,300.0,109.28571428571402,[0.28326735]
-1.2050907312612504e-17,0.031906097454874,2.1943286871697845e-17,0.031906097454874,-2.786900144203732e-18,0.026042696670684238,2.1943286871697845e-17,0.026042696670684238,-1.651569741277812e-17,0.04118520492459864,-3.693283362335152e-17,-0.04118520492459865,0.24110961621195567,0.9400703728659077,0.2411096162119555,300.0,109.28571428571402,[0.28438981]
-1.254114427784576e-17,0.008445326221096576,2.4078502843487454e-17,0.008445326221096576,-3.6376409430940855e-18,0.03439978302032426,2.4078502843487454e-17,0.03439978302032426,-1.8452776951286525e-17,0.035421301597007,-2.6027058429700144e-17,-0.03542130159700701,0.5924959257219548,0.5457995566192471,0.5924959257219553,300.0,109.28571428571402,[0.27111556]
-1.3878423185922474e-17,-0.10814627797232677,2.6625963975627963e-17,-0.10814627797232677,-8.27350543723621e-18,0.05069875580587575,2.6625963975627963e-17,0.05069875580587575,-2.290413535728899e-17,0.11944028331987329,-2.9884619518360005e-19,-0.11944028331987332,0.49476140398096513,0.7144384551951051,0.4947614039809651,300.0,109.28571428571402,[0.44848767]
-1.3917844442567643e-17,-0.1050924232629327,2.6176826831375837e-17,-0.1050924232629327,-8.263084905069363e-18,0.044451564187795535,2.6176826831375837e-17,0.044451564187795535,-2.3193573608439537e-17,0.11410678764217787,-5.1544326589783906e-18,-0.114106787642178,0.3466456370744517,0.8715925680009525,0.3466456370744518,300.0,96.42857142857196,[0.44419065]
-1.290303217692253e-17,0.012249618749675352,2.329258744280163e-17,0.012249618749675352,-3.619128314636548e-18,0.02680758780929166,2.329258744280163e-17,0.02680758780929166,-1.905411644785029e-17,0.029473715810282203,-3.119682034412748e-17,-0.029473715810282224,0.6061951730182461,0.5148347544783256,0.6061951730182464,300.0,96.42857142857196,[0.28181455]
-1.2743943941830232e-17,0.03524762929725356,2.0789383218315248e-17,0.03524762929725356,-2.773585693198888e-18,0.019620725562255012,2.0789383218315248e-17,0.019620725562255012,-1.742948131514952e-17,0.04034065248190631,-3.5285796597463377e-17,-0.04034065248190637,0.2725817882595493,0.9227124890335303,0.27258178825954893,300.0,96.42857142857196,[0.28015072]
-1.2705866543487732e-17,0.044775453128092516,1.8377890632839703e-17,0.044775453128092516,-2.43648882682651e-18,0.01610155806288411,1.8377890632839703e-17,0.01610155806288411,-1.6387628670376412e-17,0.0475825742775487,-2.7298498671785437e-17,-0.04758257427754869,0.16327449695780938,0.9729762984196219,0.16327449695780902,300.0,96.42857142857196,[0.27416889]
-1.2691120136213808e-17,0.0498490907229075,1.6006551510716627e-17,0.0498490907229075,-2.2613681528679033e-18,0.013957426986401393,1.6006551510716627e-17,0.013957426986401393,-1.555116378262809e-17,0.051766220781329864,-2.360702403793438e-17,-0.051766220781329884,0.1132155316690902,0.9870990258215082,0.11321553166908982,300.0,96.42857142857196,[0.29024976]
-1.2693197393527082e-17,0.052830567681340264,1.364349498845672e-17,0.052830567681340264,-2.1719840223862075e-18,0.01247058825662516,1.364349498845672e-17,0.01247058825662516,-1.4812372911522608e-17,0.05428245069079829,-2.0873651547018743e-17,-0.054282450690798366,0.08437259293136702,0.9928557453749643,0.08437259293136666,300.0,96.42857142857196,[0.28225601]
-1.2724040425328558e-17,0.05459221040186464,1.1289093528364597e-17,0.05459221040186464,-2.13062374937205e-18,0.011351496936367464,1.1289093528364597e-17,0.011351496936367464,-1.4135169010367635e-17,0.055759895258669735,-1.8633932239181823e-17,-0.05575989525866975,0.06553346160834725,0.9956961036477217,0.06553346160834701,300.0,96.42857142857196,[0.2826664]
-1.2732635607374808e-17,0.05550569641977728,8.950308989437056e-18,0.05550569641977728,-2.107171805757108e-18,0.010462974280294272,8.950308989437056e-18,0.010462974280294272,-1.3503275284358448e-17,0.056483237919178975,-1.6754683517445653e-17,-0.05648323791917898,0.05236044724832379,0.9972546149945414,0.052360447248323595,300.0,96.42857142857196,[0.2826664]
-1.2768907063644952e-17,0.05571873047923522,6.6035276722441356e-18,0.05571873047923522,-2.1227903166594303e-18,0.009733854360657478,6.6035276722441356e-18,0.009733854360657478,-1.2899870188558166e-17,0.056562574613715604,-1.5129162303986137e-17,-0.05656257461371562,0.04293117241600885,0.9981552128151081,0.04293117241600867,300.0,96.42857142857196,[0.2826664]
-1.278184964849684e-17,0.05523974222214597,4.2664965146849306e-18,0.05523974222214597,-2.153061374069959e-18,0.009127091799281683,4.2664965146849306e-18,0.009127091799281683,-1.2329293177083727e-17,0.05598868569167925,-1.3627708557147492e-17,-0.05598868569167929,0.036433635646688355,0.998671708013764,0.03643363564668827,300.0,96.42857142857196,[0.2826664]
-1.2838745302377345e-17,0.05394058536237879,1.930854456714904e-18,0.05394058536237879,-2.225116568319506e-18,0.008627943677201239,1.930854456714904e-18,0.008627943677201239,-1.1804297655995991e-17,0.054626258899297044,-1.2476998623568462e-17,-0.05462625889929703,0.03280464397920329,0.9989232756657518,0.03280464397920325,300.0,96.42857142857196,[0.2826664]
-1.2883705205307805e-17,0.051479338366762425,-4.0387217727331534e-19,0.051479338366762425,-2.3378705722053294e-18,0.008243030863950118,-4.0387217727331534e-19,0.008243030863950118,-1.1345772779195278e-17,0.052135111359847046,-1.1272804359196011e-17,-0.05213511135984704,0.03292197597056347,0.9989155554882442,0.032921975970563455,300.0,96.42857142857196,[0.2826664]
-1.2951461947426284e-17,0.047040683472087064,-2.7310197034677387e-18,0.047040683472087064,-2.5198116847409727e-18,0.008012016651044104,-2.7310197034677387e-18,0.008012016651044104,-1.0980040364351212e-17,0.04771811304250925,-1.0076108188492977e-17,-0.04771811304250927,0.03993197141635634,0.9984041643130336,0.039931971416356425,300.0,96.42857142857196,[0.2826664]
-1.3047435474600173e-17,0.03840023577610268,-5.0535044295128655e-18,0.03840023577610268,-2.885434805115431e-18,0.008049719547118145,-5.0535044295128655e-18,0.008049719547118145,-1.0837870118285338e-17,0.039234883617101896,-8.903935285530196e-18,-0.03923488361710192,0.06667643511963801,0.9955443264865073,0.06667643511963817,300.0,96.42857142857196,[0.2826664]
-1.3230234118168266e-17,0.016993901581417357,-7.354861143562275e-18,0.016993901581417357,-3.7551634315693625e-18,0.00866985533103914,-7.354861143562275e-18,0.00866985533103914,-1.1281739732775873e-17,0.019077711666236258,-5.360113127110547e-18,-0.01907771166623628,0.2488005233099623,0.9360537373470486,0.24880052330996266,300.0,96.42857142857196,[0.28251402]
-1.4182484904628405e-17,-0.09604933380237972,-9.647553124539322e-18,-0.09604933380237972,-8.403230156450159e-18,0.007891650266722505,-9.647553124539322e-18,0.007891650266722505,-1.433756276131589e-17,0.09637298723093118,-1.5916177520463316e-17,-0.09637298723093121,0.13644340483575215,0.9812066013606178,0.1364434048357521,300.0,96.42857142857196,[0.44273849]
-1.3701379392972278e-17,-0.0960083308619689,-1.0560596341602143e-17,-0.0960083308619689,-8.348009225039407e-18,0.0009301984443494771,-1.0560596341602143e-17,0.0009301984443494771,-1.404325673320623e-17,0.09601283697530845,-1.4247836265828653e-17,-0.09601283697530849,0.07235955746344694,0.9947503148465889,0.0723595574634471,300.0,83.57142857142804,[0.433334]
-1.1767923396685344e-17,0.017128250285752343,-9.462827619472043e-18,0.017128250285752343,-3.5544994477600994e-18,0.00015759491080467836,-9.462827619472043e-18,0.00015759491080467836,-1.0383358269452334e-17,0.017128975276042825,-1.0209355285734334e-17,-0.017128975276042843,0.08563230932737995,0.9926400229683063,0.08563230932738074,300.0,83.57142857142804,[0.27211537]
-1.0613682652662844e-17,0.038626068109290534,-8.387307475726963e-18,0.038626068109290534,-2.5488214177331546e-18,0.0007787454958437004,-8.387307475726963e-18,0.0007787454958437004,-9.347619756026304e-18,0.03863391750949995,-9.010087310962086e-18,-0.038633917509499974,0.09331831490249992,0.9912534409562045,0.09331831490250023,300.0,83.57142857142804,[0.27503451]
-9.548435427311569e-18,0.04735720885525499,-7.334035678530154e-18,0.04735720885525499,-2.06610338209634e-18,0.0008128611387582217,-7.334035678530154e-18,0.0008128611387582217,-8.894938225244333e-18,0.047364184504656515,-8.64340769509783e-18,-0.04736418450465653,0.09121819776878698,0.9916443318002824,0.0912181977687872,300.0,83.57142857142804,[0.27324155]
-8.51791655279772e-18,0.05188598517078071,-6.276152283987084e-18,0.05188598517078071,-1.748073167783803e-18,0.0005736480608579234,-6.276152283987084e-18,0.0005736480608579234,-8.662292824933787e-18,0.051889156181616616,-8.52351693859883e-18,-0.05188915618161663,0.08693409746412302,0.9924136866227695,0.08693409746412321,300.0,83.57142857142804,[0.27211537]
-7.49173660248823e-18,0.054436805314679135,-5.228715387327276e-18,0.054436805314679135,-1.5039762241431104e-18,0.00017592100771408393,-5.228715387327276e-18,0.00017592100771408393,-8.528947742973847e-18,0.05443708957199342,-8.495142435189652e-18,-0.05443708957199342,0.08144117224803528,0.9933451922296355,0.08144117224803543,300.0,83.57142857142804,[0.27211537]
-6.481839805934423e-18,0.055824960065327826,-4.182686402153234e-18,0.055824960065327826,-1.2994913056763574e-18,-0.00034065469974061953,-4.182686402153234e-18,-0.00034065469974061953,-8.452308076278223e-18,0.055825999426073,-8.503279984578614e-18,-0.055825999426073,0.07488167504830523,0.9943769252571785,0.07488167504830534,300.0,83.57142857142804,[0.27113141]
-5.4876729344028644e-18,0.056392327521538194,-3.139015130525387e-18,0.056392327521538194,-1.1324476917389872e-18,-0.0009694504114639489,-3.139015130525387e-18,-0.0009694504114639489,-8.425588824173659e-18,0.056400659902138744,-8.532632382797029e-18,-0.056400659902138744,0.06708136597187575,0.9954899199282203,0.06708136597187582,300.0,83.57142857142804,[0.27252577]
-4.478316648680572e-18,0.056267005018709355,-2.099583921286207e-18,0.056267005018709355,-9.95520003304375e-19,-0.0017251956161704297,-2.099583921286207e-18,-0.0017251956161704297,-8.425867558190695e-18,0.05629344680946016,-8.55089306758296e-18,-0.05629344680946017,0.05759958206532798,0.9966767662044697,0.05759958206532803,300.0,83.57142857142804,[0.27252577]
-3.49500238678571e-18,0.05544051328077428,-1.0647653692184497e-18,0.05544051328077428,-8.815183202491377e-19,-0.00264491681888642,-1.0647653692184497e-18,-0.00264491681888642,-8.461822126738049e-18,0.05550356833406784,-8.555110084581127e-18,-0.05550356833406784,0.04559694356406664,0.997918752942959,0.04559694356406666,300.0,83.57142857142804,[0.27252577]
-2.5073576792877685e-18,0.053765100713497625,-3.143987896414398e-20,0.053765100713497625,-7.968186832129789e-19,-0.00379975605303917,-3.143987896414398e-20,-0.00379975605303917,-8.553261721878169e-18,0.05389920408313236,-8.520135908581553e-18,-0.05389920408313237,0.02943808171660647,0.9991330235207384,0.029438081716606463,300.0,83.57142857142804,[0.28085932]
-1.5343512768974479e-18,0.050869050463229794,9.900660105537266e-19,0.050869050463229794,-7.566150106435624e-19,-0.00532686408391119,9.900660105537266e-19,-0.00532686408391119,-8.690688190528628e-18,0.05114719714704885,-8.428568746715534e-18,-0.05114719714704885,0.00555979112478321,0.9999690882448803,0.005559791124783169,300.0,83.57142857142804,[0.25811529]
-5.70580190949917e-19,0.0458800150145309,1.993546128796858e-18,0.0458800150145309,-8.010614282840827e-19,-0.00751575617717704,1.993546128796858e-18,-0.00751575617717704,-8.933655757983373e-18,0.046491530074287246,-8.075990902337939e-18,-0.04649153007428725,0.03546165758093313,0.9987416791559394,0.03546165758093328,300.0,83.57142857142804,[0.27252577]
3.6497834924284437e-19,0.03643599888754602,2.9663840852258374e-18,0.03643599888754602,-1.0038209513906265e-18,-0.011084152606956048,2.9663840852258374e-18,-0.011084152606956048,-9.381195017089832e-18,0.038084648533858706,-7.096614339328143e-18,-0.03808464853385873,0.12875868173010863,0.9832814468697398,0.1287586817301089,300.0,83.57142857142804,[0.28579111]
1.174648737300255e-18,0.013521224550527136,3.847618670407966e-18,0.013521224550527136,-1.7189590420133775e-18,-0.018324726142734726,3.847618670407966e-18,-0.018324726142734726,-1.0404736532663916e-17,0.022773210172305595,5.269133848614506e-19,-0.0227732101723056,0.518397583827054,0.6800940303844348,0.5183975838270546,300.0,83.57142857142804,[0.27531891]
1.124788202830725e-18,-0.1037370964533744,4.339515719275954e-18,-0.1037370964533744,-6.233731821498195e-18,-0.036027095141836524,4.339515719275954e-18,-0.036027095141836524,-1.3948390193411787e-17,0.10981501156461099,-1.540366480609612e-17,-0.10981501156461086,0.3053113998435111,0.901981096393484,0.3053113998435111,300.0,83.57142857142804,[0.43197899]
1.0344953385135445e-18,-0.10672277537657977,4.733284682659185e-18,-0.10672277537657977,-6.167808709384372e-18,-0.04232375319339827,4.733284682659185e-18,-0.04232375319339827,-1.3957835355236223e-17,0.11480875780381729,-1.5186830377746036e-17,-0.11480875780381741,0.4631379853087696,0.7556496629578207,0.46313798530876954,300.0,70.71428571428592,[0.43080404]
1.1474218289441307e-18,0.009943001098451351,5.5775256400833516e-18,0.009943001098451351,-1.5222745692011444e-18,-0.026070340946454777,5.5775256400833516e-18,-0.026070340946454777,-1.0701945421886363e-17,0.02790207784212855,1.6487106434989575e-18,-0.027902077842128586,0.5403868987879693,0.6449527108530061,0.5403868987879694,300.0,70.71428571428592,[0.26165599]
4.1058050622016313e-19,0.03347488950121086,6.010316703460929e-18,0.03347488950121086,-6.697265696960572e-19,-0.017762780215121874,6.010316703460929e-18,-0.017762780215121874,-9.962369220337445e-18,0.037895706723704216,-2.6899618213673337e-18,-0.03789570672370421,0.10654334095444336,0.9885833465098077,0.10654334095444357,300.0,70.71428571428592,[0.26664666]
-4.727668072985574e-19,0.04302784536578314,6.316233381152859e-18,0.04302784536578314,-3.2413056793253904e-19,-0.014180905578377546,6.316233381152859e-18,-0.014180905578377546,-9.776953868449722e-18,0.045304454083948585,-5.151088427457563e-18,-0.04530445408394863,0.012893300851231146,0.9998337489734578,0.012893300851230905,300.0,70.71428571428592,[0.2534079]
-1.3940812973431556e-18,0.04789008887185927,6.581757538679704e-18,0.04789008887185927,-1.54210654750453e-19,-0.01246677956779371,6.581757538679704e-18,-0.01246677956779371,-9.794076403731994e-18,0.04948617185584814,-6.095956978867016e-18,-0.049486171855848214,0.057869046101420206,0.9966455473269439,0.05786904610141996,300.0,70.71428571428592,[0.25944616]
-2.3208432887092984e-18,0.050523278226128614,6.821353603583801e-18,0.050523278226128614,-5.388283590738833e-20,-0.01169576987662476,6.821353603583801e-18,-0.01169576987662476,-9.904665979685147e-18,0.05185935475612637,-6.537787673872679e-18,-0.05185935475612636,0.07700195117663552,0.9940530162068733,0.07700195117663534,300.0,70.71428571428592,[0.2580518]
-3.2660419985559062e-18,0.05183416112731754,7.049689489838173e-18,0.05183416112731754,-5.646483495303285e-21,-0.011506857966305184,7.049689489838173e-18,-0.011506857966305184,-1.0077931495940537e-17,0.053096026593610915,-6.708929285463382e-18,-0.05309602659361092,0.08334904736300991,0.9930286363480952,0.08334904736300978,300.0,70.71428571428592,[0.25903576]
-4.239465972059201e-18,0.052200168354954606,7.258744506872273e-18,0.052200168354954606,2.0749521935511527e-20,-0.011750921370021433,7.258744506872273e-18,-0.011750921370021433,-1.0292839662376108e-17,0.053506464369550984,-6.858274334675566e-18,-0.053506464369550984,0.08126283838288902,0.9933744018223507,0.08126283838288884,300.0,70.71428571428592,[0.2580518]
-5.1944320305788345e-18,0.051756223854049835,7.467680359814966e-18,0.051756223854049835,1.7165193244954405e-20,-0.012383336271603151,7.467680359814966e-18,-0.012383336271603151,-1.053270989080124e-17,0.05321704355604622,-6.896826980460995e-18,-0.05321704355604627,0.07182505140933997,0.994827786091689,0.07182505140933976,300.0,70.71428571428592,[0.25944616]
-6.174354851962229e-18,0.050478627605650694,7.663897847166146e-18,0.050478627605650694,-9.47907622955142e-21,-0.013433777017528545,7.663897847166146e-18,-0.013433777017528545,-1.0803238741450036e-17,0.05223560289598118,-6.6668998467044054e-18,-0.05223560289598119,0.05404076615462461,0.9970753187131062,0.05404076615462448,300.0,70.71428571428592,[0.25944616]
-7.162972478956898e-18,0.048177499081184814,7.846311707962147e-18,0.048177499081184814,-7.546485050594912e-20,-0.015015694248858439,7.846311707962147e-18,-0.015015694248858439,-1.1118402128705223e-17,0.0504632786439086,-6.473013432109175e-18,-0.050463278643908614,0.02436677535280187,0.9994060838907337,0.024366775352801743,300.0,70.71428571428592,[0.25441408]
-8.151038996868454e-18,0.04439190211497127,8.012717240914225e-18,0.04439190211497127,-1.9286327319845305e-19,-0.017382845813298065,8.012717240914225e-18,-0.017382845813298065,-1.1485107992958597e-17,0.04767393734478081,-5.853110447120556e-18,-0.04767393734478081,0.0258919220063269,0.999329383511581,0.025891922006327135,300.0,70.71428571428592,[0.26347138]
-9.19310148702321e-18,0.038055287433097884,8.145190749158347e-18,0.038055287433097884,-3.703582867104495e-19,-0.021096583174516424,8.145190749158347e-18,-0.021096583174516424,-1.1937148859431449e-17,0.04351173086944471,-4.675296127495991e-18,-0.043511730869444716,0.11934448493035056,0.9856539899140159,0.11934448493035071,300.0,70.71428571428592,[0.26664666]
-1.0287790655314661e-17,0.026320457138222522,8.210648995461437e-18,0.026320457138222522,-7.117947396779109e-19,-0.0275650118142069,8.210648995461437e-18,-0.0275650118142069,-1.2578563524764004e-17,0.038112941900125936,-3.707905173320089e-18,-0.038112941900125936,0.3214306289298369,0.890710223120594,0.3214306289298373,300.0,70.71428571428592,[0.25186472]
-1.154933445746967e-17,-0.0013661835771087562,8.092867181017364e-18,-0.0013661835771087562,-1.5836527535951658e-18,-0.04123310166646972,8.092867181017364e-18,-0.04123310166646972,-1.3726389147094031e-17,0.04125572845804313,-1.3877787807814457e-17,-0.041255728458043144,0.6747940148928534,0.2988412202651554,0.6747940148928535,300.0,70.71428571428592,[0.20557692]
-1.39159537144825e-17,-0.12976743315740596,7.265391796513822e-18,-0.12976743315740596,-6.2455104533682955e-18,-0.07235455361638682,7.265391796513822e-18,-0.07235455361638682,-1.7154755026955204e-17,0.14857579929883732,-2.300080261073905e-17,-0.14857579929883766,0.5290064179188232,0.6635543833035774,0.5290064179188229,300.0,70.71428571428592,[0.45315517]
-1.4209423540541054e-17,-0.13519348802293646,7.068108654964428e-18,-0.13519348802293646,-6.2680916181362894e-18,-0.07673899736646254,7.068108654964428e-18,-0.07673899736646254,-1.6583041882909425e-17,0.15545466516196227,-2.0917363324971417e-17,-0.1554546651619623,0.6227267205125565,0.47373290271982654,0.6227267205125566,300.0,57.857142857142705,[0.43908442]
-1.1926161651999454e-17,-0.007962291841898504,7.897070179298346e-18,-0.007962291841898504,-1.6429165867953191e-18,-0.046677078334549135,7.897070179298346e-18,-0.046677078334549135,-1.249771370262094e-17,0.04735132240207445,-9.348979653156958e-18,-0.047351322402074486,0.6534590207622857,0.3820767152926082,0.6534590207622858,300.0,57.857142857142705,[0.24793418]
-1.0772402068599519e-17,0.02073570498966883,7.988579855377161e-18,0.02073570498966883,-8.150696673341828e-19,-0.03232703063344275,7.988579855377161e-18,-0.03232703063344275,-1.066891862034305e-17,0.03840581168253213,-3.287046735719957e-18,-0.03840581168253217,0.300843484176979,0.9049786716031,0.30084348417697876,300.0,57.857142857142705,[0.23778732]
-9.822128915887628e-18,0.03256693200058575,7.878858408708056e-18,0.03256693200058575,-5.048233389080433e-19,-0.02590552166371583,7.878858408708056e-18,-0.02590552166371583,-9.314180152583236e-18,0.04161371303548898,-2.174676541728935e-19,-0.04161371303548901,0.07830291570748253,0.9938497405460314,0.07830291570748263,300.0,57.857142857142705,[0.2376066]
-8.91743672364986e-18,0.038575735989604905,7.689844950402699e-18,0.038575735989604905,-3.671319139676262e-19,-0.02257643090688254,7.689844950402699e-18,-0.02257643090688254,-8.145761067572482e-18,0.044696561832348346,-2.3212693743536327e-18,-0.04469656183234838,0.022267169193753687,0.9995040501929913,0.022267169193753548,300.0,57.857142857142705,[0.23396888]
-8.071611460089887e-18,0.04178890441887959,7.47046114231715e-18,0.04178890441887959,-2.9238668474520405e-19,-0.02078844281427575,7.47046114231715e-18,-0.02078844281427575,-7.058607256167447e-18,0.04667410296055691,-1.1294048164056422e-18,-0.046674102960556935,0.07015846069645262,0.9950656163215612,0.07015846069645275,300.0,57.857142857142705,[0.23900096]
-7.25427429682624e-18,0.043335022354315585,7.224708751776798e-18,0.043335022354315585,-2.7400719682337034e-19,-0.01993068944408927,7.224708751776798e-18,-0.01993068944408927,-6.01744137809791e-18,0.04769860107137069,-1.0684489152577008e-18,-0.04769860107137067,0.09161266732232358,0.991571600224703,0.09161266732232337,300.0,57.857142857142705,[0.2389027]
-6.442371916982221e-18,0.04368538557540621,6.964152590925745e-18,0.04368538557540621,-2.8737265191403145e-19,-0.019741089640784006,6.964152590925745e-18,-0.019741089640784006,-5.008492065236994e-18,0.04793874772120543,-5.428602232168264e-19,-0.047938747721205426,0.09627122505599472,0.9906884992026687,0.09627122505599514,300.0,57.857142857142705,[0.24069566]
-5.639931656165194e-18,0.04300682817402343,6.685265296675777e-18,0.04300682817402343,-3.2440612247409577e-19,-0.02012450404889783,6.685265296675777e-18,-0.02012450404889783,-4.026065936826073e-18,0.04748244868163478,9.326322288736118e-19,-0.04748244868163479,0.08698554630588032,0.9924046702166082,0.08698554630588023,300.0,57.857142857142705,[0.23859056]
-4.861409529555292e-18,0.04126513357224065,6.401952040080198e-18,0.04126513357224065,-3.7120694170718624e-19,-0.021097376822485196,6.401952040080198e-18,-0.021097376822485196,-3.0698196095133603e-18,0.046345555963056444,1.134635882391091e-18,-0.046345555963056465,0.06241315703653359,0.996096981050272,0.06241315703653341,300.0,57.857142857142705,[0.23900096]
-4.086940174356593e-18,0.03821411394962657,6.090404511314072e-18,0.03821411394962657,-4.680686023650152e-19,-0.022792996117964884,6.090404511314072e-18,-0.022792996117964884,-2.149187646871695e-18,0.04449538377167462,4.9365456517220254e-18,-0.04449538377167461,0.01639629751710035,0.9997311252809234,0.016396297517100224,300.0,57.857142857142705,[0.23396888]
-3.3447403756245076e-18,0.0332618616476777,5.760746822694856e-18,0.0332618616476777,-5.940934719459845e-19,-0.025531466096930525,5.760746822694856e-18,-0.025531466096930525,-1.2681634701033296e-18,0.04193098140191766,4.2926374736027134e-18,-0.041930981401917686,0.06613448600616943,0.9956166227626976,0.06613448600616921,300.0,57.857142857142705,[0.23900096]
-2.631571307670582e-18,0.025048918250603514,5.3882374883443796e-18,0.025048918250603514,-8.134825791573321e-19,-0.03003479090928869,5.3882374883443796e-18,-0.03003479090928869,-4.600552643315136e-19,0.039109295192960324,3.4427175653230864e-18,-0.039109295192960344,0.21885008084541888,0.9508991977217707,0.21885008084541846,300.0,57.857142857142705,[0.2474734]
-2.048141796482843e-18,0.009991392195589317,4.928940661392872e-18,0.009991392195589317,-1.203227982560327e-18,-0.038122567850526,4.928940661392872e-18,-0.038122567850526,1.9475771067165558e-19,0.039410126839735514,2.536346520292394e-18,-0.03941012683973552,0.48378722338745145,0.7293146405867091,0.4837872233874511,300.0,57.857142857142705,[0.24608118]
-1.6906670093716205e-18,-0.024783678420991932,4.226765292300045e-18,-0.024783678420991932,-2.0857783075588526e-18,-0.055511683323408466,4.226765292300045e-18,-0.055511683323408466,4.467332620724057e-19,0.06079290831563766,-4.671975117684424e-18,-0.06079290831563766,0.7000801252253727,0.1406258743220909,0.700080125225373,300.0,57.857142857142705,[0.118343]
-2.8391105097698305e-18,-0.1690468742964298,2.637457311652008e-18,-0.1690468742964298,-6.767761557204642e-18,-0.09388905425720413,2.637457311652008e-18,-0.09388905425720413,-1.2194899398128132e-18,0.19337011200985837,-8.84575432560626e-18,-0.19337011200985818,0.6195874457085656,0.4818950033364843,0.6195874457085658,300.0,57.857142857142705,[0.71264346]
-2.9280001655753914e-18,-0.17584198018017258,2.4410555472011604e-18,-0.17584198018017258,-6.786406001416434e-18,-0.09549229497229163,2.4410555472011604e-18,-0.09549229497229163,-5.551830510278549e-19,0.20009792700765142,3.677698545903907e-18,-0.20009792700765133,0.6780037135069591,0.2839400094061189,0.6780037135069589,300.0,45.00000000000011,[0.56861202]
-1.3187955572892184e-18,-0.03310020323516308,3.796605311120827e-18,-0.03310020323516308,-2.1275650939607705e-18,-0.05757397611252405,3.796605311120827e-18,-0.05757397611252405,1.8481103958158556e-18,0.06641073843599835,-2.4804140346870025e-18,-0.06641073843599837,0.6826770902048627,0.26058392317801177,0.6826770902048626,300.0,45.00000000000011,[0.19220802]
-1.2162044818173291e-18,0.0028744158721909045,4.242249072928924e-18,0.0028744158721909045,-1.2530736794776193e-18,-0.04002178312281811,4.242249072928924e-18,-0.04002178312281811,2.364987126266686e-18,0.04012487247252247,-3.469446951953614e-18,-0.0401248724725225,0.4628970132685882,0.7559449121556681,0.4628970132685879,300.0,45.00000000000011,[0.24317988]
-1.4236588979037908e-18,0.017990955364528646,4.438080916400071e-18,0.017990955364528646,-8.941108978419902e-19,-0.032030796156580305,4.438080916400071e-18,-0.032030796156580305,2.5024549280983784e-18,0.03673753363187112,2.6066401457510176e-18,-0.03673753363187112,0.1910830614370868,0.9627951637101534,0.19108306143708695,300.0,45.00000000000011,[0.24690539]
-1.7375028028349853e-18,0.02573428279623026,4.554469590671543e-18,0.02573428279623026,-7.086881271781487e-19,-0.027744564790574,4.554469590671543e-18,-0.027744564790574,2.500966933573972e-18,0.03784196330074209,3.2131589427058902e-18,-0.037841963300742104,0.02656154463191446,0.9992942352948573,0.026561544631914107,300.0,45.00000000000011,[0.23874743]
-2.0927901108163115e-18,0.02991226014404275,4.618647568181555e-18,0.02991226014404275,-5.960414305897586e-19,-0.02529234850833579,4.618647568181555e-18,-0.02529234850833579,2.4393105450754945e-18,0.03917200786265627,3.7228328167002654e-18,-0.03917200786265624,0.058969553614727395,0.9965165244455103,0.05896955361472749,300.0,45.00000000000011,[0.23472221]
-2.4868076694385956e-18,0.03196174871254022,4.6665993575382245e-18,0.03196174871254022,-5.127052586217256e-19,-0.023934421274744554,4.6665993575382245e-18,-0.023934421274744554,2.340687455002022e-18,0.039930062641079234,3.2808405508703624e-18,-0.039930062641079234,0.10051734090616248,0.9898446991090616,0.1005173409061626,300.0,45.00000000000011,[0.23641691]
-2.907142806429867e-18,0.03248762583743983,4.683995327711733e-18,0.03248762583743983,-4.93458833719148e-19,-0.023347653078491383,4.683995327711733e-18,-0.023347653078491383,2.2095828434299706e-18,0.040006983600704954,5.164083148007597e-18,-0.040006983600704954,0.11422971611870349,0.9868653119402265,0.11422971611870375,300.0,45.00000000000011,[0.24149153]
-3.3318529016809314e-18,0.031707393816245995,4.690997062630173e-18,0.031707393816245995,-4.774215594005465e-19,-0.023405233942454362,4.690997062630173e-18,-0.023405233942454362,2.063208270955037e-18,0.03941019916873719,1.0423694935491012e-17,-0.039410199168737205,0.10533009283009884,0.988843335968244,0.10533009283009896,300.0,45.00000000000011,[0.24149153]
-3.788985168221624e-18,0.029583100759569166,4.687037555833035e-18,0.029583100759569166,-4.950485714588983e-19,-0.024107122189985987,4.687037555833035e-18,-0.024107122189985987,1.89456889152232e-18,0.038161671751034916,5.703984374608683e-18,-0.03816167175103495,0.07174710014419873,0.9948390358453958,0.0717471001441986,300.0,45.00000000000011,[0.23472221]
-4.296276839926919e-18,0.025809219105775404,4.659201777922586e-18,0.025809219105775404,-5.419776295363287e-19,-0.025580045385286906,4.659201777922586e-18,-0.025580045385286906,1.7075563831187282e-18,0.036338058736856874,2.5005939422867977e-18,-0.03633805873685693,0.003153356679672697,0.9999900562922122,0.003153356679672785,300.0,45.00000000000011,[0.22031173]
-4.8074686682204026e-18,0.019647051091780707,4.608332289900895e-18,0.019647051091780707,-6.344537336827664e-19,-0.028147054619642585,4.608332289900895e-18,-0.028147054619642585,1.4824664763726358e-18,0.03432584012612342,6.890988742914827e-19,-0.034325840126123414,0.12381348128160029,0.9845508842644252,0.12381348128159986,300.0,45.00000000000011,[0.24677456]
-5.3928991293099075e-18,0.009403528617614093,4.514111183628791e-18,0.009403528617614093,-7.953436715467806e-19,-0.032547806092889785,4.514111183628791e-18,-0.032547806092889785,1.2124399828496003e-18,0.03387899101098852,-8.318965971997177e-18,-0.03387899101098851,0.3415727089949198,0.8755890411258832,0.3415727089949198,300.0,45.00000000000011,[0.2347945]
-6.130096553287579e-18,-0.009347521389613044,4.322751272419562e-18,-0.009347521389613044,-1.1309436673590384e-18,-0.040652996641785344,4.322751272419562e-18,-0.040652996641785344,8.288426251987999e-19,0.041713814163731,-7.626917914601593e-18,-0.04171381416373098,0.5993280527541947,0.5306710566478366,0.5993280527541943,300.0,45.00000000000011,[0.23779249]
-7.209117266416051e-18,-0.05212060682512264,3.892108805836329e-18,-0.05212060682512264,-1.9820595781169005e-18,-0.05831913190636448,3.892108805836329e-18,-0.05831913190636448,1.4852813719971537e-19,0.07821559180963192,-6.521827085658884e-18,-0.07821559180963193,0.7059956728339102,0.05603766482990566,0.7059956728339102,300.0,45.00000000000011,[0.12885683]
-1.0200503455150769e-17,-0.21382001868746456,2.5612672757804426e-18,-0.21382001868746456,-6.624000513573858e-18,-0.09635161446802676,2.5612672757804426e-18,-0.09635161446802676,-2.0376368094985727e-18,0.2345264036352898,-8.99114031975778e-18,-0.23452640363528987,0.6612723095303087,0.3541720842992903,0.6612723095303087,300.0,45.00000000000011,[0.69616238]
-1.092993448035718e-17,-0.22063891783603728,1.758207017244914e-18,-0.22063891783603728,-6.706929712680515e-18,-0.09485496521491163,1.758207017244914e-18,-0.09485496521491163,-4.540901444019064e-18,0.24016451963139715,-5.800309781072743e-18,-0.240164519631397,0.6986322455914871,0.15435663523020848,0.6986322455914872,300.0,32.14285714285738,[0.30926255]
-8.775894953903767e-18,-0.06051101608751535,1.353369173653309e-18,-0.06051101608751535,-2.2210713481625664e-18,-0.05658784410070615,1.353369173653309e-18,-0.05658784410070615,-7.984264909717043e-18,0.08284785554200759,-6.6536136265542496e-18,-0.08284785554200763,0.6942601858802592,0.18975138630064262,0.6942601858802592,300.0,32.14285714285738,[0.17841154]
-8.559249734031229e-18,-0.01658801031319486,5.3786126861553516e-20,-0.01658801031319486,-1.5369330109868024e-18,-0.03930752943713314,5.3786126861553516e-20,-0.03930752943713314,-1.288596475254857e-17,0.04266431713506906,-8.256172638960235e-18,-0.04266431713506907,0.5793899513034643,0.5732491331499229,0.5793899513034643,300.0,32.14285714285738,[0.20441078]
-8.730924452721709e-18,0.0021726777475000905,-1.4816482913492443e-18,0.0021726777475000905,-1.3411790646649033e-18,-0.03132755954644287,-1.4816482913492443e-18,-0.03132755954644287,-1.806226953359361e-17,0.03140281063424745,-6.938893903907228e-18,-0.03140281063424747,0.3338778206189611,0.8815050775789472,0.33387782061896104,300.0,32.14285714285738,[0.20523469]
-9.072849485087854e-18,0.011897440771550284,-3.1012095110973113e-18,0.011897440771550284,-1.3461814394193178e-18,-0.026931098988218126,-3.1012095110973113e-18,-0.026931098988218126,-2.3324309930768547e-17,0.029442031003749567,-1.2661404314608197e-17,-0.02944203100374957,0.10217654626750196,0.9895048796169171,0.10217654626750239,300.0,32.14285714285738,[0.21449274]
-9.482467670062888e-18,0.017236444577897997,-4.7707330085302515e-18,0.017236444577897997,-1.4060234072441603e-18,-0.024298509275031372,-4.7707330085302515e-18,-0.024298509275031372,-2.863901939908657e-17,0.029791149267454152,-1.8267982382913898e-17,-0.029791149267454173,0.039565320410318364,0.998433358237623,0.03956532041031796,300.0,32.14285714285738,[0.20772343]
-9.935157149533558e-18,0.019960193379653168,-6.463473035914507e-18,0.019960193379653168,-1.5315575777761266e-18,-0.02270772199236408,-6.463473035914507e-18,-0.02270772199236408,-3.398143693638329e-17,0.030233259133537766,-2.699432132070582e-17,-0.030233259133537776,0.11272125863763038,0.9872121533400491,0.11272125863762976,300.0,32.14285714285738,[0.21449274]
-1.0414164207373216e-17,0.020820391205238514,-8.175942768474223e-18,0.020820391205238514,-1.664128987369388e-18,-0.021838561829093592,-8.175942768474223e-18,-0.021838561829093592,-3.9340642104211767e-17,0.030173025580844795,-3.1363115095415475e-17,-0.03017302558084485,0.14085208471161972,0.9799598871712971,0.14085208471161953,300.0,32.14285714285738,[0.21650881]
-1.0923422914575163e-17,0.02009391761521916,-9.894807486048375e-18,0.02009391761521916,-1.8298178135571283e-18,-0.021557667871969936,-9.894807486048375e-18,-0.021557667871969936,-4.471081858209484e-17,0.0294702997813965,-3.5491111223142265e-17,-0.029470299781396533,0.13303730840482847,0.9821416135898108,0.1330373084048279,300.0,32.14285714285738,[0.22176809]
-1.1453030264845914e-17,0.0177465934378646,-1.1631627761480427e-17,0.0177465934378646,-2.015634839180428e-18,-0.021848523964624108,-1.1631627761480427e-17,-0.021848523964624108,-5.0097748776104574e-17,0.028147816577518265,-3.9068328232854966e-17,-0.028147816577518286,0.08547121100657802,0.9926677914479435,0.08547121100657677,300.0,32.14285714285738,[0.20731303]
-1.2015738074508587e-17,0.013422259423435131,-1.3386880516092307e-17,0.013422259423435131,-2.237197647794594e-18,-0.02280619989287182,-1.3386880516092307e-17,-0.02280619989287182,-5.54971594711965e-17,0.026462800335255894,-3.2564966245755674e-17,-0.02646280033525592,0.02053967972534047,0.9995780325285069,0.020539679725342114,300.0,32.14285714285738,[0.20419449]
-1.262239895319988e-17,0.006248670856874971,-1.5157519812374647e-17,0.006248670856874971,-2.5282510724887274e-18,-0.024692711877520406,-1.5157519812374647e-17,-0.024692711877520406,-6.091786841270043e-17,0.0254710798228853,-2.310337111916013e-17,-0.02547107982288535,0.21782557115082354,0.9513695607415837,0.21782557115082501,300.0,32.14285714285738,[0.21388801]
-1.33238845085918e-17,-0.005775486228946727,-1.697406437563002e-17,-0.005775486228946727,-2.867666438876386e-18,-0.028118872331729817,-1.697406437563002e-17,-0.028118872331729817,-6.637001600774568e-17,0.02870587435332482,-6.678001088460252e-18,-0.028705874353324896,0.4889710854550796,0.722367327041971,0.48897108545508017,300.0,32.14285714285738,[0.20873692]
-1.4214205471662223e-17,-0.027857440448983316,-1.8856447397464573e-17,-0.027857440448983316,-3.388320386196864e-18,-0.03463596521553181,-1.8856447397464573e-17,-0.03463596521553181,-7.189901364478077e-17,0.04444870160961037,-1.7923200384014497e-17,-0.04444870160961041,0.668390748166333,0.32635504520582853,0.6683907481663335,300.0,32.14285714285738,[0.17693339]
-1.556237090378075e-17,-0.07795224359659933,-2.0949570293381072e-17,-0.07795224359659933,-4.409754439440619e-18,-0.0490801653650703,-2.0949570293381072e-17,-0.0490801653650703,-7.76175928064069e-17,0.09211631187800663,-4.39529174926699e-17,-0.09211631187800681,0.7071064853003027,0.0009148182909672936,0.7071064853003028,300.0,32.14285714285738,[0.11230806]
-1.9179410038070975e-17,-0.2552070394923048,-2.377068285228661e-17,-0.2552070394923048,-9.228584433374437e-18,-0.07923522558922906,-2.377068285228661e-17,-0.07923522558922906,-8.447708647049577e-17,0.26722435139897505,-6.55277828633787e-17,-0.26722435139897505,0.6833481112574975,0.2570422488261844,0.6833481112574974,300.0,32.14285714285738,[0.57524658]
-1.9760431626495573e-17,-0.26069851895085727,-2.3373475219933226e-17,-0.26069851895085727,-9.307740654912087e-18,-0.07493389175199759,-2.3373475219933226e-17,-0.07493389175199759,-8.489046915443853e-17,0.271254135298009,-6.763972870209281e-17,-0.2712541352980088,0.7059700743849681,0.0566789921025813,0.7059700743849685,300.0,19.285714285714306,[0.17734781]
-1.6850033037174697e-17,-0.08475169381478306,-2.0160839930831653e-17,-0.08475169381478306,-4.648952738714416e-18,-0.04389454458279893,-2.0160839930831653e-17,-0.04389454458279893,-7.93486857866752e-17,0.09544412317479818,-5.031121610457524e-17,-0.09544412317479821,0.700061481012783,0.14081138307813532,0.7000614810127834,300.0,19.285714285714306,[0.16724037]
-1.6212984851500658e-17,-0.0337822327394273,-1.7659417272438953e-17,-0.0337822327394273,-3.7533072140409865e-18,-0.030306243641001176,-1.7659417272438953e-17,-0.030306243641001176,-7.491820964570952e-17,0.045384002164733685,-3.1096741233121376e-17,-0.04538400216473377,0.6527619241484997,0.3844525208187564,0.6527619241484998,300.0,19.285714285714306,[0.22574339]
-1.6087365894955905e-17,-0.01173996283868344,-1.5332147203960423e-17,-0.01173996283868344,-3.404938444703054e-18,-0.02391563003001294,-1.5332147203960423e-17,-0.02391563003001294,-7.066344403764296e-17,0.02664177334912455,-1.7547483677262128e-17,-0.026641773349124633,0.5037531620423442,0.7017588641867513,0.5037531620423445,300.0,19.285714285714306,[0.21086575]
-1.615031103084874e-17,-0.00017915107192859872,-1.307674599922053e-17,-0.00017915107192859872,-3.2114228491187235e-18,-0.02027777445598046,-1.307674599922053e-17,-0.02027777445598046,-6.646517982849745e-17,0.020278565826857317,-1.734723475976807e-17,-0.020278565826857387,0.2394298307771695,0.940928643558071,0.23942983077717067,300.0,19.285714285714306,[0.22066388]
-1.6280271031248172e-17,0.006287071658244401,-1.0852304407049691e-17,0.006287071658244401,-3.102082807029014e-18,-0.017984544542378196,-1.0852304407049691e-17,-0.017984544542378196,-6.229140181984474e-17,0.019051800766139788,-2.862360776122473e-17,-0.019051800766139836,0.00020993580299849397,0.9999999559269577,0.00020993580300038617,300.0,19.285714285714306,[0.1976839]
-1.6479416418081538e-17,0.009722137157457638,-8.648991489265296e-18,0.009722137157457638,-3.0193994873594382e-18,-0.016474546121211235,-8.648991489265296e-18,-0.016474546121211235,-5.813593758995394e-17,0.019129313129548953,-3.6159227524004676e-17,-0.01912931312954899,0.13807617131793493,0.980749683572909,0.13807617131793345,300.0,19.285714285714306,[0.21828482]
-1.6730383015930127e-17,0.011008741812349827,-6.453309312631703e-18,0.011008741812349827,-2.974768130228527e-18,-0.015493974923990394,-6.453309312631703e-18,-0.015493974923990394,-5.399661661689774e-17,0.019006726578667397,-3.4709422193373014e-17,-0.01900672657866744,0.1961948156773673,0.9607367946543154,0.19619481567736602,300.0,19.285714285714306,[0.1957581]
-1.6982163559501467e-17,0.010480093727353867,-4.276118965386885e-18,0.010480093727353867,-2.9506889025971084e-18,-0.014929334077538383,-4.276118965386885e-18,-0.014929334077538383,-4.9858245247184745e-17,0.01824054222146014,-3.215388550309472e-17,-0.01824054222146018,0.19232187339360685,0.962301716733763,0.19232187339360587,300.0,19.285714285714306,[0.20486128]
-1.7293362140833717e-17,0.008112551017085122,-2.103172158082041e-18,0.008112551017085122,-2.972801094731876e-18,-0.014750904892127109,-2.103172158082041e-18,-0.014750904892127109,-4.573242220736417e-17,0.016834567982024023,-2.4350436495378296e-17,-0.016834567982024044,0.11699532675006681,0.9862171094831456,0.11699532675006595,300.0,19.285714285714306,[0.21626875]
-1.7627893832884863e-17,0.003518063898734924,5.845995581641954e-20,0.003518063898734924,-3.0182463975855393e-18,-0.015003269868337743,5.845995581641954e-20,-0.015003269868337743,-4.161039758091645e-17,0.01541021999640993,-1.8529966455285858e-17,-0.015410219996409973,0.07500566092813495,0.9943582360786617,0.07500566092813558,300.0,19.285714285714306,[0.20810508]
-1.8023471454142422e-17,-0.00426945965258848,2.2112404099799503e-18,-0.00426945965258848,-3.099505312240299e-18,-0.01583551460006259,2.2112404099799503e-18,-0.01583551460006259,-3.7503905752011245e-17,0.016400969738825676,-2.0094796786510594e-17,-0.01640096973882572,0.3992334884067276,0.8253637037507708,0.39923348840672773,300.0,19.285714285714306,[0.20218832]
-1.85254046498396e-17,-0.017473156957242022,4.332912876052046e-18,-0.017473156957242022,-3.2785733712457783e-18,-0.01760862819789024,4.332912876052046e-18,-0.01760862819789024,-3.3422103610029525e-17,0.024806753134256607,-2.810240741068897e-17,-0.024806753134256627,0.6358917129548298,0.43735964467557426,0.6358917129548298,300.0,19.285714285714306,[0.2167873]
-1.9204235382614917e-17,-0.041865380930171524,6.414375575560057e-18,-0.041865380930171524,-3.603473372244356e-18,-0.021247230110314343,6.414375575560057e-18,-0.021247230110314343,-2.9378963889878533e-17,0.046948428171654656,-3.27892427978927e-17,-0.04694842817165475,0.700858161324491,0.13264869169994678,0.7008581613244909,300.0,19.285714285714306,[0.08789745]
-2.0468021774808134e-17,-0.09715733710209304,8.366573519973486e-18,-0.09715733710209304,-4.444550619088275e-18,-0.029609300434866467,8.366573519973486e-18,-0.029609300434866467,-2.5456288136694867e-17,0.10156898554682883,-2.994675648674962e-17,-0.10156898554682883,0.706518765822102,0.04077336241257569,0.7065187658221022,300.0,19.285714285714306,[0.12947045]
-2.4227365752959532e-17,-0.2850078065321675,9.91222253307476e-18,-0.2850078065321675,-9.091638065521383e-18,-0.045915278612655194,9.91222253307476e-18,-0.045915278612655194,-2.2404534306856027e-17,0.28868263299747565,-2.523845710716273e-17,-0.28868263299747565,0.6960753981310823,0.17594908420708058,0.6960753981310823,300.0,19.285714285714306,[0.33789749]
-2.4049925585399557e-17,-0.28808550717011344,1.099915378119623e-17,-0.28808550717011344,-8.989352219695526e-18,-0.0396606734143168,1.099915378119623e-17,-0.0396606734143168,-1.9966224236731415e-17,0.2908027311720758,-2.2776234750408502e-17,-0.2908027311720758,0.7068926604603861,0.02460758367810208,0.7068926604603861,300.0,6.428571428571418,[0.1905368]
-1.9622603484109537e-17,-0.1010218984842765,1.1061463021993165e-17,-0.1010218984842765,-4.1383713697129966e-18,-0.021994892858241112,1.1061463021993165e-17,-0.021994892858241112,-1.8409281726726955e-17,0.10338858392111268,-2.294846856266937e-17,-0.10338858392111275,0.70341872819357,0.10200091006005939,0.70341872819357,300.0,6.428571428571418,[0.16190309]
-1.7710916296605585e-17,-0.045305471564482766,1.0742955886358703e-17,-0.045305471564482766,-3.0965208445902076e-18,-0.014788303052875715,1.0742955886358703e-17,-0.014788303052875715,-1.7705625649407696e-17,0.047657944362549325,-2.4166239069294014e-17,-0.04765794436254937,0.6925429655821753,0.20191206414003937,0.6925429655821754,300.0,6.428571428571418,[0.09500428]
-1.6403719465865585e-17,-0.020996159931367882,1.032396884697074e-17,-0.020996159931367882,-2.5823784630517473e-18,-0.01125144688081103,1.032396884697074e-17,-0.01125144688081103,-1.7109681722732642e-17,0.02382086876617415,-2.619919089253182e-17,-0.023820868766174143,0.6567334666967106,0.370678172328828,0.6567334666967108,300.0,6.428571428571418,[0.22518396]
-1.528969908665877e-17,-0.00811042877948097,9.879452739132706e-18,-0.00811042877948097,-2.2174594640178536e-18,-0.009091673851727426,9.879452739132706e-18,-0.009091673851727426,-1.6551857587406482e-17,0.012183496559412543,-2.5568522069994746e-17,-0.012183496559412556,0.526833534341066,0.6670028891896962,0.526833534341066,300.0,6.428571428571418,[0.21107451]
-1.4259786432136345e-17,-0.0007761995305920261,9.416783945957043e-18,-0.0007761995305920261,-1.9233537428633995e-18,-0.007591256203262923,9.416783945957043e-18,-0.007591256203262923,-1.6008548817469402e-17,0.007630835894898339,-1.6524224015266062e-17,-0.007630835894898356,0.15023399912968305,0.9771691209872554,0.15023399912968133,300.0,6.428571428571418,[0.20070702]
-1.3303671523143454e-17,0.003264173671762448,8.940863098982821e-18,0.003264173671762448,-1.684053700374259e-18,-0.006460665548094792,8.940863098982821e-18,-0.006460665548094792,-1.5473108189518927e-17,0.007238441067230289,-6.942331076316536e-18,-0.007238441067230312,0.24620080918132686,0.9374275028592447,0.24620080918132825,300.0,6.428571428571418,[0.21623402]
-1.2383912856433491e-17,0.004982619988323616,8.466358178422136e-18,0.004982619988323616,-1.4816525306498836e-18,-0.005562737978540902,8.466358178422136e-18,-0.005562737978540902,-1.4948113198343772e-17,0.007467968650573136,-4.9117924917023944e-18,-0.007467968650573161,0.40984161338987535,0.8148985850202268,0.40984161338987596,300.0,6.428571428571418,[0.20239708]
-1.1519502498870675e-17,0.004754489739785042,7.981619586118099e-18,0.004754489739785042,-1.3061115697763303e-18,-0.004826320068645939,7.981619586118099e-18,-0.004826320068645939,-1.4432614240600725e-17,0.006774845982805486,-4.835330007761973e-18,-0.006774845982805506,0.4367167911730846,0.7864838768944782,0.43671679117308504,300.0,6.428571428571418,[0.21289816]
-1.0673541577690244e-17,0.0025713743155958337,7.498559756867238e-18,0.0025713743155958337,-1.1387100661302987e-18,-0.004214376381783869,7.498559756867238e-18,-0.004214376381783869,-1.391684396761676e-17,0.004936895194172501,-5.474300639476778e-18,-0.00493689519417252,0.2983956009582698,0.9065981086774366,0.29839560095827083,300.0,6.428571428571418,[0.2061867]
-9.87153372553843e-18,-0.0019615912875973517,7.009446206303407e-18,-0.0019615912875973517,-1.0147190010310501e-18,-0.003712171342309689,7.009446206303407e-18,-0.003712171342309689,-1.3407313945173898e-17,0.004198577908559412,-1.6309362766217356e-17,-0.00419857790855942,0.3982845512814376,0.8262801174063724,0.3982845512814362,300.0,6.428571428571418,[0.20239708]
-9.130300487352112e-18,-0.00984604197184058,6.5188573791170896e-18,-0.00984604197184058,-9.314252220694104e-19,-0.003326330714389923,6.5188573791170896e-18,-0.003326330714389923,-1.2906737325681308e-17,0.01039273874071412,-1.643872611491042e-17,-0.01039273874071413,0.6910377285205416,0.21197574276869524,0.6910377285205419,300.0,6.428571428571418,[0.14574341]
-8.483484953005047e-18,-0.023396564634837483,6.021892643769211e-18,-0.023396564634837483,-9.281694391784017e-19,-0.0030965207837366474,6.021892643769211e-18,-0.0030965207837366474,-1.2421083044439174e-17,0.023600586384160894,-1.3925414434731745e-17,-0.023600586384160908,0.706973929020638,0.019383688251812435,0.706973929020638,300.0,6.428571428571418,[0.05484289]
-8.064574221028592e-18,-0.048622759812748315,5.523825690255107e-18,-0.048622759812748315,-1.0990980409563594e-18,-0.0031375630270168682,5.523825690255107e-18,-0.0031375630270168682,-1.1960932395843274e-17,0.048723886067889924,-1.2654054075622293e-17,-0.04872388606788991,0.7063004598440414,0.047742233380848334,0.7063004598440414,300.0,6.428571428571418,[0.05589961]
-8.225192843651689e-18,-0.10595975405733513,5.0062749110026224e-18,-0.10595975405733513,-1.768975370781403e-18,-0.0037631843344127242,5.0062749110026224e-18,-0.0037631843344127242,-1.1602524962591398e-17,0.10602655816457363,-1.1953801616103054e-17,-0.10602655816457364,0.7050279155468653,0.07662425594603973,0.7050279155468653,300.0,6.428571428571418,[0.15024089]
-1.1005631432573133e-17,-0.29734927563834984,4.471800843597915e-18,-0.29734927563834984,-6.231568453390685e-18,-0.002992667241577227,4.471800843597915e-18,-0.002992667241577227,-1.2014381498304e-17,0.29736433508386684,-1.2104322230959297e-17,-0.29736433508386684,0.7034218306244878,0.1019581110152035,0.7034218306244878,300.0,6.428571428571418,[0.20484519]
-1.002129973852483e-17,-0.2974066885683441,3.476582625507803e-18,-0.2974066885683441,-6.161026490752162e-18,0.003975297296161023,3.476582625507803e-18,0.003975297296161023,-1.0219902494876362e-17,0.2974332553595527,-1.0127078270482703e-17,-0.2974332553595527,0.7036560257779985,0.09867317149370254,0.7036560257779986,300.0,6.428571428571418,[0.20484519]
-5.280879849216139e-18,-0.10613186455711716,1.3909314969681303e-18,-0.10613186455711716,-1.5144816748008882e-18,0.004768479792240385,1.3909314969681303e-18,0.004768479792240385,-6.236994758209033e-18,0.1062389338891316,-6.111576693486719e-18,-0.10623893388913158,0.7055060316592292,0.06724937609296959,0.705506031659229,300.0,6.428571428571418,[0.14993106]
-3.167876752951482e-18,-0.048909317213047886,-6.72013937347268e-19,-0.048909317213047886,-6.782881022934827e-19,0.004165508118086356,-6.72013937347268e-19,0.004165508118086356,-3.0243509905061806e-18,0.0490863806786402,-3.1411871887031383e-18,-0.04908638067864023,0.706844516523817,0.027233415511509634,0.706844516523817,300.0,6.428571428571418,[0.05837546]
-1.6463408818867414e-18,-0.023797223270003377,-2.724089804823413e-18,-0.023797223270003377,-3.532524436744458e-19,0.004147205745071915,-2.724089804823413e-18,0.004147205745071915,9.604559528475715e-20,0.02415589267351441,-8.85206111635577e-19,-0.02415589267351441,0.7058199081606946,0.060303519698743056,0.7058199081606947,300.0,6.428571428571418,[0.08034156]
-3.483687693379327e-19,-0.010360361933586863,-4.767890557451578e-18,-0.010360361933586863,-1.9154856008767951e-19,0.004399855962283815,-4.767890557451578e-18,0.004399855962283815,3.1890393417430386e-18,0.01125592430161825,-7.844707112480253e-19,-0.011255924301618248,0.6777016847879774,0.2853784379925596,0.6777016847879777,300.0,6.428571428571418,[0.17312126]
8.801466415360231e-19,-0.0025890393218838464,-6.807842025099228e-18,-0.0025890393218838464,-1.1232450973980073e-19,0.004808625735378978,-6.807842025099228e-18,0.004808625735378978,6.266839434709946e-18,0.005461319078135784,-3.7180158867793484e-18,-0.005461319078135769,0.4028182461429459,0.8218728132434138,0.40281824614294487,300.0,6.428571428571418,[0.20239708]
2.0294380020621002e-18,0.0018314237727751984,-8.844758153489113e-18,0.0018314237727751984,-7.271248456586134e-20,0.005333831908436592,-8.844758153489113e-18,0.005333831908436592,9.328360613221809e-18,0.0056394925182096396,8.370411145225924e-18,-0.005639492518209635,0.15330908716079084,0.9762134231754086,0.15330908716079295,300.0,6.428571428571418,[0.20070702]
3.1407452288597426e-18,0.00390275339861232,-1.0873060022979872e-17,0.00390275339861232,-6.511565782017434e-20,0.0059688304056315965,-1.0873060022979872e-17,0.0059688304056315965,1.2393137574624683e-17,0.007131508991901523,1.5847509597559133e-17,-0.007131508991901525,0.3182711951989369,0.8929764233244232,0.3182711951989386,300.0,6.428571428571418,[0.20507296]
4.209727278074271e-18,0.004019904425558034,-1.2907008640922225e-17,0.004019904425558034,-8.573561612989621e-20,0.006728338326791824,-1.2907008640922225e-17,0.006728338326791824,1.544163562157251e-17,0.00783773999507491,1.8780162635778883e-17,-0.007837739995074911,0.2924236358123843,0.9104816496978569,0.29242363581238595,300.0,6.428571428571418,[0.2061867]
5.2613451518700866e-18,0.002191373942956353,-1.4934547436297902e-17,0.002191373942956353,-1.2317711937649646e-19,0.007649373051459822,-1.4934547436297902e-17,0.007649373051459822,1.8493932081893182e-17,0.007957074075203014,1.3467538619528995e-17,-0.007957074075203003,0.11740307063387055,0.9861201945054549,0.11740307063387327,300.0,6.428571428571418,[0.21647751]
6.258699977482424e-18,-0.001958101342069936,-1.6957982588654705e-17,-0.001958101342069936,-2.007732782788709e-19,0.00880307078774277,-1.6957982588654705e-17,0.00880307078774277,2.1542972759322845e-17,0.009018215796920498,1.5529906271409122e-18,-0.009018215796920472,0.22984893072469628,0.9456949498064521,0.22984893072469462,300.0,6.428571428571418,[0.21587277]
7.196365450092934e-18,-0.009400365024866198,-1.89696155280316e-17,-0.009400365024866198,-3.212372452461934e-19,0.010326579622052306,-1.89696155280316e-17,0.010326579622052306,2.4572478739406456e-17,0.013964422984545918,-3.747635071328153e-18,-0.013964422984545874,0.5315529699514322,0.6594716675275929,0.531552969951432,300.0,6.428571428571418,[0.21107451]
8.028760609227496e-18,-0.02239297869994396,-2.096652961558873e-17,-0.02239297869994396,-5.241810454524034e-19,0.012509414733452693,-2.096652961558873e-17,0.012509414733452693,2.759167474033521e-17,0.025650164756384458,3.848147499731153e-18,-0.025650164756384444,0.6520443758653592,0.38688016724136615,0.6520443758653595,300.0,6.428571428571418,[0.21529504]
8.673405621647222e-18,-0.046807937229541074,-2.292705354645781e-17,-0.046807937229541074,-8.942550340637276e-19,0.016069297017701482,-2.292705354645781e-17,0.016069297017701482,3.057614239042653e-17,0.0494894462923942,1.418086187753566e-17,-0.049489446292394164,0.690294952548282,0.216761982304854,0.6902949525482821,300.0,6.428571428571418,[0.14819109]
8.712475016339327e-18,-0.102628688697159,-2.48004513705873e-17,-0.102628688697159,-1.771145892708742e-18,0.023298892393335924,-2.48004513705873e-17,0.023298892393335924,3.3442859225959706e-17,0.10524013554939306,2.159233928368649e-17,-0.10524013554939303,0.702752165865165,0.11080968704783392,0.7027521658651652,300.0,6.428571428571418,[0.15985781]
6.257614716518755e-18,-0.28979519345851085,-2.6288242408562938e-17,-0.28979519345851085,-6.439938558415243e-18,0.040987767862599,-2.6288242408562938e-17,0.040987767862599,3.54565609440486e-17,0.2926794343065703,2.744105996126139e-17,-0.29267943430657045,0.7068235362879011,0.028301538808563145,0.706823536287901,300.0,6.428571428571418,[0.1905368]
6.670013882713192e-18,-0.28681889047455006,-2.614125737679594e-17,-0.28681889047455006,-6.4866047798530345e-18,0.047283891024222216,-2.614125737679594e-17,0.047283891024222216,3.6138647459714923e-17,0.29069028584292683,2.713110589814852e-17,-0.2906902858429269,0.6965257625427493,0.1723476841401798,0.6965257625427493,300.0,19.28571428571425,[0.3303859]
9.700062493278637e-18,-0.09906699282913316,-2.4932242748862923e-17,-0.09906699282913316,-1.8818425110030384e-18,0.031042641299042648,-2.4932242748862923e-17,0.031042641299042648,3.57685734711036e-17,0.103816735871576,1.916513093899852e-17,-0.10381673587157583,0.7067231912304773,0.03293420644284596,0.7067231912304773,300.0,19.28571428571425,[0.12947045]
1.0205794102348658e-17,-0.0438719655555101,-2.3314186480841816e-17,-0.0438719655555101,-1.0787493978875549e-18,0.022744373049223957,-2.3314186480841816e-17,0.022744373049223957,3.452703492866561e-17,0.049417161665823474,1.0066774641031476e-17,-0.049417161665823404,0.7000216491545249,0.14120687458462614,0.7000216491545247,300.0,19.28571428571425,[0.09132071]
1.0162383663801875e-17,-0.01957487760003696,-2.156861204958954e-17,-0.01957487760003696,-7.933257644424575e-19,0.01916896557712454,-2.156861204958954e-17,0.01916896557712454,3.315960611444195e-17,0.027397537742531102,7.478330468060482e-19,-0.027397537742531047,0.6402603672173826,0.4244211638706596,0.6402603672173821,300.0,19.28571428571425,[0.2167873]
9.910603120230534e-18,-0.006464440251006194,-1.9775625279986947e-17,-0.006464440251006194,-6.67435492656787e-19,0.01745848281744751,-1.9775625279986947e-17,0.01745848281744751,3.1744425817816825e-17,0.018616863593149617,5.35858622080699e-19,-0.018616863593149575,0.45076531106271034,0.7704682139355761,0.4507653110627097,300.0,19.28571428571425,[0.2126894]
9.569831177638289e-18,0.0012317643495489855,-1.7957914909055757e-17,0.0012317643495489855,-6.2511031507367365e-19,0.01668828760414364,-1.7957914909055757e-17,0.01668828760414364,3.031785028107317e-17,0.016733684190023263,1.3877787807814457e-17,-0.01673368419002324,0.18377982522275566,0.9656344814070112,0.18377982522275385,300.0,19.28571428571425,[0.21881505]
9.174796186862564e-18,0.0057369309892911155,-1.6133014684240257e-17,0.0057369309892911155,-6.185987492916562e-19,0.016497358476097505,-1.6133014684240257e-17,0.016497358476097505,2.887445319939264e-17,0.017466402430516573,2.432049702419387e-17,-0.01746640243051656,0.0013658657316212685,0.9999981344090629,0.001365865731619957,300.0,19.28571428571425,[0.19764895]
8.723327625976022e-18,0.008017204220127272,-1.4299601943740973e-17,0.008017204220127272,-6.554976220564217e-19,0.016736573873727165,-1.4299601943740973e-17,0.016736573873727165,2.7424544551930095e-17,0.018557706446055058,2.3694401918843828e-17,-0.01855770644605505,0.0777138381676039,0.9939422109531915,0.0777138381676053,300.0,19.28571428571425,[0.20810508]
8.254494889670767e-18,0.008460682304490767,-1.2445738816957542e-17,0.008460682304490767,-7.108459312035699e-19,0.017361315273524695,-1.2445738816957542e-17,0.017361315273524695,2.596486855579452e-17,0.019313166832092693,2.2077025716863175e-17,-0.019313166832092676,0.08244509247485632,0.9931795474402524,0.0824450924748571,300.0,19.28571428571425,[0.20908904]
7.74008119289139e-18,0.007091052033387355,-1.0589501681816081e-17,0.007091052033387355,-7.878994596241096e-19,0.0184012668463108,-1.0589501681816081e-17,0.0184012668463108,2.4492169428094908e-17,0.019720285000205857,1.7243730761620498e-17,-0.019720285000205836,0.022072480153269774,0.9995126868828464,0.02207248015327054,300.0,19.28571428571425,[0.2059705]
7.216985408402656e-18,0.0035751470981507764,-8.719088325336688e-18,0.0035751470981507764,-8.964255559910667e-19,0.01996989353797684,-8.719088325336688e-18,0.01996989353797684,2.301838503943163e-17,0.020287393245351792,1.0829828341974967e-17,-0.020287393245351785,0.11227035961367605,0.9873149106057458,0.11227035961367474,300.0,19.28571428571425,[0.21626875]
6.622262400311731e-18,-0.002969689477337194,-6.828122839357803e-18,-0.002969689477337194,-1.0635557443961809e-18,0.022320971734064304,-6.828122839357803e-18,0.022320971734064304,2.1523980692458628e-17,0.022517656066844645,3.387342079847186e-18,-0.022517656066844617,0.3195246355827403,0.8920807219705145,0.3195246355827397,300.0,19.28571428571425,[0.2048642]
5.9363774712725605e-18,-0.014606850814832423,-4.904226466012568e-18,-0.014606850814832423,-1.3012278954398172e-18,0.026015875013011672,-4.904226466012568e-18,0.026015875013011672,1.999918903850288e-17,0.029835982360556134,5.8190412621809506e-18,-0.029835982360556106,0.5303934832605997,0.6613361519147247,0.5303934832605997,300.0,19.28571428571425,[0.21086575]
5.055145568772868e-18,-0.03672316306988575,-2.926813161396378e-18,-0.03672316306988575,-1.7049449739248983e-18,0.03246273255904117,-2.926813161396378e-18,0.03246273255904117,1.8415793292508973e-17,0.049014484706638016,8.103811059229023e-18,-0.04901448470663804,0.6547336972331029,0.37768713429893647,0.6547336972331029,300.0,19.28571428571425,[0.22574339]
3.681205188767189e-18,-0.0877642910247076,-7.474395743223033e-19,-0.0877642910247076,-2.6198199662983476e-18,0.046106531305161944,-7.474395743223033e-19,0.046106531305161944,1.6655500009436926e-17,0.09913820155754005,1.457810960596265e-17,-0.09913820155754012,0.6994683462640319,0.14658807983366398,0.6994683462640316,300.0,19.28571428571425,[0.16483795]
3.4728350837426314e-20,-0.2637802191085685,2.13508137399431e-18,-0.2637802191085685,-7.325511504769613e-18,0.07720094528671487,2.13508137399431e-18,0.07720094528671487,1.3795837370167605e-17,0.27484539280498566,1.3871542677972624e-17,-0.2748453928049852,0.7061554182651932,0.051856055667778976,0.7061554182651932,300.0,19.28571428571425,[0.17930702]
-3.0821411368215854e-19,-0.2583540018595206,3.4252192589616293e-18,-0.2583540018595206,-7.321170460914935e-18,0.08156936411296584,3.4252192589616293e-18,0.08156936411296584,1.1654617488847537e-17,0.27092499227391836,1.2968835357503574e-17,-0.27092499227391853,0.6842097827117976,0.2524162167590469,0.6842097827117976,300.0,32.142857142857125,[0.57524658]
2.1661808834844663e-18,-0.08115642184333337,2.7356715741700744e-18,-0.08115642184333337,-2.6002852689522953e-18,0.05150222192191765,2.7356715741700744e-18,0.05150222192191765,1.0727804625873722e-17,0.09611890380829122,5.771946475509444e-18,-0.09611890380829113,0.7070996935851641,0.004477350057052333,0.7070996935851644,300.0,32.142857142857125,[0.11043469]
2.3984267297097548e-18,-0.031117005677147487,2.770264267387042e-18,-0.031117005677147487,-1.677813449833159e-18,0.03714397501374431,2.770264267387042e-18,0.03714397501374431,8.671235099719883e-18,0.048455576790843086,6.784126148036306e-18,-0.048455576790843086,0.6728679427779727,0.30740439678618436,0.6728679427779726,300.0,32.142857142857125,[0.17333929]
2.144475664211075e-18,-0.009088333634144187,3.014007096946205e-18,-0.009088333634144187,-1.2632437617113822e-18,0.030711381752962424,3.014007096946205e-18,0.030711381752962424,6.409551251432495e-18,0.032027906229126345,2.3910192543202084e-18,-0.03202790622912636,0.5306352579253207,0.6609481417577759,0.5306352579253211,300.0,32.142857142857125,[0.20908975]
1.7168828445252636e-18,0.0028847206378469154,3.326901398534189e-18,0.0028847206378469154,-1.0158042619947197e-18,0.02736836966279255,3.326901398534189e-18,0.02736836966279255,4.078410701470253e-18,0.027519979490502604,-1.2884244452024887e-18,-0.027519979490502597,0.31137099727189477,0.8978286050888619,0.3113709972718949,300.0,32.142857142857125,[0.20533651]
1.2046396696732253e-18,0.010009411850065656,3.6796112117267996e-18,0.010009411850065656,-8.443330297349274e-19,0.02556366509921462,3.6796112117267996e-18,0.02556366509921462,1.7179681054889332e-18,0.02745340231900299,-3.620980408550701e-18,-0.027453402319002985,0.13201499134897932,0.9824174693674059,0.1320149913489793,300.0,32.142857142857125,[0.22176809]
6.424744904923868e-19,0.014287065621020495,4.050261745225073e-18,0.014287065621020495,-7.141017140945786e-19,0.02468644381523626,4.050261745225073e-18,0.02468644381523626,-6.696060145841261e-19,0.02852263578812734,-2.577032449054805e-18,-0.02852263578812734,0.02570278501707018,0.9993391484800007,0.025702785017070292,300.0,32.142857142857125,[0.21325179]
5.643357011081776e-20,0.016589932023022547,4.450553468793572e-18,0.016589932023022547,-6.294513589283519e-19,0.024474671768636557,4.450553468793572e-18,0.024474671768636557,-3.068032744293881e-18,0.029567472037883194,-3.745291748605873e-18,-0.02956747203788319,0.024531707142883413,0.9993980141511748,0.02453170714288336,300.0,32.142857142857125,[0.20419449]
-5.665062230355167e-19,0.017274172216890683,4.8509808499825295e-18,0.017274172216890683,-5.513125695441427e-19,0.024833260431922133,4.8509808499825295e-18,0.024833260431922133,-5.4794826055676706e-18,0.03025041899641177,-9.47384866747307e-18,-0.030250418996411718,0.03306101558915428,0.9989063712362775,0.0330610155891536,300.0,32.142857142857125,[0.20772343]
-1.2111512354552427e-18,0.016373965296780608,5.2745717698648095e-18,0.016373965296780608,-5.25266306416073e-19,0.025778708399282122,5.2745717698648095e-18,0.025778708399282122,-7.908296642260173e-18,0.03053929511752677,-9.471237285926516e-18,-0.030539295117526767,0.003453022757463948,0.9999880765627525,0.0034530227574636704,300.0,32.142857142857125,[0.19481609]
-1.8818425110030384e-18,0.013612430867153644,5.709524015460505e-18,0.013612430867153644,-5.122431748520381e-19,0.027444361590603056,5.709524015460505e-18,0.027444361590603056,-1.0350133810516711e-17,0.030634804670975214,-9.537565300187896e-18,-0.030634804670975232,0.0709836342261081,0.9949485651751593,0.07098363422610837,300.0,32.142857142857125,[0.20772343]
-2.6067968347343127e-18,0.008237865066711885,6.1705903529945e-18,0.008237865066711885,-5.491420476168036e-19,0.030150384782126307,6.1705903529945e-18,0.030150384782126307,-1.281693198093765e-17,0.03125552948467878,-1.0569743918934661e-17,-0.03125552948467881,0.20509871531315635,0.9570104670032537,0.20509871531315663,300.0,32.142857142857125,[0.21312331]
-3.3946962943584226e-18,-0.0015202313432443886,6.671099143676862e-18,-0.0015202313432443886,-6.533271001290825e-19,0.034618844723662806,6.671099143676862e-18,0.034618844723662806,-1.5334737416651057e-17,0.03465220791433149,0.0,-0.03465220791433151,0.402107993881894,0.8225681263655659,0.4021079938818941,300.0,32.142857142857125,[0.20041231]
-4.343214376605628e-18,-0.02031200291800723,7.269824051571318e-18,-0.02031200291800723,-9.31153906828493e-19,0.042669401112951214,7.269824051571318e-18,0.042669401112951214,-1.794370477331271e-17,0.04725733016029424,-2.188855331730623e-18,-0.047257330160294264,0.5970220854586116,0.5358444354001448,0.5970220854586116,300.0,32.142857142857125,[0.209899]
-5.697620059265255e-18,-0.06426375614369907,8.091977060361249e-18,-0.06426375614369907,-1.7147123225979244e-18,0.0600189940892808,8.091977060361249e-18,0.0600189940892808,-2.0819646327037075e-17,0.08793241725999544,-4.1826266234045484e-19,-0.08793241725999545,0.694347286397071,0.18911290740202777,0.6943472863970708,300.0,32.142857142857125,[0.16159208]
-8.968596603765346e-18,-0.22441769870739206,9.817440249380524e-18,-0.22441769870739206,-6.303195676992877e-18,0.09835454834940385,9.817440249380524e-18,0.09835454834940385,-2.5174798574243072e-17,0.245024326698671,-1.772983716726071e-17,-0.24502432669867077,0.6993823174748302,0.14740674342468998,0.69938231747483,300.0,32.142857142857125,[0.28587809]
-9.187819318426599e-18,-0.21762126128221587,1.0471784781663047e-17,-0.21762126128221587,-6.394357597941121e-18,0.09992663191431532,1.0471784781663047e-17,0.09992663191431532,-2.6078820956979826e-17,0.23946679337186083,-1.8292835556939502e-17,-0.23946679337186114,0.6630311633718259,0.34753323984276113,0.6630311633718261,300.0,45.0,[0.63395257]
-7.00210373759608e-18,-0.05593185179973831,9.918471262217139e-18,-0.05593185179973831,-1.9773454758059607e-18,0.06198783983404066,9.918471262217139e-18,0.06198783983404066,-2.2930478901374393e-17,0.08349170218074707,-5.617245858188682e-18,-0.08349170218074717,0.706176114235283,0.05128929095935041,0.7061761142352833,300.0,45.0,[0.15773868]
-6.680866492349888e-18,-0.013167408193548277,1.0267416576442021e-17,-0.013167408193548277,-1.3609172484416437e-18,0.04441302787818536,1.0267416576442021e-17,0.04441302787818536,-2.1285223280451322e-17,0.04632383494319086,-6.235320567311812e-18,-0.04632383494319089,0.6214990203460837,0.47694647018058134,0.6214990203460838,300.0,45.0,[0.24074014]
-6.741641106315384e-18,0.005576843377606589,1.0849794741071205e-17,0.005576843377606589,-1.2437090643653299e-18,0.036397406544129644,1.0849794741071205e-17,0.036397406544129644,-1.994384072935573e-17,0.03682217246710201,-9.895719114274668e-18,-0.036822172467102024,0.4185054968451277,0.8060436081384338,0.4185054968451284,300.0,45.0,[0.2275863]
-6.950011211339941e-18,0.01581551570681893,1.1540834659687805e-17,0.01581551570681893,-1.306654200258165e-18,0.032084608116923,1.1540834659687805e-17,0.032084608116923,-1.8705557969808748e-17,0.03577083469936306,-1.849461935553336e-17,-0.03577083469936308,0.2274072236060197,0.9468748118434683,0.22740722360602017,300.0,45.0,[0.24319465]
-7.212644364547978e-18,0.021974800448006183,1.2269383910361235e-17,0.021974800448006183,-1.4347149939711746e-18,0.029603963834952056,1.2269383910361235e-17,0.029603963834952056,-1.7524794041336254e-17,0.036868503217120714,-1.7503072381887933e-17,-0.036868503217120735,0.10346451199845694,0.9892371755619793,0.10346451199845715,300.0,45.0,[0.24149153]
-7.51000586859344e-18,0.025747762542580762,1.3023538536896245e-17,0.025747762542580762,-1.6300619674316978e-18,0.02821581633304774,1.3023538536896245e-17,0.02821581633304774,-1.636790585406449e-17,0.038197900037690656,-2.4803882156216e-17,-0.03819790003769068,0.03230614494555597,0.9989557677883008,0.03230614494555584,300.0,45.0,[0.23472221]
-7.826902069984955e-18,0.027873089977741693,1.3791394583097582e-17,0.027873089977741693,-1.829749984746899e-18,0.027597102792078144,1.3791394583097582e-17,0.027597102792078144,-1.5243575495702813e-17,0.0392238349402989,-2.5383574867672964e-17,-0.0392238349402989,0.0035181055866110853,0.9999876228564848,0.003518105586611321,300.0,45.0,[0.22031173]
-8.182867666068575e-18,0.02865629887133018,1.4580277560470016e-17,0.02865629887133018,-2.0815305283182397e-18,0.027621079266847745,1.4580277560470016e-17,0.027621079266847745,-1.413660931275985e-17,0.03980084779082585,-2.8365369911797907e-17,-0.039800847790825836,0.013004994390107886,0.9998308558160359,0.01300499439010745,300.0,45.0,[0.22868395]
-8.547515349861552e-18,0.028135330245618515,1.5381047536835144e-17,0.028135330245618515,-2.328970028034902e-18,0.02828776890634732,1.5381047536835144e-17,0.02828776890634732,-1.3049177827162939e-17,0.03989730163468357,-2.641969006577374e-17,-0.0398973016346836,0.0019103881024915739,0.9999963504106383,0.0019103881024912504,300.0,45.0,[0.22136858]
-8.946891384491954e-18,0.02609267324011945,1.620030086398777e-17,0.02609267324011945,-2.6306725759350433e-18,0.029723962696159133,1.620030086398777e-17,0.029723962696159133,-1.1981281038912078e-17,0.039551757927787604,-2.6194647830547176e-17,-0.039551757927787555,0.04590553803789918,0.997890456490542,0.045905538037899235,300.0,45.0,[0.23472221]
-9.36363159454107e-18,0.02192344679043523,1.7052942922975792e-17,0.02192344679043523,-2.9757855623819673e-18,0.03225277339572326,1.7052942922975792e-17,0.03225277339572326,-1.0958965211135341e-17,0.0389984475446,-2.4671308256649364e-17,-0.03899844754460001,0.13243253585254933,0.9823050681409143,0.13243253585254958,300.0,45.0,[0.24876687]
-9.84548746241036e-18,0.014190796639632207,1.7935277043641712e-17,0.014190796639632207,-3.386014206649066e-18,0.0366139164081742,1.7935277043641712e-17,0.0366139164081742,-9.995253475396761e-18,0.03926776774928981,-2.6211437578007406e-17,-0.03926776774928981,0.2855155901871645,0.9148561064561738,0.2855155901871649,300.0,45.0,[0.23459677]
-1.0418505251227894e-17,-0.0009131026676537229,1.8922033617655713e-17,-0.0009131026676537229,-3.974225648957974e-18,0.044678143301882606,1.8922033617655713e-17,0.044678143301882606,-9.176966708789903e-18,0.04468747302528118,-6.938893903907228e-18,-0.0446874730252812,0.510112150934825,0.6925107847082906,0.5101121509348252,300.0,45.0,[0.23863266]
-1.13171013291463e-17,-0.03687297205361927,2.0152939994090254e-17,-0.03687297205361927,-5.072509744191581e-18,0.06230200171271873,2.0152939994090254e-17,0.06230200171271873,-8.732009713685379e-18,0.07239582505558312,7.747276362641618e-18,-0.07239582505558315,0.6849495374228743,0.24837121888089295,0.6849495374228746,300.0,45.0,[0.23287515]
-1.3691652317655326e-17,-0.17959726767008197,2.2280322798123533e-17,-0.17959726767008197,-9.962695646486674e-18,0.10029088639872108,2.2280322798123533e-17,0.10029088639872108,-1.0164554185729214e-17,0.20570231026704644,5.515847925759021e-18,-0.2057023102670464,0.6803233121335565,0.27261764787932385,0.6803233121335566,300.0,45.0,[0.57861803]
-1.2758327888899494e-17,-0.17278429508405152,2.181695875964302e-17,-0.17278429508405152,-1.0168895229583893e-17,0.09876331227492233,2.181695875964302e-17,0.09876331227492233,-8.70379292862997e-18,0.19901910581450816,1.4587944405573313e-17,-0.19901910581450832,0.6237293717538746,0.4710874033797061,0.6237293717538746,300.0,57.8571428571429,[0.7148081]
-9.08580478784166e-18,-0.02848886907469621,1.8908323719388106e-17,-0.02848886907469621,-5.691108493483237e-18,0.06047814229341242,1.8908323719388106e-17,0.06047814229341242,-3.7289566711686505e-18,0.0668522352387519,3.363657304637785e-18,-0.06685223523875196,0.7019563763589378,0.1204761029335624,0.7019563763589378,300.0,57.8571428571429,[0.11051432]
-6.8848955535197675e-18,0.0063190906148133386,1.688574490576045e-17,0.0063190906148133386,-5.0204172179354415e-18,0.04317879324159243,1.688574490576045e-17,0.04317879324159243,-6.663502316931174e-19,0.04363873384962505,-4.619191077031912e-18,-0.04363873384962504,0.537938021207742,0.6490341829812949,0.5379380212077425,300.0,57.8571428571429,[0.24291141]
-4.9618131258972846e-18,0.021410913301917762,1.5112436969725646e-17,0.021410913301917762,-4.848945985675649e-18,0.03517888757880453,1.5112436969725646e-17,0.03517888757880453,1.9860275635153173e-18,0.04118229400730862,-1.385280713802112e-17,-0.041182294007308606,0.31585416000018834,0.8946911753343447,0.3158541600001882,300.0,57.8571428571429,[0.23730789]
-3.1212105315136903e-18,0.029659741976371654,1.342875632780765e-17,0.029659741976371654,-4.84677546374831e-18,0.0307616225653047,1.342875632780765e-17,0.0307616225653047,4.484298301882673e-18,0.042731460505758594,-1.2372535695598876e-17,-0.04273146050575859,0.16988973041085642,0.9707084830173541,0.16988973041085642,300.0,57.8571428571429,[0.23663274]
-1.350064638804948e-18,0.03464951918422339,1.1775992905452316e-17,0.03464951918422339,-4.92274373120518e-18,0.028107378157476038,1.1775992905452316e-17,0.028107378157476038,6.9152828605025155e-18,0.04461629619976572,-1.0152024178196052e-17,-0.044616296199765676,0.08502058846728666,0.9927451833543957,0.08502058846728662,300.0,57.8571428571429,[0.23859056]
4.210812539037941e-19,0.03773972073148046,1.0157733151000525e-17,0.03773972073148046,-5.04863400299085e-18,0.02649409849115357,1.0157733151000525e-17,0.02649409849115357,9.302856980575574e-18,0.04611099408762599,-2.7964089886545476e-18,-0.04611099408762601,0.03610525536195073,0.9986955597530697,0.0361052553619505,300.0,57.8571428571429,[0.23900096]
2.1531577519204315e-18,0.039522260392832555,8.548202116565124e-18,0.039522260392832555,-5.198400015977251e-18,0.02560161701098456,8.548202116565124e-18,0.02560161701098456,1.1653532227883867e-17,0.047089827565366976,1.1852556981825193e-18,-0.04708982756536695,0.009766464243093404,0.9999046116267176,0.00976646424309327,300.0,57.8571428571429,[0.23121248]
3.8939163376464254e-18,0.04024332787460658,6.956113684610263e-18,0.04024332787460658,-5.385064901728418e-18,0.025296578560361445,6.956113684610263e-18,0.025296578560361445,1.398250225591877e-17,0.04753359154622786,5.38098055132278e-18,-0.04753359154622783,0.000126206416202021,0.9999999840719404,0.00012620641620167495,300.0,57.8571428571429,[0.22568228]
5.6042876163896714e-18,0.0399371404434829,5.379402255899427e-18,0.0399371404434829,-5.580411875188941e-18,0.025562470159686983,5.379402255899427e-18,0.025562470159686983,1.6281084976970924e-17,0.04741745530358384,1.1409093134849588e-17,-0.04741745530358375,0.005913088687686745,0.9999650347708879,0.005913088687687035,300.0,57.8571428571429,[0.22459048]
7.301635763568882e-18,0.03843686572269138,3.814268357234613e-18,0.03843686572269138,-5.8148282433415684e-18,0.026494362441867477,3.814268357234613e-18,0.026494362441867477,1.855145091296767e-17,0.04668344340111648,1.5487775063860737e-17,-0.04668344340111647,0.030047887858277875,0.9990967164746929,0.030047887858277545,300.0,57.8571428571429,[0.23900096]
8.98161973532938e-18,0.03527121402746098,2.278696161753037e-18,0.03527121402746098,-6.096996093895657e-18,0.02835427022153695,2.278696161753037e-18,0.02835427022153695,2.0769724322708275e-17,0.045255090086827765,1.5641803366194137e-17,-0.0452550900868278,0.08191874749222358,0.9932666498068939,0.08191874749222301,300.0,57.8571428571429,[0.23859056]
1.0618193268543095e-17,0.02931161882419244,7.746558844268293e-19,0.02931161882419244,-6.459473255761295e-18,0.03175300194357719,7.746558844268293e-19,0.03175300194357719,2.2901176855355315e-17,0.04321370304109068,1.7487886875011093e-17,-0.0432137030410907,0.184760016714677,0.9652603133078581,0.18476001671467676,300.0,57.8571428571429,[0.251835]
1.2220038450919384e-17,0.01753134934094146,-6.529879560779358e-19,0.01753134934094146,-6.986910084104707e-18,0.038241833410362906,-6.529879560779358e-19,0.038241833410362906,2.4865499199597244e-17,0.042068824945558886,1.7639489637180545e-17,-0.04206882494555886,0.38748324622570884,0.8364887732592552,0.38748324622570857,300.0,57.8571428571429,[0.23425087]
1.3583126221288369e-17,-0.011113735160203317,-1.8823257912759225e-18,-0.011113735160203317,-8.02007852151814e-18,0.05265691919558738,-1.8823257912759225e-18,0.05265691919558738,2.63436246321152e-17,0.05381696989223529,1.735220446055508e-17,-0.05381696989223527,0.6635083614298434,0.3457069693040177,0.663508361429843,300.0,57.8571428571429,[0.20277493]
1.383490676485971e-17,-0.13828920465906946,-2.3696503569699538e-18,-0.13828920465906946,-1.2856001375629755e-17,0.08278194298169785,-2.3696503569699538e-18,0.08278194298169785,2.5568748304055127e-17,0.16117305670943594,1.8155271296619202e-17,-0.1611730567094361,0.6303066680355125,0.4532405635641414,0.6303066680355124,300.0,57.8571428571429,[0.44124906]
1.451210960618952e-17,-0.132810786977071,-3.553118959250344e-18,-0.132810786977071,-1.2673677533733267e-17,0.07846534061748633,-3.553118959250344e-18,0.07846534061748633,2.5879132939664624e-17,0.15425794895462294,1.270790436922955e-17,-0.1542579489546231,0.5405673067526162,0.6446502724271865,0.540567306752616,300.0,70.71428571428567,[0.452106]
1.514590200897255e-17,-0.004341902946994889,-5.032957069226592e-18,-0.004341902946994889,-7.48613012739271e-18,0.04742560696690045,-5.032957069226592e-18,0.04742560696690045,2.775880492874032e-17,0.04762394688998425,1.3156044648015872e-17,-0.04762394688998423,0.6859388780540229,0.24284915307238925,0.6859388780540226,300.0,70.71428571428567,[0.18360807]
1.4681410316521974e-17,0.023412526450516034,-5.804102812724053e-18,0.023412526450516034,-6.094825571968318e-18,0.033836101136438756,-5.804102812724053e-18,0.033836101136438756,2.7365940459891938e-17,0.04114642311199633,2.2100270159577063e-17,-0.04114642311199635,0.4159603957296184,0.8086741608144277,0.41596039572961785,300.0,70.71428571428567,[0.25780741]
1.403025373832023e-17,0.035216254135862796,-6.390423526947819e-18,0.035216254135862796,-5.209252625613947e-18,0.027443475316731882,-6.390423526947819e-18,0.027443475316731882,2.6458662294264176e-17,0.0446467120046006,2.7098687335520838e-17,-0.0446467120046006,0.22604134848472357,0.9475286895658702,0.22604134848472346,300.0,70.71428571428567,[0.26834978]
1.3340027765426384e-17,0.041623097359690255,-6.913960198703043e-18,0.041623097359690255,-4.49080986766469e-18,0.023802763222598944,-6.913960198703043e-18,0.023802763222598944,2.5364719242885247e-17,0.04794844909739379,2.6790904574019795e-17,-0.04794844909739384,0.12859280105432994,0.9833248613932238,0.1285928010543299,300.0,70.71428571428567,[0.2719297]
1.2597709266276397e-17,0.04548030650268056,-7.402158060328777e-18,0.04548030650268056,-3.854846942954321e-18,0.02150578480352396,-7.402158060328777e-18,0.02150578480352396,2.4196978445976784e-17,0.0503086181443424,2.790664986468682e-17,-0.05030861814434232,0.07418090941794589,0.9944819683412329,0.0741809094179461,300.0,70.71428571428567,[0.2580518]
1.1842367635562373e-17,0.04785443749793498,-7.868464173452989e-18,0.04785443749793498,-3.268806022572752e-18,0.01999109607158738,-7.868464173452989e-18,0.01999109607158738,2.296412199124815e-17,0.05186223202280444,2.702309872915772e-17,-0.05186223202280445,0.0417748179907668,0.9982533391698105,0.04177481799076691,300.0,70.71428571428567,[0.25944616]
1.108702600484835e-17,0.04920641620576893,-8.325274253145092e-18,0.04920641620576893,-2.7131524091739308e-18,0.019004843021379385,-8.325274253145092e-18,0.019004843021379385,2.169653718568209e-17,0.052748985336996165,2.5554437369574292e-17,-0.05274898533699612,0.022607818779290925,0.9994887558447496,0.02260781877929095,300.0,70.71428571428567,[0.25441408]
1.0309979154860937e-17,0.04972610513212169,-8.773690517571313e-18,0.04972610513212169,-2.164010361557127e-18,0.01843348001483022,-8.773690517571313e-18,0.01843348001483022,2.0389882985423925e-17,0.05303280793120393,2.45339937931199e-17,-0.05303280793120391,0.013007557853902715,0.999830789122517,0.013007557853902927,300.0,70.71428571428567,[0.2534079]
9.537273348728201e-18,0.0494371826377051,-9.212729448983327e-18,0.0494371826377051,-1.6604492744144458e-18,0.01824724104338866,-9.212729448983327e-18,0.01824724104338866,1.9061523565892368e-17,0.05269721845457634,2.4433042459631717e-17,-0.05269721845457628,0.012012061506503361,0.9998556999671142,0.012012061506503417,300.0,70.71428571428567,[0.2534079]
8.760226498740788e-18,0.04820470249433902,-9.639643980566845e-18,0.04820470249433902,-1.1807639284724947e-18,0.018490663005978243,-9.639643980566845e-18,0.018490663005978243,1.768758318588669e-17,0.05162942921404794,2.2934105723471936e-17,-0.05162942921404794,0.020982316475659075,0.9995596454392457,0.02098231647565932,300.0,70.71428571428567,[0.25441408]
7.961474429479982e-18,0.04565121534704597,-1.005423062589118e-17,0.04565121534704597,-7.553416307140223e-19,0.019312787676988623,-1.005423062589118e-17,0.019312787676988623,1.6252868191915515e-17,0.049568308731676634,2.2552904743810114e-17,-0.049568308731676655,0.04495534842651416,0.9979769703233143,0.04495534842651437,300.0,70.71428571428567,[0.25944616]
7.138846619018447e-18,0.04086996863417762,-1.0442313163618395e-17,0.04086996863417762,-3.972055127030635e-19,0.0210745617798248,-1.0442313163618395e-17,0.0210745617798248,1.4724820755068757e-17,0.04598360023280385,2.1099705044165547e-17,-0.04598360023280378,0.09831417206241712,0.9902871538818239,0.0983141720624173,300.0,70.71428571428567,[0.26157204]
6.2706378480827896e-18,0.03139934429309224,-1.0790885419387016e-17,0.03139934429309224,-2.0402906116987962e-19,0.024700562111088998,-1.0790885419387016e-17,0.024700562111088998,1.29970853009068e-17,0.03995042666405341,2.2533913770103578e-17,-0.03995042666405341,0.22910197067329036,0.946057384130175,0.22910197067329022,300.0,70.71428571428567,[0.26834978]
5.2895619369254954e-18,0.007951341718629323,-1.1011176437809382e-17,0.007951341718629323,-5.339483941254296e-19,0.03304871784182169,-1.1011176437809382e-17,0.03304871784182169,1.0711525711418679e-17,0.03399178703914754,8.515377538000734e-18,-0.033991787039147535,0.5942790482394432,0.5419085030217213,0.5942790482394429,300.0,70.71428571428567,[0.26105367]
3.444618298687223e-18,-0.1086279872609693,-1.0819186990455212e-17,-0.1086279872609693,-4.655769534142465e-18,0.04933937233284888,-1.0819186990455212e-17,0.04933937233284888,5.9059901642898125e-18,0.11930806040904687,-2.8045320761833677e-18,-0.11930806040904682,0.488648071248928,0.7228043476137956,0.48864807124892823,300.0,70.71428571428567,[0.42942659]
2.7717565012120877e-18,-0.10556334031549426,-1.080168715741604e-17,-0.10556334031549426,-4.471275170318638e-18,0.043084829486714396,-1.080168715741604e-17,0.043084829486714396,4.577630744758256e-18,0.11401719760836126,-3.4914793855072815e-18,-0.11401719760836138,0.33882215247452097,0.8777238164622544,0.3388221524745208,300.0,83.57142857142856,[0.43148841]
3.0365601763474633e-18,0.011788269436686876,-1.0382657725021684e-17,0.011788269436686876,2.1705219273391446e-21,0.02543445620159617,-1.0382657725021684e-17,0.02543445620159617,6.971716430613333e-18,0.028033459625648065,1.4120718016644182e-17,-0.02803345962564806,0.6042245358526025,0.5194472259502542,0.6042245358526023,300.0,83.57142857142856,[0.27639584]
2.444007690183877e-18,0.034795697614540405,-9.590078077491749e-18,0.034795697614540405,6.793733632571523e-19,0.018241724672812685,-9.590078077491749e-18,0.018241724672812685,6.845826158827663e-18,0.039287416452615395,1.3467162520728429e-17,-0.039287416452615395,0.25613639842603236,0.9320881346754082,0.25613639842603236,300.0,83.57142857142856,[0.2716258]
1.7364175418713157e-18,0.04433278436122569,-8.702436352425383e-18,0.04433278436122569,8.465035516622665e-19,0.014717171951010086,-8.702436352425383e-18,0.014717171951010086,6.1469180982244576e-18,0.04671178565902329,1.076095315680655e-17,-0.046711785659023314,0.14624389983436742,0.9783789876742403,0.14624389983436764,300.0,83.57142857142856,[0.28348765]
1.0006106085033457e-18,0.049415525369723136,-7.775352174210651e-18,0.049415525369723136,8.399919858802491e-19,0.01256809680848612,-7.775352174210651e-18,0.01256809680848612,5.239639932596695e-18,0.05098873605957723,8.640209656278406e-18,-0.050988736059577246,0.09646911625458598,0.9906499983435716,0.0964691162545862,300.0,83.57142857142856,[0.27503451]
2.4092793393464505e-19,0.0524059412396644,-6.837737573207813e-18,0.0524059412396644,7.705352842053963e-19,0.011076712644952205,-6.837737573207813e-18,0.011076712644952205,4.23685880216601e-18,0.05356375864550582,6.763313492663558e-18,-0.053563758645505874,0.06784713595833572,0.995386122208112,0.0678471359583358,300.0,83.57142857142856,[0.27252577]
-5.296073502707513e-19,0.054176353114991194,-5.896511088060261e-18,0.054176353114991194,6.424744904923868e-19,0.009953431835148829,-5.896511088060261e-18,0.009953431835148829,3.1667914919878124e-18,0.05508310123928364,5.102934653481386e-18,-0.055083101239283616,0.049102126485409514,0.9975860676398915,0.04910212648540958,300.0,83.57142857142856,[0.27252577]
-1.2979721125488085e-18,0.05509843291575864,-4.937767812670981e-18,0.05509843291575864,4.927084775059858e-19,0.009061031783037098,-4.937767812670981e-18,0.009061031783037098,2.0619958309721874e-18,0.05583851365093419,3.554035818109167e-18,-0.05583851365093418,0.035900690166172006,0.998710308793889,0.03590069016617213,300.0,83.57142857142856,[0.27252577]
-2.0771894844635614e-18,0.055319879231507496,-3.981279845221826e-18,0.055319879231507496,3.103846356094977e-19,0.00832829968268979,-3.981279845221826e-18,0.00832829968268979,9.181307752644582e-19,0.055943271389804025,2.0654071117688555e-18,-0.05594327138980404,0.02631678559874335,0.9993071868006852,0.026316785598743418,300.0,83.57142857142856,[0.27655099]
-2.849895290596297e-18,0.05484911460756922,-3.025368422659621e-18,0.05484911460756922,1.0418505251227895e-19,0.007718136617982497,-3.025368422659621e-18,0.007718136617982497,-2.626331532080365e-19,0.055389484616559716,5.220905365455344e-19,-0.05538948461655974,0.019512373988147928,0.9996191947550294,0.019512373988147983,300.0,83.57142857142856,[0.26749369]
-3.657329447566459e-18,0.05355798389060738,-2.060418811134355e-18,0.05355798389060738,-1.2806079371300953e-19,0.007215731882361632,-2.060418811134355e-18,0.007215731882361632,-1.4737843886632792e-18,0.054041876586816355,-9.677295021315533e-19,-0.054041876586816376,0.015358093776841305,0.9997641011314037,0.01535809377684136,300.0,83.57142857142856,[0.26648751]
-4.4517404729725856e-18,0.05110455295919494,-1.0949604835323691e-18,0.05110455295919494,-4.167402100491158e-19,0.00682760681148729,-1.0949604835323691e-18,0.00682760681148729,-2.7674154573574094e-18,0.051558622440203254,-2.5133880091519838e-18,-0.05155862244020326,0.014575645156102707,0.9997875279961072,0.014575645156102749,300.0,83.57142857142856,[0.26648751]
-5.2787093272888e-18,0.04667348254982953,-1.2611071541891577e-19,0.04667348254982953,-7.640237184233789e-19,0.006593247150246905,-1.2611071541891577e-19,0.006593247150246905,-4.145696881217766e-18,0.04713687390264103,-4.1214579144216e-18,-0.047136873902641034,0.0198917824940339,0.9996042386756971,0.019891782494033887,300.0,83.57142857142856,[0.26749369]
-6.1143602693143704e-18,0.038040340581191684,8.487588596023923e-19,0.038040340581191684,-1.304483678330826e-18,0.006627066879303844,8.487588596023923e-19,0.006627066879303844,-5.7410304978120375e-18,0.03861328174289028,-6.0805851251356675e-18,-0.03861328174289028,0.04259915929280547,0.998183662085837,0.04259915929280543,300.0,83.57142857142856,[0.27252577]
-7.05419626385222e-18,0.01664088801181218,1.848725094408559e-18,0.01664088801181218,-2.3354815938169196e-18,0.007241506710209713,1.848725094408559e-18,0.007241506710209713,-7.933257644424574e-18,0.018148238847218376,-9.216854886973453e-18,-0.01814823884721839,0.20778041878667688,0.955852810393769,0.20778041878667697,300.0,83.57142857142856,[0.27702301]
-8.762397020668127e-18,-0.09639646176258468,2.8524897425875695e-18,-0.09639646176258468,-7.175745491783212e-18,0.006450732519642625,2.8524897425875695e-18,0.006450732519642625,-1.2732281625771424e-17,0.09661205820385688,-1.233353239152824e-17,-0.09661205820385686,0.12591041906122433,0.9840188680831552,0.12591041906122438,300.0,83.57142857142856,[0.43163941]
