stress_11,stress_12,stress_13,stress_21,stress_22,stress_23,stress_31,stress_32,stress_33,e1,e2,e3,anev1,anev2,anev3,temp,miss,velo
-9.962695646486674e-19,-0.10695686457358447,-4.516754387577416e-18,-0.10695686457358447,-6.4052102075778165e-18,-0.0437698502132398,-4.516754387577416e-18,-0.0437698502132398,-1.3382352943009498e-17,0.11556630420283215,-8.692550417215316e-18,-0.11556630420283215,0.4689267355109307,0.7484754060395861,0.46892673551093067,700.0,109.28571428571416,[0.34472446]
4.753443020872727e-19,0.00971777185592473,-4.3787905875709215e-18,0.00971777185592473,-1.558434743829506e-18,-0.027505284047731376,-4.3787905875709215e-18,-0.027505284047731376,-9.153090967589173e-18,0.029171488484309272,-2.22252475797795e-18,-0.029171488484309286,0.5515055122473405,0.6258460992301519,0.5515055122473407,700.0,109.28571428571416,[0.20477324]
1.0765788759602157e-18,0.0332580054549033,-4.654650358773681e-18,0.0332580054549033,-4.8402638979662925e-19,-0.019193104714059717,-4.654650358773681e-18,-0.019193104714059717,-7.437293384027579e-18,0.03839883065150863,-8.776372038714822e-18,-0.038398830651508654,0.13132751612766563,0.9826017336721299,0.13132751612766588,700.0,109.28571428571416,[0.22438237]
1.5389000464834535e-18,0.04281933169640698,-5.0540009576002476e-18,0.04281933169640698,5.2092526256139477e-20,-0.015608339216045541,-5.0540009576002476e-18,-0.015608339216045541,-6.277149413864807e-18,0.045575381731918246,-8.34269211304858e-18,-0.045575381731918274,0.009155811780159518,0.9999161675967103,0.009155811780159472,700.0,109.28571428571416,[0.19819624]
1.9708339100239433e-18,0.04769010566321837,-5.501298046657685e-18,0.04769010566321837,4.341043854678289e-19,-0.013891837888507508,-5.501298046657685e-18,-0.013891837888507508,-5.3221197658355826e-18,0.049672218976904034,-7.627796753445743e-18,-0.049672218976904034,0.037564087135203775,0.998587942404372,0.03756408713520383,700.0,109.28571428571416,[0.2111718]
2.3897446420003982e-18,0.050332027389259244,-5.96528950163282e-18,0.050332027389259244,7.488300649320049e-19,-0.013118582995255134,-5.96528950163282e-18,-0.013118582995255134,-4.459337299718273e-18,0.052013557856740965,-6.967278025779922e-18,-0.052013557856740965,0.057657724549538374,0.9966700424912646,0.05765772454953847,700.0,109.28571428571416,[0.2111718]
2.7826091108487834e-18,0.051651862226095815,-6.4514864133567894e-18,0.051651862226095815,1.0071221742853631e-18,-0.012927386055864297,-6.4514864133567894e-18,-0.012927386055864297,-3.650817881784441e-18,0.05324502025223521,-6.169074800475006e-18,-0.05324502025223523,0.06450989884768758,0.9958297775731163,0.06450989884768774,700.0,109.28571428571416,[0.2111718]
3.1581094042784558e-18,0.05202705038941538,-6.940523656509111e-18,0.05202705038941538,1.2285154108739559e-18,-0.013169028657859207,-6.940523656509111e-18,-0.013169028657859207,-2.895476251070419e-18,0.05366784221500136,-5.784639296914396e-18,-0.05366784221500137,0.06262921162957776,0.9960698588459119,0.0626292116295779,700.0,109.28571428571416,[0.2111718]
3.540121263490145e-18,0.05159252202016041,-7.445958514534378e-18,0.05159252202016041,1.4347149939711746e-18,-0.013798821094675126,-7.445958514534378e-18,-0.013798821094675126,-2.159669317702449e-18,0.053405952776854254,-5.425122033791491e-18,-0.053405952776854254,0.053165491717938156,0.9971694244113082,0.05316549171793829,700.0,109.28571428571416,[0.2111718]
3.9243036446291735e-18,0.05032458194525639,-7.955047649710752e-18,0.05032458194525639,1.6083567481583064e-18,-0.014846385264374375,-7.955047649710752e-18,-0.014846385264374375,-1.4585907351719052e-18,0.0524688355443787,-5.044013500843877e-18,-0.05246883554437867,0.035145889228393984,0.9987640026255906,0.035145889228393984,700.0,109.28571428571416,[0.2111718]
4.2715871530034366e-18,0.048033353966953164,-8.47913119124845e-18,0.048033353966953164,1.753781717290029e-18,-0.01642512559742319,-8.47913119124845e-18,-0.01642512559742319,-8.02007852151814e-19,0.05076404085773453,-5.421622470764754e-18,-0.05076404085773456,0.005028594952703348,0.9999747129130833,0.0050285949527035054,700.0,109.28571428571416,[0.19157424]
4.6167001394503606e-18,0.044257906139927375,-9.023696913825093e-18,0.044257906139927375,1.8492846820929512e-18,-0.018788756524097595,-9.023696913825093e-18,-0.018788756524097595,-1.9317645153318387e-19,0.04808096949534652,-6.34057996674969e-18,-0.04808096949534649,0.045839454632521134,0.9978965321104116,0.045839454632521016,700.0,109.28571428571416,[0.2111718]
4.933596340841876e-18,0.037931693520114516,-9.600716602446158e-18,0.037931693520114516,1.8818425110030384e-18,-0.02249858711788038,-9.600716602446158e-18,-0.02249858711788038,3.3208985488288913e-19,0.04410215182510661,-5.198209547499625e-18,-0.044102151825106566,0.1396186717207704,0.9803128342594802,0.13961867172077022,700.0,109.28571428571416,[0.22307783]
5.189717928267895e-18,0.026207522770415364,-1.0243633040030196e-17,0.026207522770415364,1.7299059760892985e-18,-0.028962680554362134,-1.0243633040030196e-17,-0.028962680554362134,6.663502316931174e-19,0.03905984017703945,-7.349809026533063e-18,-0.039059840177039444,0.33819602661169984,0.8782066358028257,0.3381960266116998,700.0,109.28571428571416,[0.19719349]
5.257004108015408e-18,-0.0014681960578726335,-1.1067891921412715e-17,-0.0014681960578726335,1.0765788759602157e-18,-0.04262596403658716,-1.1067891921412715e-17,-0.04262596403658716,4.937937384696554e-19,0.04265124159638,6.938893903907228e-18,-0.04265124159638,0.6750700520127247,0.2975917501394722,0.6750700520127249,700.0,109.28571428571416,[0.15808438]
4.23685880216601e-18,-0.12985825621263125,-1.2601537354753716e-17,-0.12985825621263125,-3.3816731627943877e-18,-0.07374209502988381,-1.2601537354753716e-17,-0.07374209502988381,-1.9654076052055955e-18,0.14933540533303497,6.259905634855616e-18,-0.14933540533303477,0.5326589758464223,0.6576844462966117,0.5326589758464224,700.0,109.28571428571416,[0.3541047]
-5.968935300182648e-19,-0.10397377229033683,-3.995981739839037e-18,-0.10397377229033683,-6.483348996962026e-18,-0.03743423857880499,-3.995981739839037e-18,-0.03743423857880499,-1.3424678120592611e-17,0.11050731895335132,-1.0129512957504986e-17,-0.11050731895335134,0.3125155633820862,0.8970329120427826,0.31251556338208636,700.0,96.42857142857144,[0.32608486]
1.410839252770444e-18,0.013276808444706573,-3.3573226199220517e-18,0.013276808444706573,-1.7928511119821335e-18,-0.019742414550619623,-3.3573226199220517e-18,-0.019742414550619623,-9.00658073749378e-18,0.023791523170363628,-7.57328902140705e-18,-0.02379152317036362,0.5388928448613842,0.6474480701294948,0.5388928448613851,700.0,96.42857142857144,[0.19558533]
2.535169611132121e-18,0.036184598950413496,-3.1133084751219713e-18,0.036184598950413496,-8.85572946354371e-19,-0.012505284834247723,-3.1133084751219713e-18,-0.012505284834247723,-7.112800355890377e-18,0.03828455759164436,-8.132782418267284e-18,-0.038284557591644376,0.15468916815614722,0.9757779063446345,0.1546891681561471,700.0,96.42857142857144,[0.20174088]
3.5488033511995015e-18,0.04562182480721973,-2.9580822429121074e-18,0.04562182480721973,-4.927084775059858e-19,-0.00893828417697432,-2.9580822429121074e-18,-0.00893828417697432,-5.790952502140838e-18,0.04648917963106039,-6.5404265488478346e-18,-0.04648917963106036,0.0574039446295057,0.9966993399626318,0.057403944629505634,700.0,96.42857142857144,[0.20235669]
4.5407318719934905e-18,0.050604127884447674,-2.83656692938623e-18,0.050604127884447674,-2.734857628447322e-19,-0.006750002394048352,-2.83656692938623e-18,-0.006750002394048352,-4.686156841125213e-18,0.05105232895045235,-5.277996546091836e-18,-0.05105232895045232,0.014428130987435528,0.9997918073641229,0.014428130987435474,700.0,96.42857142857144,[0.19702526]
5.504443607732071e-18,0.053493466809326706,-2.7323479624688363e-18,0.053493466809326706,-1.215492279309921e-19,-0.005223105693548903,-2.7323479624688363e-18,-0.005223105693548903,-3.672523101057833e-18,0.05374785413731903,-4.118734719087786e-18,-0.053747854137319015,0.010513013523168468,0.9998894704382696,0.01051301352316851,700.0,96.42857142857144,[0.19434963]
6.4638142996159734e-18,0.0551621785973728,-2.634538818118116e-18,0.0551621785973728,-3.255782891008717e-20,-0.004068232139626151,-2.634538818118116e-18,-0.004068232139626151,-2.717493453028609e-18,0.0553119920121337,-3.054054733412246e-18,-0.05531199201213369,0.027275268346125044,0.9992557828070318,0.02727526834612508,700.0,96.42857142857144,[0.21139707]
7.427526035354553e-18,0.05598197925557247,-2.5435464691954454e-18,0.05598197925557247,3.689887276476546e-20,-0.003148299066098958,-2.5435464691954454e-18,-0.003148299066098958,-1.8102152874008466e-18,0.05607043595675839,-2.0656456918066543e-18,-0.056070435956758376,0.0395922460418468,0.9984312235235453,0.03959224604184685,700.0,96.42857142857144,[0.20235669]
8.369532551819742e-18,0.056100624178475424,-2.4588791568266614e-18,0.056100624178475424,8.24798332388875e-20,-0.0023921916765536066,-2.4588791568266614e-18,-0.0023921916765536066,-9.376654726105105e-19,0.05615160384380767,-1.1295186865872766e-18,-0.056151603843807664,0.04916394954415101,0.997579977811524,0.04916394954415106,700.0,96.42857142857144,[0.20235669]
9.315880112139609e-18,0.05552659949170516,-2.3785528883125558e-18,0.05552659949170516,9.333244287558322e-20,-0.0017628836886731663,-2.3785528883125558e-18,-0.0017628836886731663,-9.116192094824407e-20,0.055554576859265375,-2.324181643113882e-19,-0.05555457685926535,0.056833815227753486,0.996764683811237,0.05683381522775353,700.0,96.42857142857144,[0.20235669]
1.0247034018968102e-17,0.05413181774346612,-2.294953879704884e-18,0.05413181774346612,8.24798332388875e-20,-0.0012456188210378557,-2.294953879704884e-18,-0.0012456188210378557,7.010785825305437e-19,0.054146147217130416,6.005133182592891e-19,-0.05414614721713039,0.06298535265327367,0.9960249448192979,0.06298535265327372,700.0,96.42857142857144,[0.20235669]
1.1176017403869256e-17,0.0515744152882622,-2.2104222249565587e-18,0.0515744152882622,1.9534697346052302e-20,-0.0008469580671326485,-2.2104222249565587e-18,-0.0008469580671326485,1.4390560378258529e-18,0.051581369216933536,1.3690741632888742e-18,-0.05158136921693351,0.06762258835328955,0.995416682143113,0.0676225883532896,700.0,96.42857142857144,[0.20235669]
1.2100659744915731e-17,0.047039125349361326,-2.145679625592646e-18,0.047039125349361326,-1.1503766214897466e-19,-0.0006064138564979373,-2.145679625592646e-18,-0.0006064138564979373,2.0750189625362223e-18,0.047043034036914344,2.021369921383129e-18,-0.04704303403691434,0.07010653115385948,0.9950729363112765,0.07010653115385952,700.0,96.42857142857144,[0.20235669]
1.2981891647415426e-17,0.0383015898586844,-2.067049077334274e-18,0.0383015898586844,-4.210812539037941e-19,-0.0006384148862481092,-2.067049077334274e-18,-0.0006384148862481092,2.491759172585338e-18,0.03830691007207263,2.425798300757546e-18,-0.038306910072072625,0.06744945064263919,0.9954401756087667,0.06744945064263924,700.0,96.42857142857144,[0.20235669]
1.3774132150894213e-17,0.016797644976873256,-2.022282062582904e-18,0.016797644976873256,-1.2328564547286341e-18,-0.0012554052197337243,-2.022282062582904e-18,-0.0012554052197337243,2.326799506107563e-18,0.016844492246274746,2.0881007241422424e-18,-0.01684449224627473,0.026581972524809937,0.9992931489174637,0.026581972524810028,700.0,96.42857142857144,[0.20708874]
1.378281423860357e-17,-0.09634421977006431,-1.9834161543214874e-18,-0.09634421977006431,-5.849556594178995e-18,-0.0004715431109466458,-1.9834161543214874e-18,-0.0004715431109466458,-4.558096047412204e-19,0.09634537371357244,-4.36051006234786e-19,-0.09634537371357246,0.08260892366766528,0.993152320372328,0.08260892366766533,700.0,96.42857142857144,[0.32259437]
3.585702223964267e-18,-0.13527145483956948,-1.203698544931293e-17,-0.13527145483956948,-3.348030072920631e-18,-0.07812051045406933,-1.203698544931293e-17,-0.07812051045406933,-2.1607545786661185e-18,0.1562087726346315,1.1660197067957928e-17,-0.15620877263463162,0.6252033684939579,0.46716324346808025,0.6252033684939576,700.0,122.14285714285735,[0.3446147]
3.7897312851341465e-18,-0.008025476201925409,-8.97404622473721e-18,-0.008025476201925409,1.177508145581486e-18,-0.048051860290458506,-8.97404622473721e-18,-0.048051860290458506,-5.892967032725778e-19,0.04871744600901626,1.1287330549702189e-17,-0.04871744600901627,0.6525184935366412,0.38527812186178506,0.6525184935366415,700.0,122.14285714285735,[0.18952549]
2.8433837248142795e-18,0.020687930398166632,-6.64474765090276e-18,0.020687930398166632,1.8992066864217515e-18,-0.03369450567567409,-6.64474765090276e-18,-0.03369450567567409,-1.2784374152027562e-18,0.039538717441103495,-4.462735265158346e-18,-0.03953871744110348,0.3133852758732131,0.8964258685087909,0.3133852758732136,700.0,122.14285714285735,[0.19846692]
1.6973481471792113e-18,0.03253520537872702,-4.519200464046312e-18,0.03253520537872702,2.118429401083005e-18,-0.02726507694470195,-4.519200464046312e-18,-0.02726507694470195,-2.446178212111216e-18,0.042449075488595354,-7.754955859251e-18,-0.04244907548859533,0.09621904915857392,0.9906986369012727,0.09621904915857395,700.0,122.14285714285735,[0.2009625]
4.992200432880033e-19,0.038560706076867235,-2.471122257073059e-18,0.038560706076867235,2.144475664211075e-18,-0.023927416079914807,-2.471122257073059e-18,-0.023927416079914807,-3.787560763206807e-18,0.045381155708156116,-4.837917539142888e-18,-0.04538115570815613,0.003982793694165779,0.9999841372285759,0.00398279369416577,700.0,122.14285714285735,[0.19096213]
-7.336364114406309e-19,0.04179123009464333,-4.579631694660022e-19,0.04179123009464333,2.13145253264704e-18,-0.022130169714049876,-4.579631694660022e-19,-0.022130169714049876,-5.210337886577617e-18,0.04728901906781394,-3.818813695165402e-18,-0.047289019067813964,0.052277114860612234,0.9972633586589356,0.052277114860612414,700.0,122.14285714285735,[0.19845376]
-2.0012212170066913e-18,0.04335537220335448,1.530294266185605e-18,0.04335537220335448,2.040290611698796e-18,-0.02126243190134624,1.530294266185605e-18,-0.02126243190134624,-6.687378058131905e-18,0.04828850079729945,-5.094776334032228e-18,-0.0482885007972995,0.07413990830929983,0.994488083383495,0.0741399083092996,700.0,122.14285714285735,[0.1970594]
-3.2861701979914653e-18,0.0437244373835714,3.506003371944783e-18,0.0437244373835714,1.933935037259178e-18,-0.0210620834569373,3.506003371944783e-18,-0.0210620834569373,-8.189379231850593e-18,0.048532852626410154,-4.160994819352999e-18,-0.048532852626410175,0.07909904176362903,0.993723645277776,0.07909904176362889,700.0,122.14285714285735,[0.1970594]
-4.577630744758256e-18,0.04306526836583896,5.465908364920522e-18,0.04306526836583896,1.7928511119821335e-18,-0.0214339471480427,5.465908364920522e-18,-0.0214339471480427,-9.725023495443037e-18,0.04810438056733313,-4.570893581737636e-18,-0.04810438056733316,0.07002016321125697,0.9950850986160619,0.07002016321125697,700.0,122.14285714285735,[0.19845376]
-5.88645546694376e-18,0.041343656564653816,7.409127470579842e-18,0.041343656564653816,1.6528524476687588e-18,-0.022394429602881398,7.409127470579842e-18,-0.022394429602881398,-1.1284543500236213e-17,0.04701923452561148,-4.8799590926652405e-18,-0.04701923452561148,0.04563102589829729,0.9979156371913097,0.045631025898296984,700.0,122.14285714285735,[0.19845376]
-7.203962276838621e-18,0.03831342141554364,9.340408705638797e-18,0.03831342141554364,1.4553349522808965e-18,-0.024076782021601576,9.340408705638797e-18,-0.024076782021601576,-1.2878791855866816e-17,0.04525052146750089,-1.1006695178108612e-18,-0.04525052146750083,3.789147202152899e-05,0.9999999985642364,3.789147202234505e-05,700.0,122.14285714285735,[0.19147069]
-8.547515349861552e-18,0.03338266168036659,1.1245508019949223e-17,0.03338266168036659,1.2198333231645993e-18,-0.026801072414916964,1.1245508019949223e-17,-0.026801072414916964,-1.4508853823298512e-17,0.04281004068504768,-9.290002716552515e-20,-0.0428100406850477,0.08147114002736758,0.9933402773900201,0.08147114002736801,700.0,122.14285714285735,[0.19804336]
-9.930137817576587e-18,0.025191924410251976,1.310781583360621e-17,0.025191924410251976,9.061929046640929e-19,-0.03128926984189909,1.310781583360621e-17,-0.03128926984189909,-1.621488405818708e-17,0.040170280839583704,9.508842799633878e-19,-0.04017028083958373,0.23042806722477732,0.9454130376031984,0.23042806722477743,700.0,122.14285714285735,[0.19868068]
-1.1425627425513257e-17,0.01015732243737668,1.48782664810101e-17,0.01015732243737668,4.178254710127854e-19,-0.039360937836655875,1.48782664810101e-17,-0.039360937836655875,-1.8075021349916727e-17,0.04065039515770939,-1.0385286574572971e-17,-0.04065039515770941,0.4857304481326829,0.7267268149130363,0.48573044813268296,700.0,122.14285714285735,[0.20264442]
-1.3177238620875949e-17,-0.024594102965782544,1.641770915797539e-17,-0.024594102965782544,-5.665062230355167e-19,-0.05673293065746414,1.641770915797539e-17,-0.05673293065746414,-2.0339960981095124e-17,0.0618344185844433,-2.9195736632681573e-17,-0.061834418584443315,0.6989598918151214,0.15136095687986234,0.6989598918151213,700.0,122.14285714285735,[0.09321909]
-1.641565733646595e-17,-0.1688329306836988,1.706193024033118e-17,-0.1688329306836988,-5.35467759474567e-18,-0.09509213500567605,1.706193024033118e-17,-0.09509213500567605,-2.4522556735077656e-17,0.19377067018303995,-3.435822938959629e-17,-0.19377067018303976,0.6216086322880542,0.4766606932923556,0.6216086322880543,700.0,122.14285714285735,[0.5436407]
-1.6834568068442406e-17,-0.17560076232842944,1.7325173852831282e-17,-0.17560076232842944,-5.369871248237044e-18,-0.09667701824104745,1.7325173852831282e-17,-0.09667701824104745,-2.443682111894776e-17,0.20045466716019733,-4.218061211380126e-17,-0.2004546671601971,0.6791505142454013,0.2784046659099196,0.6791505142454014,700.0,135.00000000000023,[0.47408145]
-1.3867464593769797e-17,-0.03282858436981528,1.7359139129553628e-17,-0.03282858436981528,-6.120871835096388e-19,-0.0587402801964649,1.7359139129553628e-17,-0.0587402801964649,-2.068073292368737e-17,0.06729142938952395,-2.4687281654803413e-17,-0.06729142938952394,0.6803902472945219,0.2722833501575135,0.6803902472945215,700.0,135.00000000000023,[0.13979345]
-1.2404532814743213e-17,0.0031774480699015323,1.6486640186370964e-17,0.0031774480699015323,3.483687693379327e-19,-0.04116876164897449,1.6486640186370964e-17,-0.04116876164897449,-1.8810828283284697e-17,0.0412911989647551,-1.0408340855860843e-17,-0.04129119896475511,0.4600412985283015,0.7594234703357464,0.46004129852830133,700.0,135.00000000000023,[0.19759799]
-1.1243303583616769e-17,0.01832640460077986,1.537044928523681e-17,0.01832640460077986,8.041783740791532e-19,-0.033157531459963724,1.537044928523681e-17,-0.033157531459963724,-1.7316423936311696e-17,0.03788507619247939,2.390489481325469e-18,-0.0378850761924794,0.19573837972282881,0.9609229799557106,0.19573837972282876,700.0,135.00000000000023,[0.18222852]
-1.0192770970784623e-17,0.02610314144231163,1.416258774707769e-17,0.02610314144231163,1.096113573306268e-18,-0.028850130442675644,1.416258774707769e-17,-0.028850130442675644,-1.596201825365207e-17,0.03890634934964633,1.1203971332866501e-20,-0.03890634934964637,0.03530257973675403,0.9987529502974497,0.035302579736754235,700.0,135.00000000000023,[0.19739906]
-9.174796186862564e-18,0.030315506370756494,1.291270626098149e-17,0.030315506370756494,1.314251027003852e-18,-0.026375812073461628,1.291270626098149e-17,-0.026375812073461628,-1.4673813489776287e-17,0.0401834964761647,-1.3476269197782724e-18,-0.04018349647616476,0.049021297830963324,0.9975940179842379,0.04902129783096337,700.0,135.00000000000023,[0.19739906]
-8.206743407269306e-18,0.032400343461905484,1.1636761554554661e-17,0.032400343461905484,1.4835517373363053e-18,-0.024994847297676863,1.1636761554554661e-17,-0.024994847297676863,-1.3420337076737933e-17,0.04092095609689032,3.4690980255313874e-18,-0.040920956096890324,0.09048537559453042,0.9917786011036098,0.09048537559453053,700.0,135.00000000000023,[0.19737152]
-7.251713759240082e-18,0.032962509647027655,1.0345216221775083e-17,0.032962509647027655,1.609442009121976e-18,-0.02438410629900674,1.0345216221775083e-17,-0.02438410629900674,-1.2190736404900306e-17,0.04100136195581374,3.5179974397739183e-19,-0.04100136195581375,0.10461119995557569,0.9889959523110845,0.10461119995557555,700.0,135.00000000000023,[0.20498241]
-6.318389330484251e-18,0.032219483473957616,9.031982626924672e-18,0.032219483473957616,1.7190533664526027e-18,-0.024416782736823815,9.031982626924672e-18,-0.024416782736823815,-1.0980670430408733e-17,0.04042615977984906,3.4738291547436705e-18,-0.04042615977984907,0.09650558919800463,0.990642893532827,0.0965055891980043,700.0,135.00000000000023,[0.1999078]
-5.417622730638505e-18,0.030133285803300807,7.709778671921428e-18,0.030133285803300807,1.799362677764151e-18,-0.02509284223086122,7.709778671921428e-18,-0.02509284223086122,-9.798821240972568e-18,0.039213080018359964,-2.8840422533013495e-19,-0.039213080018359985,0.0642699268978588,0.9958608100498219,0.0642699268978591,700.0,135.00000000000023,[0.19739906]
-4.5233676965747774e-18,0.026398358163475015,6.3672260738493815e-18,0.026398358163475015,1.8644783355843252e-18,-0.026539023512457467,6.3672260738493815e-18,-0.026539023512457467,-8.636506748882456e-18,0.03743251371096894,2.8156986907360574e-18,-0.03743251371096895,0.0018789193542866876,0.9999964696558284,0.001878919354286253,700.0,135.00000000000023,[0.19038104]
-3.672523101057833e-18,0.02027596807456641,4.9964736479244816e-18,0.02027596807456641,1.8644783355843252e-18,-0.02907839290865622,4.9964736479244816e-18,-0.02907839290865622,-7.500238519920414e-18,0.035449510793677017,-1.533105406137307e-18,-0.03544951079367702,0.12415439080840132,0.9844650194323765,0.12415439080840147,700.0,135.00000000000023,[0.20765381]
-2.897646772997758e-18,0.010073008756304954,3.5841760757341066e-18,0.010073008756304954,1.7906805900547943e-18,-0.033450626109852846,3.5841760757341066e-18,-0.033450626109852846,-6.4204038610691906e-18,0.0349343654951076,-2.5735811482749028e-18,-0.03493436549510761,0.334593415712984,0.8809622536312418,0.33459341571298384,700.0,135.00000000000023,[0.1826061]
-2.2443196728686755e-18,-0.008636735623971496,2.077223398868676e-18,-0.008636735623971496,1.5562642219021669e-18,-0.04152644386131533,2.077223398868676e-18,-0.04152644386131533,-5.443668993766575e-18,0.042415076824230215,-3.637038791396317e-18,-0.04241507682423022,0.5913366571651506,0.548308230638106,0.5913366571651505,700.0,135.00000000000023,[0.18102085]
-1.9773454758059607e-18,-0.05136781993684991,3.2893581520722443e-19,-0.05136781993684991,8.117752008248402e-19,-0.059162380277519064,3.2893581520722443e-19,-0.059162380277519064,-4.777318762073457e-18,0.07835075089089079,-5.8945273503659686e-18,-0.07835075089089072,0.7053550792913938,0.07034503703647259,0.7053550792913936,700.0,135.00000000000023,[0.10867098]
-3.590043267818945e-18,-0.21302458646014064,-2.3258159883592375e-18,-0.21302458646014064,-3.734382975986998e-18,-0.09716387109856099,-2.3258159883592375e-18,-0.09716387109856099,-5.604830246871506e-18,0.23413733637199285,-7.27945562703369e-19,-0.23413733637199277,0.6624070777543155,0.3499053110228192,0.6624070777543156,700.0,135.00000000000023,[0.59112604]
-3.116869487659012e-18,-0.21979796945429636,-3.2957001458286888e-18,-0.21979796945429636,-3.697484103222233e-18,-0.09563808362856807,-3.2957001458286888e-18,-0.09563808362856807,-4.415384230689655e-18,0.23970354694158538,-1.3798380272162631e-18,-0.23970354694158535,0.699104353458896,0.15002068507255356,0.6991043534588959,700.0,147.8571428571427,[0.3053001]
1.0201453058493981e-19,-0.059621614518512646,-2.7171203945723476e-18,-0.059621614518512646,9.300686458648235e-19,-0.057343881745848424,-2.7171203945723476e-18,-0.057343881745848424,-1.799362677764151e-18,0.08272277613496758,4.32018455247984e-18,-0.08272277613496758,0.6923109670988408,0.20349705076323743,0.6923109670988408,700.0,147.8571428571427,[0.14363019]
1.4021571650610874e-18,-0.015649522105095195,-3.038255896603197e-18,-0.015649522105095195,1.7472701515080114e-18,-0.04003602756571736,-3.038255896603197e-18,-0.04003602756571736,-6.554976220564217e-19,0.04298594008929831,-3.970951545353257e-18,-0.0429859400892983,0.5683589634974511,0.5949253543296048,0.5683589634974511,700.0,147.8571428571427,[0.1997947]
2.294241677197476e-18,0.0031608189290580468,-3.5941808252429354e-18,0.0031608189290580468,2.0636237224176917e-18,-0.03202809947871659,-3.5941808252429354e-18,-0.03202809947871659,2.1542430128841013e-19,0.03218369047391641,5.876185095110344e-18,-0.03218369047391641,0.31558292831734464,0.8948825792858519,0.3155829283173449,700.0,147.8571428571427,[0.18696341]
3.0365601763474633e-18,0.012935730313076522,-4.240860701969542e-18,0.012935730313076522,2.2171881487769362e-18,-0.027603305193274096,-4.240860701969542e-18,-0.027603305193274096,9.97354825612337e-19,0.03048402165603612,-1.0517849910914695e-18,-0.03048402165603612,0.08658706800116496,0.9924743620416213,0.08658706800116574,700.0,147.8571428571427,[0.19351353]
3.689887276476546e-18,0.018325303150540522,-4.926915203034285e-18,0.018325303150540522,2.301295873461328e-18,-0.02494205241158617,-4.926915203034285e-18,-0.02494205241158617,1.7239370407891158e-18,0.0309503265582372,-3.993862667148009e-19,-0.030950326558237175,0.051324803003683146,0.9973622858286083,0.05132480300368287,700.0,147.8571428571427,[0.19392393]
4.293292372276828e-18,0.02109996323755324,-5.641288232369781e-18,0.02109996323755324,2.3181174183982065e-18,-0.023322321889403284,-5.641288232369781e-18,-0.023322321889403284,2.430441928138007e-18,0.03145058261684572,-2.7767181474046237e-18,-0.03145058261684571,0.12270438656711019,0.9848285470244952,0.12270438656710991,700.0,147.8571428571427,[0.20190623]
4.890185902295093e-18,0.02201133257853068,-6.373025437123991e-18,0.02201133257853068,2.317032157434537e-18,-0.022423990381246692,-6.373025437123991e-18,-0.022423990381246692,3.1201252705500208e-18,0.031421873058443406,-3.589190229861003e-18,-0.03142187305844337,0.15093750041523504,0.9769522720874352,0.1509375004152346,700.0,147.8571428571427,[0.19964386]
5.452351081475931e-18,0.021336205243630956,-7.114970877817716e-18,0.021336205243630956,2.273621718887754e-18,-0.022113751821176073,-7.114970877817716e-18,-0.022113751821176073,3.797870742361668e-18,0.030728678360888145,-2.3951457256561277e-18,-0.0307286783608881,0.14498627406464878,0.9787532685338536,0.1449862740646482,700.0,147.8571428571427,[0.20582996]
5.996066824274387e-18,0.01904031325540379,-7.875874470970545e-18,0.01904031325540379,2.222614453595284e-18,-0.022375147544150202,-7.875874470970545e-18,-0.022375147544150202,4.458794669236438e-18,0.02937993799323607,-1.1884780563961207e-18,-0.02937993799323606,0.10150777016821881,0.9896425340449713,0.10150777016821863,700.0,147.8571428571427,[0.19804499]
6.484434257925695e-18,0.01476740542779912,-8.646274097555483e-18,0.01476740542779912,2.129282010719701e-18,-0.023303307305903867,-8.646274097555483e-18,-0.023303307305903867,5.107780725510842e-18,0.027588410509893156,-2.614163620079061e-18,-0.027588410509893156,0.0027120365854850005,0.9999926448305098,0.002712036585485119,700.0,147.8571428571427,[0.18584914]
6.943499645557924e-18,0.007645142205837945,-9.440549465341151e-18,0.007645142205837945,2.0044769998977e-18,-0.025160309581182268,-9.440549465341151e-18,-0.025160309581182268,5.731805779620846e-18,0.026296185608723134,1.4547338534960252e-18,-0.026296185608723106,0.18588486436242221,0.9648282927039026,0.18588486436242282,700.0,147.8571428571427,[0.1988911]
7.314658895132917e-18,-0.004327887866668772,-1.0275963006530919e-17,-0.004327887866668772,1.7999053082459857e-18,-0.02855703109950293,-1.0275963006530919e-17,-0.02855703109950293,6.327071418193607e-18,0.02888312030588864,1.2505694276590489e-17,-0.028883120305888632,0.46166988757425814,0.7574442750554944,0.4616698875742585,700.0,147.8571428571427,[0.19376411]
7.514346912448119e-18,-0.026359013257439574,-1.1183241172158681e-17,-0.026359013257439574,1.4151802966251223e-18,-0.03504482195098155,-1.1183241172158681e-17,-0.03504482195098155,6.845283528345828e-18,0.04385130699855905,1.6184291547065954e-17,-0.043851306998559,0.6605451759847617,0.3568755258721453,0.6605451759847616,700.0,147.8571428571427,[0.13674693]
7.225667496112012e-18,-0.07640338764347362,-1.229119087284997e-17,-0.07640338764347362,5.138710662975425e-19,-0.0494599246379095,-1.229119087284997e-17,-0.0494599246379095,7.173032339374038e-18,0.09101517339755268,2.275194842965701e-17,-0.09101517339755269,0.7070422216997828,0.013512715036968694,0.7070422216997828,700.0,147.8571428571427,[0.12759242]
4.677474753415857e-18,-0.2536082584056921,-1.4137084114431454e-17,-0.2536082584056921,-4.164146317600149e-18,-0.07958616086967954,-1.4137084114431454e-17,-0.07958616086967954,6.362885029994703e-18,0.265802757197029,1.4152572999330728e-17,-0.26580275719702906,0.6838982842793228,0.2540989443496315,0.6838982842793229,700.0,147.8571428571427,[0.50281235]
4.907550077713806e-18,-0.259048486243022,-1.3797940063284715e-17,-0.259048486243022,-4.293292372276828e-18,-0.07526009020991299,-1.3797940063284715e-17,-0.07526009020991299,6.967918017240489e-18,0.2697595214319699,1.3599324288396303e-17,-0.26975952143196996,0.7060815019836174,0.05383145096612241,0.7060815019836174,700.0,160.7142857142859,[0.19674886]
8.377129378565429e-18,-0.08304903446613038,-1.1668658052565012e-17,-0.08304903446613038,1.3891340334970526e-19,-0.044200109243672105,-1.1668658052565012e-17,-0.044200109243672105,8.504104911314769e-18,0.09407864679569461,1.905832979676982e-17,-0.09407864679569469,0.6989016018245369,0.15189832762145178,0.6989016018245366,700.0,160.7142857142859,[0.15119453]
9.569831177638289e-18,-0.0320275492876532,-1.025195160770973e-17,-0.0320275492876532,7.737910670964052e-19,-0.030591565727083807,-1.025195160770973e-17,-0.030591565727083807,8.927356687145902e-18,0.044290041849241284,1.936050048398011e-17,-0.044290041849241284,0.6439474958570993,0.41311408249869963,0.6439474958570991,700.0,160.7142857142859,[0.18163935]
1.0258971889568467e-17,-0.009933949684342969,-9.017195946294674e-18,-0.009933949684342969,8.888287292453797e-19,-0.02418114693814294,-9.017195946294674e-18,-0.02418114693814294,9.178051969753573e-18,0.026142135023274542,1.6350443875025132e-17,-0.026142135023274532,0.4696443642429556,0.7475749743468277,0.46964436424295586,700.0,160.7142857142859,[0.18849011]
1.07571066718928e-17,0.001677405519016254,-7.84833597401743e-18,0.001677405519016254,8.4053461636208385e-19,-0.020523969542209062,-7.84833597401743e-18,-0.020523969542209062,9.379367878514279e-18,0.020592401876535722,6.938893903907228e-18,-0.020592401876535705,0.17839958327257313,0.9676503383848654,0.1783995832725737,700.0,160.7142857142859,[0.20360801]
1.1181443708687604e-17,0.008193293866109798,-6.7127460331576816e-18,0.008193293866109798,7.179001274674221e-19,-0.018211946704012175,-6.7127460331576816e-18,-0.018211946704012175,9.537273348728201e-18,0.01997010433438474,8.115401882980119e-18,-0.019970104334384738,0.06084871077529721,0.9962905544036682,0.06084871077529741,700.0,160.7142857142859,[0.19175376]
1.1541750348625902e-17,0.011677056253328488,-5.597369077746278e-18,0.011677056253328488,5.437157427984557e-19,-0.016683729168799077,-5.597369077746278e-18,-0.016683729168799077,9.693008297014785e-18,0.020364195582473547,3.8331369278673435e-18,-0.020364195582473536,0.19137576937638917,0.9626788819700941,0.19137576937638898,700.0,160.7142857142859,[0.19375846]
1.1844538157489712e-17,0.013011299148187225,-4.491759471007901e-18,0.013011299148187225,3.445703559650892e-19,-0.01568555673766128,-4.491759471007901e-18,-0.01568555673766128,9.826495395546142e-18,0.02037966132432061,6.191895408330982e-18,-0.02037966132432059,0.24636514169689258,0.9373411512962294,0.24636514169689236,700.0,160.7142857142859,[0.19385309]
1.2136473356716827e-17,0.012529142074133729,-3.397138131526679e-18,0.012529142074133729,1.2209185841282688e-19,-0.015103975544353993,-3.397138131526679e-18,-0.015103975544353993,9.958083287391078e-18,0.019624206438943522,7.192253126533776e-18,-0.0196242064389435,0.24637214322954762,0.9373374707547752,0.24637214322954762,700.0,160.7142857142859,[0.19385309]
1.2396935987997526e-17,0.010206856269847995,-2.305772574936465e-18,0.010206856269847995,-1.2480501082200082e-19,-0.014909308621044419,-2.305772574936465e-18,-0.014909308621044419,1.0082074352490327e-17,0.018068408852770765,8.98712144770055e-18,-0.018068408852770747,0.18431983740808733,0.9654286069284012,0.1843198374080866,700.0,160.7142857142859,[0.19672093]
1.2600422418685571e-17,0.005656307144643655,-1.2318729369803086e-18,0.005656307144643655,-4.2677887396305936e-19,-0.015146178683074864,-1.2318729369803086e-18,-0.015146178683074864,1.0196569384157467e-17,0.01616788604654852,1.2698039156401752e-17,-0.01616788604654851,0.014713782493920786,0.9997834811645188,0.014713782493920814,700.0,160.7142857142859,[0.18822092]
1.2785459412991233e-17,-0.0020886796903474003,-1.6621449946701793e-19,-0.0020886796903474003,-7.450316515591614e-19,-0.015963709810224158,-1.6621449946701793e-19,-0.015963709810224158,1.0295599447092315e-17,0.016099770611841552,1.230040058354444e-17,-0.016099770611841546,0.318156426866965,0.893058215396114,0.31815642686696416,700.0,160.7142857142859,[0.17695404]
1.2839722461174712e-17,-0.015251321110848903,8.649869024497639e-19,-0.015251321110848903,-1.1406092728167205e-18,-0.0177229276526861,8.649869024497639e-19,-0.0177229276526861,1.0373738236476524e-17,0.023381722781022178,1.1931890752969166e-17,-0.023381722781022154,0.6123668037339379,0.500013795179055,0.6123668037339376,700.0,160.7142857142859,[0.17977779]
1.2708948515052528e-17,-0.03960404640388201,1.8624434712774448e-18,-0.03960404640388201,-1.7356035961485635e-18,-0.02134848603894776,1.8624434712774448e-18,-0.02134848603894776,1.0411451054964042e-17,0.04499153640092753,8.864464667318328e-18,-0.04499153640092752,0.6983216174445903,0.15714272881410235,0.6983216174445902,700.0,160.7142857142859,[0.08313665]
1.2005699410594644e-17,-0.09485813393293092,2.7311948726949374e-18,-0.09485813393293092,-2.8048569606040096e-18,-0.029698397082213474,2.7311948726949374e-18,-0.029698397082213474,1.0324087547388641e-17,0.09939849275764037,8.938117764861838e-18,-0.09939849275764034,0.7067174919132436,0.033177903003486865,0.7067174919132436,700.0,160.7142857142859,[0.12465286]
8.807977981142249e-18,-0.28267243369521144,3.1872079638668462e-18,-0.28267243369521144,-7.69015918856259e-18,-0.04599312967888491,3.1872079638668462e-18,-0.04599312967888491,9.36987184508217e-18,0.2863897217932802,8.346677099375761e-18,-0.2863897217932802,0.6962692994930192,0.17440792747751227,0.6962692994930191,700.0,160.7142857142859,[0.34819425]
8.179069252695732e-18,-0.2857135355660541,4.310351318049509e-18,-0.2857135355660541,-7.721631756509007e-18,-0.03973127211033279,4.310351318049509e-18,-0.03973127211033279,8.93902324250535e-18,0.2884628197691345,7.569001932664219e-18,-0.28846281976913446,0.7068682707121595,0.025971055442586072,0.7068682707121595,700.0,173.57142857142813,[0.21116798]
1.0378893226053955e-17,-0.0986127133670476,5.5397993750641185e-18,-0.0986127133670476,-2.8903212614929885e-18,-0.022061968869391612,5.5397993750641185e-18,-0.022061968869391612,8.759412553018036e-18,0.10105047109244711,6.3582115075294774e-18,-0.10105047109244715,0.7029946159195846,0.10769001799680258,0.7029946159195843,700.0,173.57142857142813,[0.14841625]
1.0088585918272344e-17,-0.04286062381480298,6.384590249268095e-18,-0.04286062381480298,-1.8606799222114817e-18,-0.014852449582728232,6.384590249268095e-18,-0.014852449582728232,7.731127789941116e-18,0.045361088307067095,3.809509024840425e-18,-0.04536108830706712,0.689850167514707,0.21957571076934018,0.6898501675147071,700.0,173.57142857142813,[0.11138552]
9.18564879649926e-18,-0.018517252035015648,7.130758033398597e-18,-0.018517252035015648,-1.3592893569961393e-18,-0.0113132657840577,7.130758033398597e-18,-0.0113132657840577,6.588890625678892e-18,0.02169973745530166,1.0017147671621427e-18,-0.02169973745530166,0.6408844804406267,0.4225330347566874,0.6408844804406264,700.0,173.57142857142813,[0.18163935]
8.107984659575375e-18,-0.005599111860053772,7.850065608678278e-18,-0.005599111860053772,-9.916572055530717e-19,-0.009151774075190865,7.850065608678278e-18,-0.009151774075190865,5.415723523952083e-18,0.01072870086938444,-8.261466839019828e-20,-0.010728700869384435,0.4342398241557555,0.7892221171725721,0.4342398241557549,700.0,173.57142857142813,[0.18595538]
6.9076860337568285e-18,0.00176582980602897,8.55472216094842e-18,0.00176582980602897,-7.207489374970547e-19,-0.007650252182139081,8.55472216094842e-18,-0.007650252182139081,4.2197659419882145e-18,0.007851401999272747,1.0792516591719357e-17,-0.007851401999272747,0.08089029344210238,0.9934352122074701,0.08089029344210391,700.0,173.57142857142813,[0.1903594]
5.666690121800672e-18,0.005835176653749412,9.243625472042795e-18,0.005835176653749412,-4.954216299151598e-19,-0.006519175564822753,9.243625472042795e-18,-0.006519175564822753,3.0151262723149893e-18,0.008749224915696489,1.3505304059393542e-17,-0.008749224915696489,0.4096386138925118,0.8151027002877871,0.4096386138925121,700.0,173.57142857142813,[0.17355299]
4.3757722055157156e-18,0.007580819150290861,9.931528308186288e-18,0.007580819150290861,-2.9885373787050847e-19,-0.005621382491421479,9.931528308186288e-18,-0.005621382491421479,1.8072308197507553e-18,0.009437624706687407,1.252789090460733e-17,-0.009437624706687409,0.5172587201193751,0.6818261016717767,0.5172587201193751,700.0,173.57142857142813,[0.17444952]
3.040358589720307e-18,0.007378072538283323,1.061198693240711e-17,0.007378072538283323,-1.2059962458778122e-19,-0.004885720018050728,1.061198693240711e-17,-0.004885720018050728,5.901106489953299e-19,0.008849079866005964,1.0847006341819517e-17,-0.008849079866005968,0.5421438952975755,0.641996879730068,0.5421438952975749,700.0,173.57142857142813,[0.18086885]
1.682697124169672e-18,0.005218496873202341,1.1293768218427404e-17,0.005218496873202341,1.9534697346052302e-20,-0.0042751514822525725,1.1293768218427404e-17,-0.0042751514822525725,-6.306722775124802e-19,0.006746082552995398,1.1284006376951019e-17,-0.006746082552995406,0.4933774531553075,0.716350038344359,0.49337745315530745,700.0,173.57142857142813,[0.18849011]
2.8488100296326273e-19,0.0007071996686636891,1.196790180609434e-17,0.0007071996686636891,1.4569628437264008e-19,-0.0037749383694208128,1.196790180609434e-17,-0.0037749383694208128,-1.856067563115886e-18,0.0038406107670894574,4.81473701390231e-18,-0.003840610767089462,0.05156896715824077,0.9973370960976352,0.05156896715824485,700.0,173.57142857142813,[0.19175376]
-1.1796786675088251e-18,-0.007157477512164039,1.2641357105658983e-17,-0.007157477512164039,2.0931970836776878e-19,-0.0033917017951585284,1.2641357105658983e-17,-0.0033917017951585284,-3.0919084854946115e-18,0.007920424572231943,-1.2531848065442312e-17,-0.007920424572231941,0.6688784897625443,0.3243503227468029,0.6688784897625445,700.0,173.57142857142813,[0.13371435]
-2.745710238084018e-18,-0.020690141081682194,1.3309521758025735e-17,-0.020690141081682194,2.1162588791556662e-19,-0.003165101700041867,1.3309521758025735e-17,-0.003165101700041867,-4.345791871394344e-18,0.02093083387616273,-8.297486933186852e-18,-0.02093083387616273,0.7065524320552773,0.039589411634235155,0.7065524320552774,700.0,173.57142857142813,[0.06494954]
-4.543716339643582e-18,-0.0459004070200172,1.3978330784089665e-17,-0.0459004070200172,2.713152409173931e-20,-0.0032099515415531647,1.3978330784089665e-17,-0.0032099515415531647,-5.6247719170789346e-18,0.04601251083675356,-7.5607215938157e-18,-0.046012510836753576,0.7064718582399654,0.042367759321689756,0.7064718582399654,700.0,173.57142857142813,[0.06443448]
-6.8938489564700415e-18,-0.10322341320871625,1.4621144418633198e-17,-0.10322341320871625,-6.453233005220194e-19,-0.0038399685482471677,1.4621144418633198e-17,-0.0038399685482471677,-6.998576639464154e-18,0.10329481300098715,-8.083568068106116e-18,-0.10329481300098713,0.7051181103115477,0.0749459873598579,0.7051181103115476,700.0,173.57142857142813,[0.13907264]
-1.1896088053264017e-17,-0.29460089512879395,1.5251884524955908e-17,-0.29460089512879395,-5.13192778195249e-18,-0.003074423993430429,1.5251884524955908e-17,-0.003074423993430429,-9.141288754609266e-18,0.29461693687494966,-9.459909180179239e-18,-0.2946169368749497,0.7034485562250088,0.10158866811756562,0.7034485562250089,700.0,173.57142857142813,[0.22622171]
-1.2420269098716422e-17,-0.29464529480341933,1.567954517345195e-17,-0.29464529480341933,-5.0852615605146984e-18,0.0038870451982965827,1.567954517345195e-17,0.0038870451982965827,-9.733976898393311e-18,0.29467093319526355,-9.320745517746671e-18,-0.2946709331952636,0.7036438594173953,0.09884653867681177,0.7036438594173952,700.0,173.57142857142813,[0.22622171]
-8.510345161855869e-18,-0.1033563383802386,1.5291716993763093e-17,-0.1033563383802386,-5.023401685585533e-19,0.004672589311423166,1.5291716993763093e-17,0.004672589311423166,-8.767687667866016e-18,0.10346190494207809,-7.390056518177621e-18,-0.10346190494207812,0.7055192339727658,0.06697179248731001,0.705519233972766,700.0,173.57142857142813,[0.13876281]
-7.254155596408339e-18,-0.04612143128455588,1.4917208696683025e-17,-0.04612143128455588,2.6704202587294414e-19,0.004061932282955757,1.4917208696683025e-17,0.004061932282955757,-8.567321362448521e-18,0.04629995375383572,-5.95542103757317e-18,-0.04629995375383572,0.7068970584725696,0.024353592048336016,0.7068970584725698,700.0,173.57142857142813,[0.06494954]
-6.543580980445687e-18,-0.020998766200984873,1.4555265686697944e-17,-0.020998766200984873,5.352371415197872e-19,0.004035913456221676,1.4555265686697944e-17,0.004035913456221676,-8.47059747906147e-18,0.02138309564562006,-2.9786771342648955e-18,-0.021383095645620076,0.7049743148970297,0.07760432121298187,0.7049743148970296,700.0,173.57142857142813,[0.07738543]
-6.072577722213092e-18,-0.007553135419878308,1.4209677898579414e-17,-0.007553135419878308,6.376586449661031e-19,0.0042808322638653,1.4209677898579414e-17,0.0042808322638653,-8.398698940218361e-18,0.008681899535376465,4.87450771715833e-18,-0.008681899535376491,0.6503424796618907,0.39256759710200967,0.6503424796618907,700.0,173.57142857142813,[0.17930355]
-5.6989766354698416e-18,0.00022514478621064654,1.3856959606785526e-17,0.00022514478621064654,6.649258266783011e-19,0.004681872020669104,1.3856959606785526e-17,0.004681872020669104,-8.335618146705068e-18,0.004687282346166276,-7.37257477290143e-18,-0.004687282346166281,0.045328475292400305,0.9979432141436367,0.04532847529240451,700.0,173.57142857142813,[0.19175376]
-5.364987573900531e-18,0.004650746436700547,1.3511948363553946e-17,0.004650746436700547,6.415248871491759e-19,0.00519936605888822,1.3511948363553946e-17,0.00519936605888822,-8.29790532821755e-18,0.006975876277056644,-2.010626800305122e-17,-0.006975876277056641,0.40944795813129503,0.8152942653816635,0.40944795813129503,700.0,173.57142857142813,[0.17355299]
-5.082819723346442e-18,0.006725391392984002,1.3164961606224436e-17,0.006725391392984002,5.854982898997343e-19,0.005826686862305644,1.3164961606224436e-17,0.005826686862305644,-8.251578250830905e-18,0.008898380143609766,-2.0322067965185055e-17,-0.008898380143609755,0.47922926095439733,0.7353085276876673,0.4792292609543971,700.0,173.57142857142813,[0.18849011]
-4.8581707038668404e-18,0.006844033357222497,1.2831888233593222e-17,0.006844033357222497,5.062742395518555e-19,0.006578568093951498,1.2831888233593222e-17,0.006578568093951498,-8.216917728803708e-18,0.009493068564038231,-1.9232708876950325e-17,-0.009493068564038228,0.45171928137321765,0.7693499734654754,0.45171928137321765,700.0,173.57142857142813,[0.18595538]
-4.641118511132926e-18,0.005015171279599472,1.2490828018557501e-17,0.005015171279599472,4.0371707848508095e-19,0.007492043632102641,1.2490828018557501e-17,0.007492043632102641,-8.182053720345823e-18,0.009015689699021874,-1.746548898664981e-17,-0.009015689699021874,0.32507907656227164,0.8880580994297853,0.3250790765622708,700.0,173.57142857142813,[0.17360568]
-4.474802268450564e-18,0.0008635467432942576,1.2164384912126204e-17,0.0008635467432942576,2.6412538703308216e-19,0.008638266051658676,1.2164384912126204e-17,0.008638266051658676,-8.164282572065734e-18,0.008681322097301356,-7.40789370399119e-18,-0.008681322097301361,0.008883263636503795,0.9999210845133374,0.008883263636506147,700.0,173.57142857142813,[0.18554528]
-4.3757722055157156e-18,-0.006582675974132779,1.1837110902769599e-17,-0.006582675974132779,8.020756809620433e-20,0.010154399606731247,1.1837110902769599e-17,0.010154399606731247,-8.142170379930966e-18,0.01210138233234569,4.871891603980966e-18,-0.01210138233234571,0.4486528503673309,0.772930294214516,0.44865285036733155,700.0,173.57142857142813,[0.18595538]
-4.3784853579248895e-18,-0.01958104762821608,1.1533950035449526e-17,-0.01958104762821608,-1.72556493223462e-19,0.012329975378722541,1.1533950035449526e-17,0.012329975378722541,-8.14284866803326e-18,0.023139700064140196,1.8457101379540814e-18,-0.023139700064140234,0.6367846588978991,0.4347534892149487,0.6367846588978993,700.0,173.57142857142813,[0.18163935]
-4.576002853312752e-18,-0.04400354932951168,1.126010817135109e-17,-0.04400354932951168,-6.044225279537224e-19,0.015882729835631076,1.126010817135109e-17,0.015882729835631076,-8.186055620149355e-18,0.04678219170396371,-8.129854816970833e-19,-0.0467821917039637,0.6878046992833625,0.23205471614997608,0.6878046992833626,700.0,173.57142857142813,[0.11278143]
-5.3521000999569545e-18,-0.09983361254679252,1.1084126323211046e-17,-0.09983361254679252,-1.5404261947136139e-18,0.023105344074392613,1.1084126323211046e-17,0.023105344074392613,-8.333379795967499e-18,0.10247247005385962,-3.3450859993571515e-18,-0.10247247005385969,0.7024171445236492,0.11497960757667441,0.7024171445236492,700.0,173.57142857142813,[0.14761475]
-8.652921320957959e-18,-0.28701117823821026,1.1289376302965054e-17,-0.28701117823821026,-6.270095217600955e-18,0.040787399820479485,1.1289376302965054e-17,0.040787399820479485,-9.334736521383368e-18,0.2898948575221736,-6.115870718446824e-18,-0.2898948575221735,0.7068101630981366,0.028961814210619163,0.7068101630981366,700.0,173.57142857142813,[0.21116798]
-8.808249296383166e-18,-0.28404462490212024,1.0712331178540152e-17,-0.28404462490212024,-6.289969058998154e-18,0.04707832103561522,1.0712331178540152e-17,0.04707832103561522,-9.173032637796601e-18,0.28791963678658433,-5.4864139522672234e-18,-0.2879196367865843,0.6966306573973731,0.17149768029978446,0.6966306573973732,700.0,160.7142857142859,[0.34669605]
-6.070135885044835e-18,-0.0963012248571074,8.788108379045689e-18,-0.0963012248571074,-1.57362839732088e-18,0.030833873566926583,8.788108379045689e-18,0.030833873566926583,-7.570848311369166e-18,0.10111702956535251,-1.9094154085640436e-18,-0.10111702956535251,0.7068541544393443,0.026728425013060213,0.7068541544393443,700.0,160.7142857142859,[0.12465286]
-5.843316343637895e-18,-0.041116499848586965,7.278828326129264e-18,-0.041116499848586965,-6.527505552421331e-19,0.02253310636840749,7.278828326129264e-18,0.02253310636840749,-6.837991931246173e-18,0.04688611140208597,6.582970449561665e-19,-0.04688611140208596,0.6975343438432733,0.1639868236117389,0.6975343438432736,700.0,160.7142857142859,[0.08506331]
-6.1840882862301404e-18,-0.016831509137074104,5.894505898857856e-18,-0.016831509137074104,-2.5839385256870223e-19,0.018955909455737767,5.894505898857856e-18,0.018955909455737767,-6.232721543164584e-18,0.025350073039846203,-6.359052289776205e-19,-0.025350073039846238,0.6177814007052135,0.4865103101532476,0.6177814007052136,700.0,160.7142857142859,[0.17977779]
-6.711525114573553e-18,-0.0037349505922914354,4.5480489048969815e-18,-0.0037349505922914354,-1.3107917576821555e-20,0.017244355620840552,4.5480489048969815e-18,0.017244355620840552,-5.669098044563814e-18,0.017644196119542346,-5.849572357908691e-18,-0.017644196119542356,0.3695320124769005,0.8525797226708733,0.369532012476901,700.0,160.7142857142859,[0.16620524]
-7.341247788742822e-18,0.003945610773706815,3.2357564347885022e-18,0.003945610773706815,1.3876078852668922e-19,0.016473814658412043,3.2357564347885022e-18,0.016473814658412043,-5.128366769415449e-18,0.01693972885784488,-9.70655851896809e-18,-0.016939728857844887,0.07166186171301188,0.9948513231391162,0.0716618617130119,700.0,160.7142857142859,[0.19175376]
-8.0366287512141e-18,0.0084333905438173,1.929280285157189e-18,0.0084333905438173,2.580547085175555e-19,0.01628327014261367,1.929280285157189e-18,0.01628327014261367,-4.591094763588782e-18,0.01833758333592191,-8.644466848174482e-18,-0.01833758333592191,0.09956764626333095,0.9900366496424062,0.09956764626333059,700.0,160.7142857142859,[0.1942625]
-8.77040082027519e-18,0.010694557679934139,6.366242556101055e-19,0.010694557679934139,3.4375641024233703e-19,0.016523603604155016,6.366242556101055e-19,0.016523603604155016,-4.072102622118923e-18,0.019682556745420094,-6.327167481304678e-18,-0.019682556745420122,0.16658731808495428,0.9718525252868996,0.16658731808495503,700.0,160.7142857142859,[0.19588407]
-9.535781114903156e-18,0.011117238384886628,-6.46523022602951e-19,0.011117238384886628,3.9384798659671077e-19,0.017150197657512866,-6.46523022602951e-19,0.017150197657512866,-3.553212223864409e-18,0.020438255037995692,-7.144542244372547e-18,-0.0204382550379957,0.16707082739420245,0.9716865118275714,0.16707082739420273,700.0,160.7142857142859,[0.19588407]
-1.0335482787507172e-17,0.009725150831959095,-1.915027756407747e-18,0.009725150831959095,4.2691453158351806e-19,0.01819273566112949,-1.915027756407747e-18,0.01819273566112949,-3.0522625459155574e-18,0.02062896481988583,-8.693701192447751e-18,-0.020628964819885843,0.10868423843917333,0.9881171350754897,0.10868423843917398,700.0,160.7142857142859,[0.19933711]
-1.1177848781745448e-17,0.006185163424339107,-3.1859276950737673e-18,0.006185163424339107,4.2966159839780666e-19,0.019764679810981244,-3.1859276950737673e-18,0.019764679810981244,-2.5524659577406047e-18,0.020709872394980896,-7.967188856013691e-18,-0.020709872394980896,0.0235517263089554,0.9994451622654121,0.0235517263089554,700.0,160.7142857142859,[0.1892271]
-1.2063082584048672e-17,-0.0003853428902248555,-4.425745081452188e-18,-0.0003853428902248555,3.750424489606239e-19,0.022119801826830737,-4.425745081452188e-18,0.022119801826830737,-2.0759346514743185e-18,0.022123158047650228,-1.3877787807814457e-17,-0.022123158047650235,0.24513241787706758,0.9379873109011045,0.2451324178770673,700.0,160.7142857142859,[0.19385309]
-1.3029032670524823e-17,-0.01204972023876748,-5.6305797589548225e-18,-0.01204972023876748,2.7134915532250775e-19,0.025819468737361705,-5.6305797589548225e-18,0.025819468737361705,-1.6223633974706668e-18,0.02849281880952042,-1.657835915560599e-17,-0.02849281880952043,0.49388743428788645,0.7156468434256225,0.4938874342878864,700.0,160.7142857142859,[0.18849011]
-1.4200707538426583e-17,-0.03419475085812766,-6.7748390696220106e-18,-0.03419475085812766,-3.4558778811852943e-20,0.03227180133310011,-6.7748390696220106e-18,0.03227180133310011,-1.2359765799991842e-18,0.04701861490444508,-1.4072667821793697e-17,-0.04701861490444507,0.6456871489574705,0.4076471652573417,0.6456871489574705,700.0,160.7142857142859,[0.17930355]
-1.5863395163578597e-17,-0.08526605284209114,-7.733222004456947e-18,-0.08526605284209114,-8.304366022391896e-19,0.0459217763572214,-7.733222004456947e-18,0.0459217763572214,-1.0164147212867838e-18,0.09684580172146308,-1.0342053561746211e-17,-0.09684580172146301,0.6983627031115419,0.15677713419207523,0.698362703111542,700.0,160.7142857142859,[0.14535579]
-1.9808929225809557e-17,-0.2613135613325934,-7.983088503789628e-18,-0.2613135613325934,-5.425855452480092e-18,0.07702305591513059,-7.983088503789628e-18,0.07702305591513059,-1.905819995419113e-18,0.27242857500421724,-6.816765734852234e-18,-0.2724285750042172,0.7062243976793785,0.04994196877174301,0.7062243976793786,700.0,160.7142857142859,[0.20791114]
-1.96430877847988e-17,-0.255917801793882,-8.210950913153845e-18,-0.255917801793882,-5.4196575949453854e-18,0.08140229501443991,-8.210950913153845e-18,0.08140229501443991,-2.3994611190657524e-18,0.26855214560422086,-8.86198676816093e-18,-0.26855214560422075,0.6845898223033039,0.2503468601709659,0.6845898223033039,700.0,147.85714285714295,[0.50281235]
-1.5882048086391668e-17,-0.07874968191350311,-8.806964788289448e-18,-0.07874968191350311,-7.823714115904177e-19,0.05135020141819966,-8.806964788289448e-18,0.05135020141819966,-2.0002885708660378e-18,0.09401252888401418,-4.4862355900494296e-18,-0.09401252888401418,0.7070066468768971,0.016828622753303258,0.7070066468768972,700.0,147.85714285714295,[0.13057547]
-1.436234359320312e-17,-0.028741207314010184,-8.667309507327859e-18,-0.028741207314010184,3.528793852181844e-20,0.0370080201523312,-8.667309507327859e-18,0.0370080201523312,-2.7324497056841804e-18,0.046857769403400584,-2.305523539447174e-17,-0.046857769403400584,0.6643638711404845,0.34240515978363895,0.6643638711404845,700.0,147.85714285714295,[0.13810752]
-1.33352119199001e-17,-0.006744896448778144,-8.330024389511466e-18,-0.006744896448778144,3.4825854752131e-19,0.03059247587717503,-8.330024389511466e-18,0.03059247587717503,-3.676796316102282e-18,0.03132719598687817,-1.6529201046402676e-17,-0.03132719598687818,0.49628860518057566,0.7123168120547465,0.4962886051805758,700.0,147.85714285714295,[0.19492139]
-1.2474260831658983e-17,0.005194442146323582,-7.91583411879691e-18,0.005194442146323582,4.986434984010538e-19,0.02726745961776373,-7.91583411879691e-18,0.02726745961776373,-4.684037190805546e-18,0.027757820217334757,-1.1007055437126729e-17,-0.027757820217334767,0.2575156843820399,0.9313277321085739,0.2575156843820397,700.0,147.85714285714295,[0.18558233]
-1.1704030777099617e-17,0.012284131282597805,-7.464757693219506e-18,0.012284131282597805,5.664426335259267e-19,0.025481658654777705,-7.464757693219506e-18,0.025481658654777705,-5.727125591715021e-18,0.028288068318050717,-6.228807650042945e-18,-0.02828806831805074,0.07888412365737871,0.9937578125829327,0.07888412365737814,700.0,147.85714285714295,[0.19252957]
-1.0981348718511026e-17,0.016525567345112853,-6.990905624957279e-18,0.016525567345112853,6.005986787770429e-19,0.024624207317244334,-6.990905624957279e-18,0.024624207317244334,-6.7862894206488525e-18,0.029655454170868623,-6.111709138645455e-18,-0.029655454170868633,0.021262465298138508,0.9995478053294353,0.02126246529813896,700.0,147.85714285714295,[0.19139726]
-1.0266161743452778e-17,0.01879107353037675,-6.49631065866679e-18,0.01879107353037675,5.924295464450458e-19,0.024433028024006168,-6.49631065866679e-18,0.024433028024006168,-7.865310133777324e-18,0.0308233240070875,-5.742476393228786e-18,-0.030823324007087507,0.06679630871832887,0.9955282548894389,0.06679630871832852,700.0,147.85714285714295,[0.19392393]
-9.592214685013974e-18,0.019436886160085546,-5.9956492531614126e-18,0.019436886160085546,5.538179962219893e-19,0.024812986834298664,-5.9956492531614126e-18,0.024812986834298664,-8.952020938265549e-18,0.03151946794029371,-6.359703026608863e-18,-0.031519467940293734,0.0730534612591233,0.9946488745261433,0.07305346125912353,700.0,147.85714285714295,[0.19356147]
-8.954420382427412e-18,0.018497261200380307,-5.474906280527509e-18,0.018497261200380307,4.991352572752166e-19,0.025780535299452477,-5.474906280527509e-18,0.025780535299452477,-1.0058961685404676e-17,0.03172987034706271,-5.9324678977429345e-18,-0.03172987034706273,0.043367170891526814,0.9981175166170217,0.04336717089152687,700.0,147.85714285714295,[0.19392393]
-8.352575349262405e-18,0.015695396535908145,-4.9372463786923425e-18,0.015695396535908145,4.1190740732027475e-19,0.027468970909828676,-4.9372463786923425e-18,0.027468970909828676,-1.1181172393446686e-17,0.03163684300407377,-2.4682356630880424e-18,-0.03163684300407378,0.029608057374491497,0.999122978355026,0.029608057374491507,700.0,147.85714285714295,[0.19392393]
-7.79732870872496e-18,0.010279667673892498,-4.38224137829134e-18,0.010279667673892498,2.896756519863498e-19,0.030198408870733686,-4.38224137829134e-18,0.030198408870733686,-1.2327903216386605e-17,0.03190008567088303,-7.652781846523411e-18,-0.031900085670883045,0.16319889354348505,0.9730016661303128,0.16319889354348496,700.0,147.85714285714295,[0.1959858]
-7.286577767697967e-18,0.00047965553515934035,-3.775019852090497e-18,0.00047965553515934035,6.131724444733084e-20,0.03469086545977622,-3.775019852090497e-18,0.03469086545977622,-1.3520130213787861e-17,0.03469418129572599,-6.938893903907228e-18,-0.03469418129572601,0.36789002265117926,0.8539987485163134,0.36789002265117926,700.0,147.85714285714295,[0.16785518]
-6.940854321958979e-18,-0.018354703771438087,-3.0818274285742746e-18,-0.018354703771438087,-3.1044610546876803e-19,0.042765949236461674,-3.0818274285742746e-18,0.042765949236461674,-1.480662230020535e-17,0.04653838807514569,-9.538659008262102e-18,-0.046538388075145674,0.5818445774359575,0.5682550267412902,0.5818445774359574,700.0,147.85714285714295,[0.1796931]
-7.015839071667524e-18,-0.06234963585722197,-2.1576270346194496e-18,-0.06234963585722197,-1.2029905817245242e-18,0.0601405487673635,-2.1576270346194496e-18,0.0601405487673635,-1.6361072101433883e-17,0.08662772476273285,-1.6372154788922184e-17,-0.0866277247627329,0.6921032983935919,0.2049049748186265,0.6921032983935917,700.0,147.85714285714295,[0.12818234]
-8.984095486902752e-18,-0.22254726758458765,-3.3282325389349395e-19,-0.22254726758458765,-5.873604027055618e-18,0.09850153696276316,-3.3282325389349395e-19,0.09850153696276316,-1.939391865042129e-17,0.24337181244629108,-1.759424384694859e-17,-0.24337181244629125,0.6997569051515518,0.14380732730095788,0.6997569051515516,700.0,147.85714285714295,[0.3053001]
-8.253952259188932e-18,-0.21579276004898112,-1.9918248071396072e-19,-0.21579276004898112,-5.977903540685159e-18,0.10010301517987714,-1.9918248071396072e-19,0.10010301517987714,-1.928172131970067e-17,0.23788049297422403,-2.2308880107558276e-17,-0.2378804929742243,0.663979991127492,0.34389117866655317,0.6639799911274918,700.0,134.9999999999996,[0.5478352]
-5.4014455593988054e-18,-0.05414357291637614,-1.8956027509657375e-18,-0.05414357291637614,-1.4799398531915926e-18,0.06219756587481785,-1.8956027509657375e-18,0.06219756587481785,-1.5423262492601635e-17,0.08246249868214794,-8.295543994705118e-18,-0.0824624986821479,0.7054184668817248,0.0690620964384523,0.7054184668817248,700.0,134.9999999999996,[0.13298418]
-4.4193352588855145e-18,-0.01141979021337684,-2.693340037636002e-18,-0.01141979021337684,-7.6559437931025225e-19,0.04465640078199571,-2.693340037636002e-18,0.04465640078199571,-1.3066516566777816e-17,0.04609344573059997,-1.148248031255175e-17,-0.04609344573059998,0.6082881210825339,0.5098736348349083,0.6082881210825338,700.0,134.9999999999996,[0.18668759]
-3.8230352309567565e-18,0.007283449236884911,-3.242947878410553e-18,0.007283449236884911,-5.720406300201676e-19,0.0366746552949222,-3.242947878410553e-18,0.0366746552949222,-1.1013948940427507e-17,0.03739089426301066,-2.657403446570561e-18,-0.03739089426301068,0.3930262519438211,0.8313006258664698,0.3930262519438206,700.0,134.9999999999996,[0.17755664]
-3.3732623903259485e-18,0.017480844175313627,-3.69883908968908e-18,0.017480844175313627,-5.4669703097306755e-19,0.032395887928623926,-3.69883908968908e-18,0.032395887928623926,-9.073705823817e-18,0.036811322548443666,-3.9760246709774865e-19,-0.03681132254844366,0.2025877192225637,0.9580795541291963,0.20258771922256358,700.0,134.9999999999996,[0.20136974]
-2.9825854006074594e-18,0.02359867053255379,-4.116361980618733e-18,0.02359867053255379,-5.906702366797221e-19,0.029949357807992072,-4.116361980618733e-18,0.029949357807992072,-7.183931581317767e-18,0.03812953296350688,-1.8034053489173937e-18,-0.0381295329635069,0.08327780045872583,0.9930405912657918,0.08327780045872575,700.0,134.9999999999996,[0.19698866]
-2.616869413053371e-18,0.027330075585708612,-4.5029703015486206e-18,0.027330075585708612,-6.822613868176987e-19,0.028595337407968345,-4.5029703015486206e-18,0.028595337407968345,-5.3202163198485215e-18,0.03955535808201083,1.4585378489859928e-19,-0.03955535808201084,0.015993557935145425,0.9997441733809456,0.01599355793514545,700.0,134.9999999999996,[0.1948724]
-2.295649125009735e-18,0.02941382749357323,-4.873178358042664e-18,0.02941382749357323,-8.199771877367922e-19,0.028010695967980177,-4.873178358042664e-18,0.028010695967980177,-3.479575571759173e-18,0.04061738958170879,4.18080806801654e-19,-0.040617389581708796,0.01727254680867648,0.9997016146098215,0.017272546808676573,700.0,134.9999999999996,[0.1948724]
-1.9749714674479336e-18,0.030155520172826477,-5.22617379411585e-18,0.030155520172826477,-9.639342990221453e-19,0.028068624057312707,-5.22617379411585e-18,0.028068624057312707,-1.665663614200827e-18,0.041197124333677684,3.742978872666779e-18,-0.041197124333677684,0.025328177018017813,0.9993582775450893,0.025328177018017702,700.0,134.9999999999996,[0.1948724]
-1.697687291230358e-18,0.029593169897560098,-5.566177363467216e-18,0.029593169897560098,-1.1415345001812552e-18,0.028769082001719695,-5.566177363467216e-18,0.028769082001719695,1.3264347770412987e-19,0.041272457932712586,4.9601814315369035e-18,-0.041272457932712586,0.009983508823045382,0.999900324583986,0.009983508823045382,700.0,134.9999999999996,[0.19119058]
-1.4236588979037908e-18,0.027509338361511034,-5.890857450745129e-18,0.027509338361511034,-1.353731633857972e-18,0.03023880080282657,-5.890857450745129e-18,0.03023880080282657,1.9030008604939557e-18,0.04087968653354777,6.286927032211486e-18,-0.04087968653354779,0.033384092109855316,0.9988848806484166,0.03338409210985512,700.0,134.9999999999996,[0.19739906]
-1.2028082917970329e-18,0.0232992142296759,-6.1854369137460294e-18,0.0232992142296759,-1.6062201406360819e-18,0.032800836223603615,-6.1854369137460294e-18,0.032800836223603615,3.640919114791596e-18,0.040233670484906045,4.92162248135213e-18,-0.04023367048490605,0.11808047686691554,0.9859584179699282,0.11808047686691575,700.0,134.9999999999996,[0.20498241]
-1.0058164696884481e-18,0.01552601005356556,-6.433373471462654e-18,0.01552601005356556,-1.938072594683168e-18,0.037194849776395415,-6.433373471462654e-18,0.037194849776395415,5.304225677836953e-18,0.040305258193839184,7.973713566160257e-18,-0.04030525819383919,0.26880909208692816,0.9249234260320166,0.2688090920869274,700.0,134.9999999999996,[0.18978165]
-9.51027748225692e-19,0.00038196417947414463,-6.594231614571873e-18,0.00038196417947414463,-2.4378776614593995e-18,0.045291542337446186,-6.594231614571873e-18,0.045291542337446186,6.84177126776614e-18,0.04529315294764852,0.0,-0.045293152947648505,0.4957656426555302,0.7130447777837648,0.49576564265553,700.0,134.9999999999996,[0.19875527]
-1.1626536361412587e-18,-0.03561758357698077,-6.509971010108175e-18,-0.03561758357698077,-3.4370431983573125e-18,0.0629474141142844,-6.509971010108175e-18,0.0629474141142844,7.997701373093413e-18,0.07232557779609101,-7.02770263746358e-18,-0.07232557779609104,0.6813979279166742,0.26719604724195567,0.6813979279166742,700.0,134.9999999999996,[0.19572036]
-2.8925680908318356e-18,-0.1783810317330098,-5.52087884639819e-18,-0.1783810317330098,-8.24995936789926e-18,0.10096781574101753,-5.52087884639819e-18,0.10096781574101753,7.269616325839991e-18,0.2049738819890112,-5.220793521824615e-18,-0.2049738819890113,0.6814254693410225,0.26705553629672996,0.6814254693410225,700.0,134.9999999999996,[0.4966509]
-2.4934124998346784e-18,-0.17160438846023843,-5.494661156550517e-18,-0.17160438846023843,-8.288121552254546e-18,0.09947341417001657,-5.494661156550517e-18,0.09947341417001657,7.393054162205806e-18,0.19835076572943217,-5.1894050553299225e-19,-0.19835076572943197,0.6257365921377921,0.46573322247781007,0.6257365921377919,700.0,122.14285714285755,[0.54550226]
-5.55577305987313e-19,-0.027342580059052022,-6.2783944434713215e-18,-0.027342580059052022,-3.5637362877015564e-18,0.061222874216420954,-6.2783944434713215e-18,0.061222874216420954,8.980782473453112e-18,0.0670511522019225,-3.2991294115505813e-18,-0.06705115220192244,0.7000924297624682,0.1405033080698347,0.7000924297624682,700.0,122.14285714285755,[0.09611465]
-9.097539172011337e-20,0.007432223516081496,-6.170857958847358e-18,0.007432223516081496,-2.633017969013755e-18,0.043957326378574205,-6.170857958847358e-18,0.043957326378574205,8.660889086509587e-18,0.04458121228438602,-1.1912191151509202e-19,-0.044581212284386,0.527628013051882,0.665745716986483,0.5276280130518818,700.0,122.14285714285755,[0.18950531]
1.2675508911609458e-19,0.02249139504350688,-5.829456745066461e-18,0.02249139504350688,-2.2000301093518107e-18,0.03599035687811335,-5.829456745066461e-18,0.03599035687811335,7.925071554890019e-18,0.04244017718173484,6.6777902759346125e-18,-0.04244017718173485,0.3083626232632655,0.8999027642742272,0.30836262326326513,700.0,122.14285714285755,[0.20008094]
2.0336773027014347e-19,0.03070811775048284,-5.3913576136149296e-18,0.03070811775048284,-1.9466555887400802e-18,0.031605131667124954,-5.3913576136149296e-18,0.031605131667124954,7.038256493448323e-18,0.04406668632282013,9.278398828813771e-18,-0.04406668632282013,0.16725249381384685,0.9716240047601226,0.16725249381384633,700.0,122.14285714285755,[0.20258407]
2.637099355704274e-19,0.035666371268048426,-4.9177161856032195e-18,0.035666371268048426,-1.7531089932698245e-18,0.02898200419745408,-4.9177161856032195e-18,0.02898200419745408,6.082665138084388e-18,0.04595700824391766,9.82717014866522e-18,-0.045957008243917685,0.08561089108745044,0.9926437178839272,0.08561089108745033,700.0,122.14285714285755,[0.19804336]
2.99633769188146e-19,0.03872566541770952,-4.4207427066977735e-18,0.03872566541770952,-1.6268522869351418e-18,0.02739889675279111,-4.4207427066977735e-18,0.02739889675279111,5.080945952463856e-18,0.04743813555900453,7.799646016798542e-18,-0.04743813555900455,0.03869583365908062,0.9985015097208706,0.038695833659080484,700.0,122.14285714285755,[0.19845376]
3.1655281803972904e-19,0.04047794501999258,-3.9026140577768896e-18,0.04047794501999258,-1.5179650551449711e-18,0.02653562540354469,-3.9026140577768896e-18,0.02653562540354469,4.0567044223717015e-18,0.04840044884707981,7.552017047914549e-18,-0.04840044884707976,0.013627618701687919,0.9998142707608463,0.013627618701687919,700.0,122.14285714285755,[0.19492092]
3.2152975699030747e-19,0.04116942795625514,-3.3733956633397976e-18,0.04116942795625514,-1.439469104681898e-18,0.026258821905226055,-3.3733956633397976e-18,0.026258821905226055,2.9955618998644616e-18,0.04883080509366663,5.62192476592755e-18,-0.04883080509366669,0.004786231832794812,0.9999770917224482,0.004786231832794812,700.0,122.14285714285755,[0.19096213]
3.037077371025462e-19,0.04083435690869203,-2.829236781146386e-18,0.04083435690869203,-1.3803777580265076e-18,0.026551964268647865,-2.829236781146386e-18,0.026551964268647865,1.911353342578604e-18,0.04870781775721425,7.81368350720045e-18,-0.04870781775721427,0.010989651518348999,0.9998792202656331,0.010989651518349085,700.0,122.14285714285755,[0.19224528]
2.766652383242329e-19,0.03930592225905913,-2.268272648827929e-18,0.03930592225905913,-1.3672801737449945e-18,0.02751011797731678,-2.268272648827929e-18,0.02751011797731678,7.989269404121779e-19,0.047976683042506046,1.4582700899505946e-18,-0.047976683042506,0.03509943395599324,0.9987672699242489,0.03509943395599343,700.0,122.14285714285755,[0.19845376]
2.1976110584244906e-19,0.036112854533928665,-1.6804553290003341e-18,0.036112854533928665,-1.3897315099309087e-18,0.029395296328432474,-1.6804553290003341e-18,0.029395296328432474,-3.67763569762887e-19,0.04656416764879459,2.1430973782776883e-18,-0.04656416764879461,0.08620147552027392,0.9925414909394242,0.08620147552027417,700.0,122.14285714285755,[0.19804336]
1.4060488430479963e-19,0.03012660498013012,-1.0581964735191925e-18,0.03012660498013012,-1.4924985163793304e-18,0.03281830964609123,-1.0581964735191925e-18,0.03281830964609123,-1.6212802561573169e-18,0.044549453146537354,8.562507833809363e-20,-0.0445494531465374,0.18665525641715985,0.9645307825589022,0.18665525641716005,700.0,122.14285714285755,[0.20342093]
-2.1573800953572084e-20,0.01832045827102982,-3.6798785526233676e-19,0.01832045827102982,-1.757111952898516e-18,0.03933043877256469,-3.6798785526233676e-19,0.03933043877256469,-3.042197386372618e-18,0.04338804680212057,-2.471080876535796e-18,-0.043388046802120564,0.383881625633281,0.8398034264054292,0.38388162563328065,700.0,122.14285714285755,[0.18314016]
-3.650165029485984e-19,-0.010349713112117518,5.303212749940442e-19,-0.010349713112117518,-2.5357397970681114e-18,0.05376784624262341,5.303212749940442e-19,0.05376784624262341,-4.944701188866612e-18,0.05475488883262871,6.498910083447435e-18,-0.05475488883262876,0.6590410769653867,0.3623944228939056,0.6590410769653867,700.0,122.14285714285755,[0.18585876]
-1.852871130433828e-18,-0.13754946806417886,2.1667382190403938e-18,-0.13754946806417886,-7.119571843792844e-18,0.08391422638468722,2.1667382190403938e-18,0.08391422638468722,-9.112147802014483e-18,0.16112558317808848,-1.181591397792309e-18,-0.1611255831780885,0.6329726451824963,0.4457479791332181,0.6329726451824961,700.0,122.14285714285755,[0.3446147]
-2.7055640610295224e-18,-0.1320926807988268,2.7188290976862893e-18,-0.1320926807988268,-6.955945569844284e-18,0.0796185045776976,2.7188290976862893e-18,0.0796185045776976,-1.0213307202906718e-17,0.1542322359035543,2.905325805345713e-18,-0.15423223590355423,0.5445602673168453,0.6378935887117941,0.5445602673168454,700.0,109.28571428571402,[0.35305553]
-3.400067488268459e-18,-0.003643020234566872,2.581604260772489e-18,-0.003643020234566872,-2.05462355468224e-18,0.04859906177735514,2.581604260772489e-18,0.04859906177735514,-7.787488232115905e-18,0.04873541219758631,-3.469446951953614e-18,-0.04873541219758632,0.6830165364945163,0.25879880554219986,0.6830165364945164,700.0,109.28571428571402,[0.14552379]
-5.21509014259431e-18,0.024092668982901723,3.156179727618689e-18,0.024092668982901723,-9.707097612689613e-19,0.035028763708381455,3.156179727618689e-18,0.035028763708381455,-7.632305452737595e-18,0.042514362110436216,-4.2279594921773886e-18,-0.04251436211043624,0.4175637055301688,0.8070198904908286,0.4175637055301686,700.0,109.28571428571402,[0.19567524]
-7.195080941999216e-18,0.035878144761866106,3.911989668575212e-18,0.035878144761866106,-3.8520405259310816e-19,0.02865429268761361,3.911989668575212e-18,0.02865429268761361,-7.992350845773994e-18,0.04591633435914552,-1.0378435777123589e-17,-0.04591633435914551,0.23402466387689905,0.9436444846416517,0.23402466387689927,700.0,109.28571428571402,[0.20876475]
-9.215243354262453e-18,0.04226722841619141,4.73520978882295e-18,0.04226722841619141,4.7276680729855744e-20,0.025030714546946782,4.73520978882295e-18,0.025030714546946782,-8.529837996108108e-18,0.049122858922473464,-1.664934428158495e-17,-0.04912285892247344,0.1391401176586985,0.9804489050000754,0.13914011765869838,700.0,109.28571428571402,[0.22307783]
-1.1304311359117429e-17,0.04610717354743085,5.595197893428214e-18,0.04610717354743085,3.856081109352947e-19,0.022749883035636347,5.595197893428214e-18,0.022749883035636347,-9.15495996925854e-18,0.05141428430570671,-1.3983375698513677e-17,-0.05141428430570674,0.08588824783301632,0.9925957977789088,0.08588824783301638,700.0,109.28571428571402,[0.21076141]
-1.3390136298983315e-17,0.04846453853742909,6.470376339571228e-18,0.04846453853742909,6.783554011911321e-19,0.02125038935525815,6.470376339571228e-18,0.02125038935525815,-9.833802890023195e-18,0.05291871638084217,-1.5796984026968185e-17,-0.05291871638084225,0.05413087087725015,0.9970655433000083,0.05413087087724988,700.0,109.28571428571402,[0.2111718]
-1.549169328352177e-17,0.04980025099077186,7.358439278899555e-18,0.04980025099077186,9.426112791970188e-19,0.020278415802089944,7.358439278899555e-18,0.020278415802089944,-1.0562840190182728e-17,0.053770616010850474,-1.5916540948624577e-17,-0.0537706160108504,0.03540725246056146,0.9987455396377939,0.03540725246056122,700.0,109.28571428571402,[0.2111718]
-1.7595982497322274e-17,0.05030417450654105,8.25883553609101e-18,0.05030417450654105,1.1838015198587227e-18,0.019720453892362377,8.25883553609101e-18,0.019720453892362377,-1.1314126399922647e-17,0.05403153037352656,-1.7997909902763627e-17,-0.05403153037352656,0.026165902043551188,0.9993151110337991,0.026165902043550928,700.0,109.28571428571402,[0.21093535]
-1.9711658472640032e-17,0.04999998793618934,9.168335161492858e-18,0.04999998793618934,1.39867020780709e-18,0.019546775382514713,9.168335161492858e-18,0.019546775382514713,-1.2094985970922562e-17,0.0536849627127892,-1.927600077117602e-17,-0.05368496271278919,0.025498884002347594,0.9993495954015638,0.025498884002347594,700.0,109.28571428571402,[0.21093535]
-2.18240913829687e-17,0.048752744982041685,1.0084988209289144e-17,0.048752744982041685,1.5877602384802458e-18,0.019801955323851348,1.0084988209289144e-17,0.019801955323851348,-1.2917628089023757e-17,0.052620790358296525,-2.108580923327586e-17,-0.052620790358296546,0.034786721129197375,0.9987891509553749,0.03478672112919711,700.0,109.28571428571402,[0.2111718]
-2.397559792729011e-17,0.04618499568873146,1.1017816573631102e-17,0.04618499568873146,1.7141720104836268e-18,0.020635073827286056,1.1017816573631102e-17,0.020635073827286056,-1.3801588511397442e-17,0.05058517666891844,-2.4217587456390708e-17,-0.05058517666891848,0.059033671803633204,0.996508931814844,0.059033671803632747,700.0,109.28571428571402,[0.2111718]
-2.610756977426547e-17,0.04138998639480422,1.1976798574637635e-17,0.04138998639480422,1.776820461570781e-18,0.02240711595278788,1.1976798574637635e-17,0.02240711595278788,-1.4778880846734128e-17,0.047066015542892047,-2.7589423206303944e-17,-0.04706601554289213,0.11236929552829762,0.9872923998719668,0.1123692955282972,700.0,109.28571428571402,[0.21875516]
-2.833180788000562e-17,0.0319060974548586,1.2976883443622632e-17,0.0319060974548586,1.6712488265540774e-18,0.0260426966706971,1.2976883443622632e-17,0.0260426966706971,-1.5962101449927116e-17,0.04118520492459482,-3.325504317676873e-17,-0.04118520492459486,0.24110961621227378,0.9400703728657446,0.24110961621227348,700.0,109.28571428571402,[0.21676268]
-3.064612052608002e-17,0.008445326221080057,1.4098269938885652e-17,0.008445326221080057,1.0550574038739104e-18,0.03439978302033807,1.4098269938885652e-17,0.03439978302033807,-1.7697992788606575e-17,0.03542130159701646,-3.67618476005528e-17,-0.03542130159701647,0.5924959257221654,0.54579955661879,0.5924959257221659,700.0,109.28571428571402,[0.20257715]
-3.3834619356991544e-17,-0.10814627797234443,1.563447889057107e-17,-0.10814627797234443,-3.360366371542021e-18,0.050698755805890526,1.563447889057107e-17,0.050698755805890526,-2.194653563324717e-17,0.11944028331989542,-1.389896984828977e-17,-0.11944028331989553,0.4947614039809902,0.7144384551950705,0.49476140398099006,700.0,109.28571428571402,[0.34472446]
-3.3261179757760396e-17,-0.10509242326295039,1.4997208671526047e-17,-0.10509242326295039,-3.3783231879422988e-18,0.04445156418781028,1.4997208671526047e-17,0.04445156418781028,-2.1402311174371994e-17,0.1141067876422001,-1.1603943204636687e-17,-0.11410678764220006,0.3466456370744877,0.8715925680009238,0.3466456370744878,700.0,96.42857142857196,[0.32280186]
-2.914826962768724e-17,0.01224961874965894,1.2739009329646975e-17,0.01224961874965894,9.99561580312328e-19,0.02680758780930547,1.2739009329646975e-17,0.02680758780930547,-1.5791020233326143e-17,0.029473715810287942,-3.975961819425826e-17,-0.02947371581028798,0.6061951730185016,0.5148347544777245,0.6061951730185012,700.0,96.42857142857196,[0.1973134]
-2.590954356280089e-17,0.03524762929723827,1.0877047880100035e-17,0.03524762929723827,1.5863580235547135e-18,0.019620725562267884,1.0877047880100035e-17,0.019620725562267884,-1.2711641530783665e-17,0.04034065248189921,-2.462510579137354e-17,-0.04034065248189921,0.27258178825985174,0.9227124890333518,0.27258178825985135,700.0,96.42857142857196,[0.19360318]
-2.2779879865812363e-17,0.04477545312807835,9.10422011110171e-18,0.04477545312807835,1.6679645608618981e-18,0.016101558062896024,9.10422011110171e-18,0.016101558062896024,-1.0199584586737193e-17,0.04758257427753941,-1.748473197004512e-17,-0.04758257427753943,0.1632744969580407,0.9729762984195439,0.1632744969580405,700.0,96.42857142857196,[0.20061693]
-1.9683322987166722e-17,0.049849090722894514,7.362194305679917e-18,0.049849090722894514,1.5658896864819203e-18,0.01395742698641237,7.362194305679917e-18,0.01395742698641237,-7.892099334342437e-18,0.051766220781320316,-1.2593921486659872e-17,-0.0517662207813203,0.1132155316692799,0.9870990258214647,0.11321553166927974,700.0,96.42857142857196,[0.20994004]
-1.661063761042117e-17,0.05283056768132846,5.631825053517627e-18,0.05283056768132846,1.4081941278887169e-18,0.012470588256635195,5.631825053517627e-18,0.012470588256635195,-5.691784132022631e-18,0.05428245069078918,-8.612106706647705e-18,-0.054282450690789186,0.08437259293152824,0.9928557453749367,0.08437259293152809,700.0,96.42857142857196,[0.20194629]
-1.354121649516791e-17,0.05459221040185392,3.913808129832269e-18,0.05459221040185392,1.1859243496538693e-18,0.01135149693637655,3.913808129832269e-18,0.01135149693637655,-3.544372752118817e-18,0.05575989525866107,-5.535272180885895e-18,-0.05575989525866108,0.06553346160848703,0.9956961036477032,0.06553346160848691,700.0,96.42857142857196,[0.20235669]
-1.0481562728587672e-17,0.05550569641976772,2.2009283111747696e-18,0.05550569641976772,9.357078430621529e-19,0.01046297428030242,2.2009283111747696e-18,0.01046297428030242,-1.4449862895077016e-18,0.056483237919171106,-2.580483547959482e-18,-0.05648323791917108,0.052360447248445866,0.9972546149945287,0.05236044724844578,700.0,96.42857142857196,[0.20235669]
-7.421906842357115e-18,0.0557187304792268,4.959325981203445e-19,0.0557187304792268,6.624284811672983e-19,0.009733854360664698,4.959325981203445e-19,0.009733854360664698,6.202155125729823e-19,0.056562574613708554,2.8898402247314046e-19,-0.0565625746137086,0.042931172416115625,0.998155212815099,0.042931172416115625,700.0,96.42857142857196,[0.20235669]
-4.367143109064351e-18,0.0552397422221387,-1.2110905935843785e-18,0.0552397422221387,3.6825612350591963e-19,0.009127091799287957,-1.2110905935843785e-18,0.009127091799287957,2.6509597491445774e-18,0.05598868569167309,2.8266085652708903e-18,-0.05598868569167309,0.036433635646781364,0.9986717080137575,0.036433635646781364,700.0,96.42857142857196,[0.20235669]
-1.3205167133487881e-18,0.05394058536237265,-2.909059235275136e-18,0.05394058536237265,3.257114296365758e-20,0.008627943677206564,-2.909059235275136e-18,0.008627943677206564,4.642906436177565e-18,0.054626258899291846,5.42056372713632e-18,-0.05462625889929183,0.03280464397928382,0.9989232756657465,0.032804643979283905,700.0,96.42857142857196,[0.20235669]
1.6989696796737566e-18,0.051479338366757464,-4.609436594597906e-18,0.051479338366757464,-3.3675851719010097e-19,0.008243030863954516,-4.609436594597906e-18,0.008243030863954516,6.566753527652868e-18,0.05213511135984285,7.847105942059358e-18,-0.05213511135984282,0.032921975970632886,0.9989155554882396,0.03292197597063297,700.0,96.42857142857196,[0.20235669]
4.7407081617521666e-18,0.04704068347208326,-6.3083393065693745e-18,0.04704068347208326,-7.96980372788926e-19,0.00801201665104754,-6.3083393065693745e-18,0.00801201665104754,8.405677358983286e-18,0.04771811304250611,1.0387104190245711e-17,-0.0477181130425061,0.039931971416415885,0.9984041643130286,0.039931971416416016,700.0,96.42857142857196,[0.20235669]
7.729264617310128e-18,0.038400235776100015,-7.997644573088754e-18,0.038400235776100015,-1.4178225732267324e-18,0.008049719547120655,-7.997644573088754e-18,0.008049719547120655,1.0009373526001224e-17,0.03923488361709984,1.3130013909265531e-17,-0.03923488361709983,0.06667643511969183,0.9955443264864999,0.06667643511969215,700.0,96.42857142857196,[0.20235669]
1.0617423835477056e-17,0.01699390158141581,-9.66604220500659e-18,0.01699390158141581,-2.5378868041247167e-18,0.008669855331040704,-9.66604220500659e-18,0.008669855331040704,1.1027841658535185e-17,0.01907771166623559,1.9224533170596193e-17,-0.01907771166623559,0.24880052331003524,0.9360537373470099,0.24880052331003566,700.0,96.42857142857196,[0.1986687]
1.2746989879339594e-17,-0.09604933380238014,-1.1324656226559103e-17,-0.09604933380238014,-7.469389195407051e-18,0.00789165026672312,-1.1324656226559103e-17,0.00789165026672312,9.445751617138194e-18,0.09637298723093164,7.625133649874561e-18,-0.0963729872309316,0.1364434048357564,0.9812066013606167,0.13644340483575618,700.0,96.42857142857196,[0.32746795]
1.365335871498022e-17,-0.0960083308619687,-1.2210675624262054e-17,-0.0960083308619687,-7.562518350569164e-18,0.0009301984443495455,-1.2210675624262054e-17,0.0009301984443495455,9.91884485058598e-18,0.09601283697530826,9.682615575757963e-18,-0.09601283697530826,0.07235955746344644,0.994750314846589,0.0723595574634466,700.0,83.57142857142804,[0.32068677]
1.333706661392981e-17,0.017128250285752714,-1.1701890360830725e-17,0.017128250285752714,-2.8102180861750277e-18,0.00015759491080466438,-1.1701890360830725e-17,0.00015759491080466438,1.2450376611856974e-17,0.01712897527604321,1.2665765612610751e-17,-0.0171289752760432,0.08563230932737917,0.9926400229683064,0.08563230932738009,700.0,83.57142857142804,[0.19760763]
1.2245364032938767e-17,0.03862606810929101,-1.1216167422789956e-17,0.03862606810929101,-1.869082613513077e-18,0.0007787454958435666,-1.1216167422789956e-17,0.0007787454958435666,1.2371584970174307e-17,0.03863391750950046,1.2823555728738887e-17,-0.038633917509500446,0.09331831490249728,0.9912534409562052,0.09331831490249767,700.0,83.57142857142804,[0.20052676]
1.1064116824193388e-17,0.047357208855255586,-1.074373989202069e-17,0.047357208855255586,-1.4187562129534732e-18,0.0008128611387579679,-1.074373989202069e-17,0.0008128611387579679,1.17015958287949e-17,0.0473641845046571,1.2070086608363883e-17,-0.047364184504657084,0.09121819776878302,0.9916443318002833,0.09121819776878332,700.0,83.57142857142804,[0.1987338]
9.844891840670534e-18,0.051885985170781405,-1.0277977038649503e-17,0.051885985170781405,-1.1506177317136088e-18,0.0005736480608575504,-1.0277977038649503e-17,0.0005736480608575504,1.0824323963004925e-17,0.051889156181617324,1.1051436000086318e-17,-0.05188915618161731,0.08693409746411786,0.9924136866227704,0.0869340974641181,700.0,83.57142857142804,[0.19760763]
8.618610541233507e-18,0.05443680531467998,-9.81791286516274e-18,0.05443680531467998,-9.5397061773826e-19,0.00017592100771359238,-9.81791286516274e-18,0.00017592100771359238,9.837440739884324e-18,0.05443708957199427,9.900883812144294e-18,-0.05443708957199428,0.08144117224802884,0.9933451922296365,0.08144117224802912,700.0,83.57142857142804,[0.19760763]
7.384187664918639e-18,0.05582496006532878,-9.357000930906716e-18,0.05582496006532878,-8.115864194682448e-19,-0.00034065469974121264,-9.357000930906716e-18,-0.00034065469974121264,8.796021563601586e-18,0.05582599942607396,8.681775874957799e-18,-0.05582599942607395,0.07488167504829778,0.9943769252571794,0.074881675048298,700.0,83.57142857142804,[0.19662367]
6.134034863581521e-18,0.05639232752153927,-8.895971157340736e-18,0.05639232752153927,-6.793762777763418e-19,-0.0009694504114646695,-8.895971157340736e-18,-0.0009694504114646695,7.706310394085873e-18,0.05640065990213984,7.400052923379362e-18,-0.056400659902139834,0.06708136597186691,0.9954899199282214,0.06708136597186713,700.0,83.57142857142804,[0.19801802]
4.8952751827126136e-18,0.05626700501871054,-8.444149674675969e-18,0.05626700501871054,-6.008865537860827e-19,-0.0017251956161712786,-8.444149674675969e-18,-0.0017251956161712786,6.583091792316862e-18,0.056293446809461384,6.0639037589472225e-18,-0.056293446809461384,0.05759958206531775,0.9966767662044709,0.057599582065317956,700.0,83.57142857142804,[0.19801802]
3.635891304233345e-18,0.05544051328077557,-7.998772889449541e-18,0.05544051328077557,-5.248387994422251e-19,-0.002644916818887371,-7.998772889449541e-18,-0.002644916818887371,5.42555234248438e-18,0.05550356833406917,4.662360969371601e-18,-0.05550356833406917,0.04559694356405524,0.9979187529429601,0.045596943564055435,700.0,83.57142857142804,[0.19801802]
2.3808463499584356e-18,0.053765100713499034,-7.550852523839515e-18,0.053765100713499034,-4.898950391410626e-19,-0.003799756053040239,-7.550852523839515e-18,-0.003799756053040239,4.225959030309702e-18,0.05389920408313386,3.157759980951705e-18,-0.053899204083133846,0.02943808171659372,0.9991330235207393,0.029438081716593928,700.0,83.57142857142804,[0.20705841]
1.1057325464569175e-18,0.050869050463231334,-7.120670253212402e-18,0.050869050463231334,-4.941565961087534e-19,-0.005326864083912378,-7.120670253212402e-18,-0.005326864083912378,2.9658618894978657e-18,0.05114719714705049,1.4593826103424846e-18,-0.05114719714705048,0.005559791124768963,0.9999690882448806,0.005559791124769184,700.0,83.57142857142804,[0.18338896]
-1.872923022457879e-19,0.04588001501453249,-6.6984241852188794e-18,0.04588001501453249,-5.840181115858817e-19,-0.007515756177178344,-6.6984241852188794e-18,-0.007515756177178344,1.603073519736536e-18,0.04649153007428903,-5.819096733267175e-19,-0.04649153007428901,0.03546165758094895,0.9987416791559384,0.03546165758094878,700.0,83.57142857142804,[0.19801802]
-1.5003944787763804e-18,0.036435998887547796,-6.3148922055326254e-18,0.036435998887547796,-8.411456055667279e-19,-0.011084152606957458,-6.3148922055326254e-18,-0.011084152606957458,4.141054847017695e-20,0.03808464853386078,-3.58494723350509e-18,-0.038084648533860774,0.12875868173012414,0.9832814468697357,0.12875868173012397,700.0,83.57142857142804,[0.20827277]
-2.9350437635876453e-18,0.013521224550528968,-6.021657428822801e-18,0.013521224550528968,-1.6095669360126913e-18,-0.018324726142736253,-6.021657428822801e-18,-0.018324726142736253,-2.0958482363150113e-18,0.022773210172307917,-8.879890125702662e-18,-0.022773210172307913,0.5183975838270424,0.6800940303844533,0.5183975838270424,700.0,83.57142857142804,[0.19621719]
-5.228681340444016e-18,-0.10373709645337241,-6.114284226859152e-18,-0.10373709645337241,-6.1683979721732394e-18,-0.03602709514183814,-6.114284226859152e-18,-0.03602709514183814,-6.764341501413859e-18,0.10981501156460965,-3.069912623216918e-18,-0.10981501156460956,0.3053113998435238,0.9019810963934756,0.30531139984352385,700.0,83.57142857142804,[0.32389636]
-6.493235046052953e-18,-0.10672277537657791,-5.108089134632354e-18,-0.10672277537657791,-6.067711932426151e-18,-0.042323753193399975,-5.108089134632354e-18,-0.042323753193399975,-7.875442062305333e-18,0.11480875780381629,-3.667056601989666e-18,-0.11480875780381627,0.4631379853087802,0.7556496629578079,0.4631379853087802,700.0,70.71428571428592,[0.32777286]
-6.463356455146925e-18,0.009943001098452826,-2.4514199086345353e-18,0.009943001098452826,-1.2943494976743524e-18,-0.02607034094645634,-2.4514199086345353e-18,-0.02607034094645634,-5.6996517440966556e-18,0.027902077842130526,-7.677441415480001e-18,-0.027902077842130543,0.5403868987879564,0.6449527108530286,0.5403868987879562,700.0,70.71428571428592,[0.19083048]
-7.288667742913159e-18,0.03347488950121195,-2.0057124910777763e-19,0.03347488950121195,-3.189926680358109e-19,-0.017762780215123397,-2.0057124910777763e-19,-0.017762780215123397,-6.041395016447889e-18,0.03789570672370592,-7.076281848202828e-18,-0.03789570672370594,0.10654334095445887,0.9885833465098045,0.10654334095445905,700.0,70.71428571428592,[0.19442976]
-8.26536869581066e-18,0.04302784536578386,1.9199950906928145e-18,0.04302784536578386,1.4385006894421e-19,-0.014180905578379015,1.9199950906928145e-18,-0.014180905578379015,-6.9326867793647224e-18,0.045304454083949716,-5.767874634813455e-18,-0.045304454083949744,0.012893300851212782,0.9998337489734582,0.012893300851212755,700.0,70.71428571428592,[0.18189783]
-9.27027795516229e-18,0.047890088871859596,3.9950477026778614e-18,0.047890088871859596,4.300675114340229e-19,-0.012466779567795103,3.9950477026778614e-18,-0.012466779567795103,-8.036149180329276e-18,0.04948617185584879,-6.229067942775642e-18,-0.04948617185584885,0.05786904610140223,0.9966455473269459,0.05786904610140212,700.0,70.71428571428592,[0.18722926]
-1.0290389346606573e-17,0.05052327822612856,6.050734593190777e-18,0.05052327822612856,6.50898245819034e-19,-0.011695769876626102,6.050734593190777e-18,-0.011695769876626102,-9.226701124065413e-18,0.0518593547561266,-6.5757175345915764e-18,-0.05185935475612662,0.07700195117661761,0.9940530162068761,0.07700195117661743,700.0,70.71428571428592,[0.1858349]
-1.1312671259978196e-17,0.0518341611273171,8.088598867664279e-18,0.0518341611273171,8.228930317077843e-19,-0.01150685796630644,8.088598867664279e-18,-0.01150685796630644,-1.0483048603461758e-17,0.05309602659361078,-7.078022033093991e-18,-0.05309602659361075,0.08334904736299252,0.9930286363480982,0.08334904736299234,700.0,70.71428571428592,[0.18681886]
-1.2381068285704498e-17,0.0522001683549538,1.0120002447963436e-17,0.0522001683549538,9.559543454811784e-19,-0.011750921370022621,1.0120002447963436e-17,-0.011750921370022621,-1.1775072977213581e-17,0.05350646436955047,-7.499751494747501e-18,-0.05350646436955049,0.0812628383828716,0.9933744018223535,0.08126283838287134,700.0,70.71428571428592,[0.1858349]
-1.341908224374869e-17,0.05175622385404864,1.2139178692915447e-17,0.05175622385404864,1.080334366414086e-18,-0.01238333627160427,1.2139178692915447e-17,-0.01238333627160427,-1.3095853587027169e-17,0.053217043556045285,-7.616439070641642e-18,-0.053217043556045306,0.07182505140932187,0.9948277860916916,0.07182505140932163,700.0,70.71428571428592,[0.18722926]
-1.4476092507957737e-17,0.05047862760564912,1.414678999324521e-17,0.05047862760564912,1.1720216956853175e-18,-0.01343377701752958,1.414678999324521e-17,-0.01343377701752958,-1.4450823096671825e-17,0.052235602895979935,-7.399378161600867e-18,-0.052235602895979956,0.05404076615460581,0.9970753187131084,0.05404076615460542,700.0,70.71428571428592,[0.18722926]
-1.5562392100283946e-17,0.048177499081182885,1.615019524495003e-17,0.048177499081182885,1.2255894985639453e-18,-0.015015694248859417,1.615019524495003e-17,-0.015015694248859417,-1.584866041438143e-17,0.050463278643907095,-6.6648036287499775e-18,-0.05046327864390707,0.024366775352780767,0.9994060838907346,0.02436677535278051,700.0,70.71428571428592,[0.18290401]
-1.6651413323620608e-17,0.04439190211496897,1.8132284630649552e-17,0.04439190211496897,1.2338479211656584e-18,-0.01738284581329898,1.8132284630649552e-17,-0.01738284581329898,-1.7292213290360458e-17,0.04767393734477897,-5.1461727125333135e-18,-0.04767393734477901,0.025891922006351934,0.9993293835115797,0.025891922006352163,700.0,70.71428571428592,[0.19196131]
-1.775915105927993e-17,0.038055287433095185,2.0072150184546866e-17,0.038055287433095185,1.17251504429722e-18,-0.02109658317451726,2.0072150184546866e-17,-0.02109658317451726,-1.883086215828103e-17,0.04351173086944273,-1.5926082759235308e-18,-0.04351173086944275,0.11934448493038297,0.9856539899140079,0.11934448493038366,700.0,70.71428571428592,[0.19442976]
-1.8957241009465384e-17,0.026320457138219386,2.1955954498159832e-17,0.026320457138219386,9.57414784551429e-19,-0.02756501181420766,2.1955954498159832e-17,-0.02756501181420766,-2.054694907411126e-17,0.03811294190012429,3.0512710536197597e-18,-0.03811294190012435,0.32143062892988333,0.890710223120561,0.32143062892988367,700.0,70.71428571428592,[0.17958689]
-2.03010187654222e-17,-0.0013661835771122592,2.3650719387751018e-17,-0.0013661835771122592,1.9724194084630546e-19,-0.041233101666470456,2.3650719387751018e-17,-0.041233101666470456,-2.277704377368465e-17,0.04125572845804399,-1.3877787807814457e-17,-0.041255728458044,0.6747940148928713,0.2988412202650749,0.674794014892871,700.0,70.71428571428592,[0.14638652]
-2.2760720346572892e-17,-0.1297674331574099,2.463799534233241e-17,-0.1297674331574099,-4.335364251646741e-18,-0.07235455361638742,2.463799534233241e-17,-0.07235455361638742,-2.7285643866482308e-17,0.14857579929884124,-5.040936793666449e-17,-0.14857579929884107,0.529006417918819,0.6635543833035845,0.529006417918819,700.0,70.71428571428592,[0.33791029]
-2.274475514036516e-17,-0.13519348802294037,2.4909244476655462e-17,-0.13519348802294037,-4.315340444989426e-18,-0.07673899736646307,2.4909244476655462e-17,-0.07673899736646307,-2.7329613892713483e-17,0.15545466516196593,-4.469923509862879e-17,-0.15545466516196582,0.6227267205125534,0.47373290271983504,0.6227267205125533,700.0,57.857142857142705,[0.33411506]
-1.9714570872179255e-17,-0.007962291841902168,2.484892048710011e-17,-0.007962291841902168,2.746097074267357e-19,-0.046677078334549656,2.484892048710011e-17,-0.046677078334549656,-2.3389993654874392e-17,0.04735132240207559,-2.528963440835045e-17,-0.04735132240207562,0.6534590207623058,0.38207671529253956,0.6534590207623058,700.0,57.857142857142705,[0.18712413]
-1.7835297377363653e-17,0.020735704989665486,2.4061437538763814e-17,0.020735704989665486,1.0627550464879266e-18,-0.03232703063344327,2.4061437538763814e-17,-0.03232703063344327,-2.1707447025877416e-17,0.03840581168253076,1.1519013973036265e-18,-0.03840581168253082,0.3008434841770306,0.9049786716030658,0.30084348417703055,700.0,57.857142857142705,[0.18503518]
-1.6159518791837374e-17,0.032566932000582687,2.3064533536278842e-17,0.032566932000582687,1.334520183185669e-18,-0.0259055216637163,2.3064533536278842e-17,-0.0259055216637163,-2.050797718333386e-17,0.041613713035486846,1.66984329770079e-18,-0.04161371303548689,0.07830291570752113,0.9938497405460252,0.07830291570752125,700.0,57.857142857142705,[0.17790326]
-1.4549381537410548e-17,0.03857573598960214,2.199737557864253e-17,0.03857573598960214,1.4325084379884011e-18,-0.022576430906882973,2.199737557864253e-17,-0.022576430906882973,-1.9473670493698765e-17,0.044696561832346174,8.63829206127078e-20,-0.04469656183234618,0.022267169193725674,0.9995040501929926,0.022267169193725157,700.0,57.857142857142705,[0.17497237]
-1.2969368753326832e-17,0.04178890441887706,2.0893318350807024e-17,0.04178890441887706,1.4807103460827916e-18,-0.02078844281427616,2.0893318350807024e-17,-0.02078844281427616,-1.8530523605361595e-17,0.04667410296055483,-1.0414748986770358e-18,-0.04667410296055483,0.07015846069643064,0.9950656163215644,0.07015846069643006,700.0,57.857142857142705,[0.17929762]
-1.1422185113394118e-17,0.043335022354313364,1.9766165810522852e-17,0.043335022354313364,1.4560651718160218e-18,-0.019930689444089624,1.9766165810522852e-17,-0.019930689444089624,-1.763784347148538e-17,0.04769860107136879,-1.796827738111324e-18,-0.04769860107136882,0.09161266732230514,0.9915716002247067,0.0916126673223047,700.0,57.857142857142705,[0.17919936]
-9.874738636821766e-18,0.043685385575404266,1.862422592721796e-17,0.043685385575404266,1.4140537024802192e-18,-0.019741089640784346,1.862422592721796e-17,-0.019741089640784346,-1.6773246584694435e-17,0.04793874772120382,-1.5985544645278429e-18,-0.04793874772120379,0.09627122505597906,0.9906884992026717,0.09627122505597854,700.0,57.857142857142705,[0.18099232]
-8.353041672332731e-18,0.043006828174021794,1.746546449897619e-17,0.043006828174021794,1.3417269942725373e-18,-0.020124504048898133,1.746546449897619e-17,-0.020124504048898133,-1.5936525219257433e-17,0.04748244868163341,-1.5514078918682579e-18,-0.04748244868163342,0.08698554630586626,0.9924046702166108,0.08698554630586594,700.0,57.857142857142705,[0.17888722]
-6.834346132696346e-18,0.04126513357223928,1.6291254926726545e-17,0.04126513357223928,1.2563082658654313e-18,-0.02109737682248545,1.6291254926726545e-17,-0.02109737682248545,-1.5130596014014235e-17,0.04634555596305534,3.0208289064859087e-19,-0.046345555963055375,0.06241315703652097,0.9960969810502737,0.062413157036520416,700.0,57.857142857142705,[0.17929762]
-5.349827834814271e-18,0.038214113949625504,1.51013930616476e-17,0.038214113949625504,1.1209664733043652e-18,-0.022792996117965113,1.51013930616476e-17,-0.022792996117965113,-1.4355196132325202e-17,0.04449538377167383,5.0309463186982455e-18,-0.04449538377167385,0.016396297517088845,0.9997311252809239,0.016396297517088498,700.0,57.857142857142705,[0.17497237]
-3.887286071446507e-18,0.03326186164767688,1.388570550955198e-17,0.03326186164767688,9.564614718201588e-19,-0.0255314660969307,1.388570550955198e-17,-0.0255314660969307,-1.3617644726744148e-17,0.04193098140191711,4.847361826801949e-18,-0.041930981401917145,0.06613448600617983,0.995616622762696,0.06613448600618019,700.0,57.857142857142705,[0.17929762]
-2.450247940724977e-18,0.025048918250602976,1.2632762321047167e-17,0.025048918250602976,6.908915430942235e-19,-0.03003479090928883,1.2632762321047167e-17,-0.03003479090928883,-1.2952867275588223e-17,0.03910929519296007,4.886663694342663e-18,-0.03910929519296007,0.21885008084542748,0.9508991977217667,0.21885008084542765,700.0,57.857142857142705,[0.19325434]
-1.1263652226685574e-18,0.009991392195589121,1.129042049570378e-17,0.009991392195589121,2.777568582388615e-19,-0.03812256785052614,1.129042049570378e-17,-0.03812256785052614,-1.2441588541631634e-17,0.03941012683973559,6.986673850344822e-18,-0.03941012683973563,0.4837872233874542,0.7293146405867054,0.483787223387454,700.0,57.857142857142705,[0.18488005]
-6.53700158585344e-20,-0.024783678420991932,9.704725194069325e-18,-0.024783678420991932,-6.345936306038644e-19,-0.05551168332340857,9.704725194069325e-18,-0.05551168332340857,-1.234162583255613e-17,0.06079290831563775,-1.2859703715805552e-18,-0.06079290831563776,0.7000801252253727,0.14062587432209167,0.7000801252253728,700.0,57.857142857142705,[0.10056106]
-4.647121360838223e-19,-0.16904687429642948,7.22899693685163e-18,-0.16904687429642948,-5.368145852876835e-18,-0.09388905425720413,7.22899693685163e-18,-0.09388905425720413,-1.4150768576895225e-17,0.19337011200985815,-1.9366548255350248e-17,-0.19337011200985815,0.619587445708566,0.4818950033364838,0.6195874457085659,700.0,57.857142857142705,[0.54172878]
-6.193957378118511e-19,-0.1758419801801721,6.727695396949714e-18,-0.1758419801801721,-5.323843041545472e-18,-0.09549229497229164,6.727695396949714e-18,-0.09549229497229164,-1.3883938516054248e-17,0.20009792700765097,-1.0857676333402732e-17,-0.20009792700765097,0.6780037135069595,0.28394000940611774,0.6780037135069593,700.0,45.00000000000011,[0.4532171]
1.4584889919565612e-19,-0.03310020323516276,8.345568580174455e-18,-0.03310020323516276,-5.233141084716596e-19,-0.05757397611252403,8.345568580174455e-18,-0.05757397611252403,-1.214861471374788e-17,0.06641073843599823,-8.818714559593045e-18,-0.06641073843599819,0.6826770902048619,0.2605839231780155,0.6826770902048616,700.0,45.00000000000011,[0.14006533]
-5.973852888924275e-19,0.002874415872191278,9.06204907184028e-18,0.002874415872191278,4.766584852854663e-19,-0.04002178312281809,9.06204907184028e-18,-0.04002178312281809,-1.2295977043271779e-17,0.04012487247252247,-3.469446951953614e-18,-0.040124872472522506,0.4628970132685832,0.7559449121556744,0.4628970132685831,700.0,45.00000000000011,[0.18197875]
-1.6421354956525218e-18,0.017990955364528965,9.527886742243846e-18,0.017990955364528965,9.903726974593534e-19,-0.032030796156580256,9.527886742243846e-18,-0.032030796156580256,-1.28162367356328e-17,0.03673753363187122,3.994310113658941e-18,-0.03673753363187125,0.19108306143708156,0.9627951637101554,0.19108306143708126,700.0,45.00000000000011,[0.19268634]
-2.819507983613549e-18,0.025734282796230516,9.902596936016862e-18,0.025734282796230516,1.3054756746804301e-18,-0.027744564790573915,9.902596936016862e-18,-0.027744564790573915,-1.3480870050566987e-17,0.03784196330074221,2.103387109662204e-18,-0.037841963300742215,0.02656154463190921,0.9992942352948575,0.02656154463190963,700.0,45.00000000000011,[0.17975092]
-4.014482047829092e-18,0.029912260144042954,1.0234763363267549e-17,0.029912260144042954,1.5718224552485236e-18,-0.02529234850833568,1.0234763363267549e-17,-0.02529234850833568,-1.4204048107330378e-17,0.03917200786265635,-5.106213083673649e-19,-0.03917200786265636,0.058969553614731614,0.99651652444551,0.05896955361473118,700.0,45.00000000000011,[0.17501887]
-5.248118533875364e-18,0.0319617487125404,1.054678542874899e-17,0.0319617487125404,1.7772759214332194e-18,-0.02393442127474442,1.054678542874899e-17,-0.02393442127474442,-1.4970717149352702e-17,0.0399300626410793,4.2237083693322045e-19,-0.03993006264107934,0.10051734090616687,0.9898446991090608,0.10051734090616628,700.0,45.00000000000011,[0.17671357]
-6.523266251781997e-18,0.03248762583743996,1.0838206082861005e-17,0.03248762583743996,1.9502436268186968e-18,-0.023347653078491227,1.0838206082861005e-17,-0.023347653078491227,-1.5761762170051197e-17,0.04000698360070496,-1.9243051761623207e-18,-0.04000698360070498,0.11422971611870733,0.9868653119402258,0.11422971611870728,700.0,45.00000000000011,[0.18178819]
-7.813675451990233e-18,0.03170739381624608,1.111250049230269e-17,0.03170739381624608,2.1133634368190007e-18,-0.0234052339424542,1.111250049230269e-17,-0.0234052339424542,-1.6570188323370963e-17,0.039410199168737135,-4.092300353555467e-18,-0.039410199168737156,0.10533009283010193,0.9888433359682434,0.10533009283010218,700.0,45.00000000000011,[0.18178819]
-9.101371499789295e-18,0.029583100759569204,1.1374102965542789e-17,0.029583100759569204,2.2429207036576952e-18,-0.0241071221899858,1.1374102965542789e-17,-0.0241071221899858,-1.7399285306608123e-17,0.0381616717510348,-3.2804589465887183e-18,-0.03816167175103485,0.07174710014420164,0.9948390358453955,0.07174710014420166,700.0,45.00000000000011,[0.17501887]
-1.043095183790498e-17,0.02580921910577536,1.1613220718104438e-17,0.02580921910577536,2.333344986294695e-18,-0.025580045385286684,1.1613220718104438e-17,-0.025580045385286684,-1.8250519917783887e-17,0.03633805873685667,-4.1454107087200606e-18,-0.03633805873685672,0.0031533566796749847,0.999990056292212,0.0031533566796750497,700.0,45.00000000000011,[0.16038981]
-1.1801229462158273e-17,0.019647051091780676,1.1824675444256691e-17,0.019647051091780676,2.369540135153331e-18,-0.02814705461964235,1.1824675444256691e-17,-0.02814705461964235,-1.9138195557255368e-17,0.03432584012612319,-4.416048916679437e-18,-0.034325840126123185,0.12381348128159793,0.9845508842644257,0.12381348128159796,700.0,45.00000000000011,[0.18406063]
-1.3230518151311102e-17,0.009403528617613968,1.1994779502060299e-17,0.009403528617613968,2.353100127273993e-18,-0.03254780609288952,1.1994779502060299e-17,-0.03254780609288952,-2.006871356898796e-17,0.03387899101098823,-1.1434214319069892e-17,-0.03387899101098824,0.3415727089949207,0.8755890411258825,0.3415727089949207,700.0,45.00000000000011,[0.17483745]
-1.4789868584078702e-17,-0.009347521389613204,1.207615499748264e-17,-0.009347521389613204,2.158109255067174e-18,-0.04065299664178504,1.207615499748264e-17,-0.04065299664178504,-2.1118686594135714e-17,0.041713814163730725,-1.9625805080154614e-17,-0.04171381416373074,0.5993280527541963,0.530671056647832,0.5993280527541963,700.0,45.00000000000011,[0.17724249]
-1.6745237525370354e-17,-0.05212060682512279,1.1910235659322635e-17,-0.05212060682512279,1.442735750780795e-18,-0.05831913190636417,1.1910235659322635e-17,-0.05831913190636417,-2.2458356467773015e-17,0.07821559180963185,-2.6826250001357574e-17,-0.07821559180963181,0.7059956728339105,0.0560376648299012,0.7059956728339104,700.0,45.00000000000011,[0.09391355]
-2.0573020773043165e-17,-0.21382001868746492,1.0845957644080028e-17,-0.21382001868746492,-3.050965319919921e-18,-0.09635161446802644,1.0845957644080028e-17,-0.09635161446802644,-2.5309269190522755e-17,0.23452640363529023,-3.111044678828997e-17,-0.2345264036352901,0.6612723095303081,0.35417208429929214,0.6612723095303081,700.0,45.00000000000011,[0.56400901]
-2.114915868713125e-17,-0.22063891783603753,1.0074140501343813e-17,-0.22063891783603753,-3.0594439211985897e-18,-0.09485496521491127,1.0074140501343813e-17,-0.09485496521491127,-2.81983356190265e-17,0.24016451963139715,-3.399165635627222e-17,-0.24016451963139718,0.6986322455914868,0.1543566352302103,0.6986322455914872,700.0,32.14285714285738,[0.29602894]
-1.787811431382093e-17,-0.060511016087515565,9.461394106584757e-18,-0.060511016087515565,1.4444060352326927e-18,-0.05658784410070583,9.461394106584757e-18,-0.05658784410070583,-3.172190665282068e-17,0.08284785554200744,-3.4727193216881316e-17,-0.08284785554200756,0.6942601858802598,0.18975138630063837,0.69426018588026,700.0,32.14285714285738,[0.11213479]
-1.6512923850334836e-17,-0.016588010313195106,7.94741478890963e-18,-0.016588010313195106,2.138998487785055e-18,-0.03930752943713285,7.94741478890963e-18,-0.03930752943713285,-3.672414574961466e-17,0.042664317135068866,-2.3774727122664e-17,-0.042664317135068894,0.5793899513034679,0.5732491331499164,0.5793899513034676,700.0,32.14285714285738,[0.11768885]
-1.5570103388146895e-17,0.0021726777474999127,6.207242286497025e-18,0.0021726777474999127,2.346775090720106e-18,-0.03132755954644259,6.207242286497025e-18,-0.03132755954644259,-4.198749185138651e-17,0.03140281063424715,-2.0816681711721685e-17,-0.0314028106342472,0.3338778206189641,0.8815050775789447,0.3338778206189642,700.0,32.14285714285738,[0.11910571]
-1.477135131888609e-17,0.011897440771550107,4.373183052650242e-18,0.011897440771550107,2.3641562233413766e-18,-0.026931098988217904,4.373183052650242e-18,-0.026931098988217904,-4.735464994721438e-17,0.029442031003749276,-1.4672277277813933e-17,-0.029442031003749303,0.10217654626750401,0.9895048796169169,0.1021765462675043,700.0,32.14285714285738,[0.1311903]
-1.403242426024757e-17,0.017236444577897855,2.49677744471715e-18,0.017236444577897855,2.319609652223252e-18,-0.024298509275031147,2.49677744471715e-18,-0.024298509275031147,-5.2762624029597766e-17,0.029791149267453878,-2.189132890474897e-17,-0.029791149267453926,0.039565320410318995,0.9984333582376229,0.039565320410318475,700.0,32.14285714285738,[0.12442099]
-1.3352101293647208e-17,0.019960193379653025,5.926097167222175e-19,0.019960193379653025,2.2338401216882412e-18,-0.02270772199236388,5.926097167222175e-19,-0.02270772199236388,-5.819655958909642e-17,0.03023325913353753,-2.981119611487021e-17,-0.030233259133537537,0.11272125863763136,0.987212153340049,0.11272125863763015,700.0,32.14285714285738,[0.1311903]
-1.2695654068247576e-17,0.020820391205238407,-1.3229585505170447e-18,0.020820391205238407,2.0834466922072188e-18,-0.021838561829093408,-1.3229585505170447e-18,-0.021838561829093408,-6.364794411002659e-17,0.030173025580844608,-3.894827102979251e-17,-0.030173025580844653,0.14085208471162144,0.9799598871712966,0.14085208471162056,700.0,32.14285714285738,[0.13558722]
-1.2057520621609866e-17,0.02009391761521907,-3.25500285969108e-18,0.02009391761521907,1.945008090529119e-18,-0.021557667871969794,-3.25500285969108e-18,-0.021557667871969794,-6.911867679907467e-17,0.029470299781396318,-4.039862057265928e-17,-0.02947029978139637,0.13303730840482933,0.9821416135898104,0.13303730840482816,700.0,32.14285714285738,[0.13545506]
-1.1468223918337288e-17,0.017746593437864527,-5.1978446675934986e-18,0.017746593437864527,1.7728755273695904e-18,-0.021848523964623986,-5.1978446675934986e-18,-0.021848523964623986,-7.459334355911606e-17,0.028147816577518133,-4.243484711081971e-17,-0.028147816577518157,0.08547121100657894,0.9926677914479436,0.08547121100657716,700.0,32.14285714285738,[0.12401059]
-1.0884489177503517e-17,0.013422259423435097,-7.166103202479046e-18,0.013422259423435097,1.564471507939918e-18,-0.022806199892871724,-7.166103202479046e-18,-0.022806199892871724,-8.008771458852907e-17,0.02646280033525578,-3.225701858238676e-17,-0.02646280033525583,0.02053967972533968,0.9995780325285069,0.02053967972534156,700.0,32.14285714285738,[0.12159888]
-1.0382013351324505e-17,0.006248670856874918,-9.142416408579329e-18,0.006248670856874918,1.289798740916172e-18,-0.024692711877520337,-9.142416408579329e-18,-0.024692711877520337,-8.560701270570137e-17,0.025471079822885198,-2.2719272581858048e-17,-0.025471079822885278,0.2178255711508242,0.9513695607415834,0.21782557115082612,700.0,32.14285714285738,[0.13349702]
-9.946959362513465e-18,-0.005775486228946762,-1.1165317409055576e-17,-0.005775486228946762,9.651361407533965e-19,-0.02811887233172976,-1.1165317409055576e-17,-0.02811887233172976,-9.11518144555199e-17,0.028705874353324768,-1.184954688002353e-17,-0.028705874353324872,0.48897108545508045,0.7223673270419698,0.4889710854550812,700.0,32.14285714285738,[0.12136386]
-9.67903556210754e-18,-0.027857440448983316,-1.3260104230473015e-17,-0.027857440448983316,4.668996152137188e-19,-0.0346359652155318,-1.3260104230473015e-17,-0.0346359652155318,-9.677621331414257e-17,0.04444870160961033,-2.984406897653533e-17,-0.04444870160961042,0.6683907481663334,0.3263550452058284,0.6683907481663333,700.0,32.14285714285738,[0.10512973]
-9.904905500171269e-18,-0.07795224359659923,-1.5563309908872362e-17,-0.07795224359659923,-5.436139995831117e-19,-0.04908016536507028,-1.5563309908872362e-17,-0.04908016536507028,-1.0259243204809386e-16,0.09211631187800653,-6.560996567372424e-17,-0.09211631187800676,0.7071064853003025,0.0009148182909675782,0.7071064853003026,700.0,32.14285714285738,[0.07783072]
-1.2383505883572115e-17,-0.2552070394923047,-1.8595872424716933e-17,-0.2552070394923047,-5.3536601625922296e-18,-0.07923522558922906,-1.8595872424716933e-17,-0.07923522558922906,-1.0953593169365178e-16,0.26722435139897494,-8.921770422234121e-17,-0.26722435139897494,0.6833481112574973,0.25704224882618437,0.6833481112574972,700.0,32.14285714285738,[0.47432088]
-1.2308758534699372e-17,-0.2606985189508572,-1.8864078138615375e-17,-0.2606985189508572,-5.395137480047476e-18,-0.0749338917519976,-1.8864078138615375e-17,-0.0749338917519976,-1.0873212637802889e-16,0.2712541352980089,-9.126292552604958e-17,-0.2712541352980089,0.7059700743849684,0.05667899210258119,0.7059700743849683,700.0,19.285714285714306,[0.1695355]
-9.24086144802595e-18,-0.08475169381478306,-1.675399168119058e-17,-0.08475169381478306,-6.75032319402474e-19,-0.043894544582798956,-1.675399168119058e-17,-0.043894544582798956,-1.0066734867056961e-16,0.0954441231747982,-6.944032479646547e-17,-0.09544412317479832,0.700061481012783,0.14081138307813562,0.7000614810127833,700.0,19.285714285714306,[0.11848305]
-8.42596612193056e-18,-0.03378223273942733,-1.53598001620308e-17,-0.03378223273942733,2.4106359155510375e-19,-0.030306243641001204,-1.53598001620308e-17,-0.030306243641001204,-9.370339863872752e-17,0.04538400216473373,-3.9824896915727063e-17,-0.04538400216473382,0.6527619241484998,0.3844525208187563,0.6527619241484999,700.0,19.285714285714306,[0.14265666]
-8.155193511495001e-18,-0.011739962838683457,-1.4151298489475142e-17,-0.011739962838683457,6.468833631572944e-19,-0.023915630030012954,-1.4151298489475142e-17,-0.023915630030012954,-8.692004281412109e-17,0.026641773349124567,-1.2905279856749034e-17,-0.026641773349124633,0.5037531620423447,0.701758864186751,0.503753162042344,700.0,19.285714285714306,[0.12772378]
-8.02631877205924e-18,-0.00017915107192866987,-1.3002248769085509e-17,-0.00017915107192866987,8.905244495011134e-19,-0.020277774455980467,-1.3002248769085509e-17,-0.020277774455980467,-8.018376018381383e-17,0.02027856582685732,-6.938893903907228e-18,-0.020278565826857407,0.2394298307771718,0.9409286435580698,0.239429830777173,700.0,19.285714285714306,[0.14450399]
-8.015466162422544e-18,0.006287071658244293,-1.1892022563950895e-17,0.006287071658244293,1.065319293462144e-18,-0.0179845445423782,-1.1892022563950895e-17,-0.0179845445423782,-7.347833966216092e-17,0.01905180076613976,-2.2276147965665214e-17,-0.01905180076613981,0.00020993580300189592,0.9999999559269577,0.00020993580300436007,700.0,19.285714285714306,[0.11977586]
-8.045853469405292e-18,0.009722137157457513,-1.0797846351036803e-17,0.009722137157457513,1.1768976862894218e-18,-0.016474546121211235,-1.0797846351036803e-17,-0.016474546121211235,-6.679448870216094e-17,0.019129313129548894,-3.3838972465336594e-17,-0.01912931312954893,0.13807617131793154,0.9807496835729101,0.13807617131792943,700.0,19.285714285714306,[0.14159432]
-8.136744075112618e-18,0.011008741812349721,-9.719775241251542e-18,0.011008741812349721,1.278980045684591e-18,-0.015493974923990385,-9.719775241251542e-18,-0.015493974923990385,-6.012386436015568e-17,0.01900672657866734,-3.576760224826247e-17,-0.019006726578667373,0.19619481567736485,0.9607367946543165,0.19619481567736308,700.0,19.285714285714306,[0.1195982]
-8.224650213169854e-18,0.010480093727353708,-8.649678255968868e-18,0.010480093727353708,1.3289698788236206e-18,-0.014929334077538374,-8.649678255968868e-18,-0.014929334077538374,-5.34566314586619e-17,0.018240542221460047,-3.121262991310719e-17,-0.018240542221460074,0.19232187339360265,0.9623017167337647,0.19232187339360085,700.0,19.285714285714306,[0.12870139]
-8.36139309459222e-18,0.008112551017084926,-7.581662767300107e-18,0.008112551017084926,1.3757039290716416e-18,-0.014750904892127091,-7.581662767300107e-18,-0.014750904892127091,-4.680228603111168e-17,0.016834567982023898,-2.35549488474122e-17,-0.016834567982023926,0.11699532675006032,0.9862171094831471,0.11699532675005872,700.0,19.285714285714306,[0.1371974]
-8.554298230884486e-18,0.003518063898734746,-6.5273275017944794e-18,0.003518063898734746,1.3682427599464133e-18,-0.01500326986833772,-6.5273275017944794e-18,-0.01500326986833772,-4.0146244883305736e-17,0.01541021999640988,-1.2094774111831947e-17,-0.01541021999640991,0.07500566092814194,0.9943582360786605,0.07500566092814348,700.0,19.285714285714306,[0.12903373]
-8.78084645705051e-18,-0.004269459652588711,-5.4906658806542344e-18,-0.004269459652588711,1.3238827180564195e-18,-0.015835514600062557,-5.4906658806542344e-18,-0.015835514600062557,-3.351394381908006e-17,0.016400969738825714,-8.67127419687352e-18,-0.01640096973882575,0.3992334884067359,0.825363703750763,0.3992334884067362,700.0,19.285714285714306,[0.12374265]
-9.103711593742207e-18,-0.017473156957242237,-4.475412727742628e-18,-0.017473156957242237,1.2194263503032232e-18,-0.017608628197890212,-4.475412727742628e-18,-0.017608628197890212,-2.6896022462623014e-17,0.02480675313425676,-1.1623608561060891e-17,-0.02480675313425676,0.635891712954832,0.4373596446755681,0.6358917129548322,700.0,19.285714285714306,[0.13429646]
-9.640373140276811e-18,-0.04186538093017181,-3.505935543134553e-18,-0.04186538093017181,9.255919443896865e-19,-0.02124723011031431,-3.505935543134553e-18,-0.02124723011031431,-2.0324496012362833e-17,0.046948428171654885,-1.716675249457367e-17,-0.04694842817165495,0.7008581613244914,0.1326486916999434,0.7008581613244913,700.0,19.285714285714306,[0.07140072]
-1.0724006212500879e-17,-0.09715733710209327,-2.6608224820819886e-18,-0.09715733710209327,1.3497933235640306e-19,-0.029609300434866422,-2.6608224820819886e-18,-0.029609300434866422,-1.3871669980004016e-17,0.10156898554682911,-1.2290663791724481e-17,-0.10156898554682904,0.7065187658221022,0.04077336241257689,0.7065187658221023,700.0,19.285714285714306,[0.09648851]
-1.4337925221520555e-17,-0.28500780653216773,-2.2295414708399563e-18,-0.28500780653216773,-4.4558102015863465e-18,-0.04591527861265515,-2.2295414708399563e-18,-0.04591527861265515,-8.29587046391067e-18,0.2886826329974759,-7.309589860020876e-18,-0.2886826329974759,0.6960753981310822,0.17594908420708094,0.6960753981310822,700.0,19.285714285714306,[0.32468771]
-1.4373196202839816e-17,-0.28808550717011383,-1.6636117926913892e-18,-0.28808550717011383,-4.476701475136986e-18,-0.039660673414316804,-1.6636117926913892e-18,-0.039660673414316804,-4.69171880356402e-18,0.29080273117207617,-4.498832485102424e-18,-0.2908027311720763,0.7068926604603861,0.024607583678101872,0.7068926604603861,700.0,6.428571428571418,[0.18349267]
-1.0580751765296495e-17,-0.10102189848427691,-1.5191109910990412e-18,-0.10102189848427691,1.1123924877613116e-19,-0.021994892858241265,-1.5191109910990412e-18,-0.021994892858241265,-3.3316155008451287e-18,0.10338858392111315,-2.925610088435303e-18,-0.10338858392111318,0.7034187281935703,0.10200091006005998,0.7034187281935702,700.0,6.428571428571418,[0.12242205]
-9.3251048303308e-18,-0.045305471564483245,-1.763294707924695e-18,-0.045305471564483245,8.74855994338134e-19,-0.014788303052875974,-1.763294707924695e-18,-0.014788303052875974,-2.8223567936431815e-18,0.04765794436254989,-2.5589082225408043e-18,-0.04765794436254992,0.6925429655821752,0.2019120641400414,0.6925429655821752,700.0,6.428571428571418,[0.07391127]
-8.644646206109978e-18,-0.020996159931368417,-2.0986657815024288e-18,-0.020996159931368417,1.1311132393846117e-18,-0.011251446880811415,-2.0986657815024288e-18,-0.011251446880811415,-2.4383100701246116e-18,0.023820868766174768,-2.08389545733242e-18,-0.023820868766174813,0.6567334666967098,0.3706781723288316,0.6567334666967101,700.0,6.428571428571418,[0.14331702]
-8.161705077277019e-18,-0.008110428779481664,-2.470961163648764e-18,-0.008110428779481664,1.2239030517783602e-18,-0.009091673851727941,-2.470961163648764e-18,-0.009091673851727941,-2.0789530335295245e-18,0.01218349655941339,-3.2781172396079247e-18,-0.012183496559413387,0.526833534341072,0.6670028891896854,0.5268335343410726,700.0,6.428571428571418,[0.12838415]
-7.76287167312845e-18,-0.0007761995305927018,-2.852727143423372e-18,-0.0007761995305927018,1.2491353691836777e-18,-0.00759125620326356,-2.852727143423372e-18,-0.00759125620326356,-1.7304486065711332e-18,0.0076308358948990514,-7.265569334328776e-18,-0.007630835894899055,0.1502339991297369,0.9771691209872384,0.15023399912973784,700.0,6.428571428571418,[0.13250309]
-7.443804949809596e-18,0.0032641736717616836,-3.251950563230759e-18,0.0032641736717616836,1.2236317365374428e-18,-0.006460665548095553,-3.251950563230759e-18,-0.006460665548095553,-1.4048703174702614e-18,0.007238441067230635,-9.139965155429528e-18,-0.007238441067230635,0.24620080918123316,0.937427502859294,0.2462008091812336,700.0,6.428571428571418,[0.14052574]
-7.164892882146516e-18,0.004982619988322762,-3.652784917281092e-18,0.004982619988322762,1.1707252645585511e-18,-0.00556273797854179,-3.652784917281092e-18,-0.00556273797854179,-1.0801059740921418e-18,0.0074679686505732396,-8.141576455166574e-18,-0.007467968650573241,0.4098416133897803,0.814898585020322,0.4098416133897809,700.0,6.428571428571418,[0.12440302]
-6.921251795802698e-18,0.004754489739784117,-4.058282502034694e-18,0.004754489739784117,1.0765788759602157e-18,-0.004826320068646955,-4.058282502034694e-18,-0.004826320068646955,-7.640237184233789e-19,0.006774845982805569,-8.437365411708774e-18,-0.00677484598280557,0.43671679117297224,0.7864838768946029,0.43671679117297246,700.0,6.428571428571418,[0.1302078]
-6.706370124996123e-18,0.0025713743155948206,-4.463983573218983e-18,0.0025713743155948206,9.707659320024324e-19,-0.004214376381785011,-4.463983573218983e-18,-0.004214376381785011,-4.446856798636073e-19,0.004936895194172957,-9.25518047467866e-18,-0.0049368951941729565,0.2983956009580807,0.9065981086775615,0.2983956009580808,700.0,6.428571428571418,[0.13194532]
-6.528929957436148e-18,-0.0019615912875984185,-4.877281471148959e-18,-0.0019615912875984185,8.280541152798838e-19,-0.0037121713423109593,-4.877281471148959e-18,-0.0037121713423109593,-1.451536538908053e-19,0.004198577908561036,-1.4045346361462263e-18,-0.004198577908561039,0.3982845512814848,0.8262801174063255,0.39828455128148677,700.0,6.428571428571418,[0.12440302]
-6.426915426851208e-18,-0.009846041971841772,-5.29068111229428e-18,-0.009846041971841772,6.4464501241972595e-19,-0.003326330714391315,-5.29068111229428e-18,-0.003326330714391315,1.5953336165942713e-19,0.010392738740715697,2.6830529617926174e-18,-0.010392738740715696,0.691037728520528,0.21197574276878337,0.6910377285205285,700.0,6.428571428571418,[0.09552784]
-6.4182333391418514e-18,-0.023396564634838708,-5.707641765976641e-18,-0.023396564634838708,3.760429239115068e-19,-0.0030965207837381627,-5.707641765976641e-18,-0.0030965207837381627,4.441430493817725e-19,0.02360058638416231,1.8117824746294016e-18,-0.023600586384162313,0.7069739290206373,0.019383688251869275,0.7069739290206375,700.0,6.428571428571418,[0.05036583]
-6.62443292223907e-18,-0.04862275981274958,-6.130249168110595e-18,-0.04862275981274958,-6.077461396549605e-20,-0.0031375630270185123,-6.130249168110595e-18,-0.0031375630270185123,6.934817557848567e-19,0.04872388606789126,1.449651514686439e-18,-0.04872388606789127,0.7063004598440424,0.04774223338081637,0.7063004598440427,700.0,6.428571428571418,[0.04834159]
-7.419929208608866e-18,-0.10595975405733656,-6.574070030643779e-18,-0.10595975405733656,-1.000881923744263e-18,-0.003763184334414491,-6.574070030643779e-18,-0.003763184334414491,8.576274765398796e-19,0.1060265581645751,1.3131645707210006e-18,-0.1060265581645751,0.7050279155468661,0.07662425594602361,0.7050279155468661,700.0,6.428571428571418,[0.11029586]
-1.0841757027059027e-17,-0.2973492756383513,-7.02942179091595e-18,-0.2973492756383513,-5.7307205186571766e-18,-0.002992667241579117,-7.02942179091595e-18,-0.002992667241579117,2.501526521258364e-19,0.2973643350838682,3.9048593155916103e-19,-0.2973643350838683,0.7034218306244883,0.10195811101519722,0.7034218306244883,700.0,6.428571428571418,[0.19867129]
-1.0702843623709322e-17,-0.29740668856834557,-7.024063314907832e-18,-0.29740668856834557,-5.7307205186571766e-18,0.003975297296159122,-7.024063314907832e-18,0.003975297296159122,7.800313176375052e-19,0.2974332553595541,5.900541835975097e-19,-0.2974332553595542,0.7036560257779981,0.09867317149370895,0.7036560257779984,700.0,6.428571428571418,[0.19867129]
-7.017297391087455e-18,-0.10613186455711845,-7.185292396822993e-18,-0.10613186455711845,-9.71851192966102e-19,0.0047684797922386045,-7.185292396822993e-18,0.0047684797922386045,2.4499766254840595e-18,0.10623893388913283,1.787320027705592e-18,-0.10623893388913282,0.7055060316592284,0.06724937609298683,0.7055060316592284,700.0,6.428571428571418,[0.10998603]
-5.958082690545952e-18,-0.04890931721304903,-7.32890294528108e-18,-0.04890931721304903,-1.3023131564034869e-20,0.004165508118084689,-7.32890294528108e-18,0.004165508118084689,3.3512858558116397e-18,0.04908638067864121,2.0438852762558422e-18,-0.049086380678641225,0.7068445165238162,0.027233415511545442,0.7068445165238162,700.0,6.428571428571418,[0.05036583]
-5.488164693277027e-18,-0.023797223270004424,-7.450893060478563e-18,-0.023797223270004424,4.254222977584724e-19,0.004147205745070366,-7.450893060478563e-18,0.004147205745070366,4.162247110913727e-18,0.02415589267351518,1.3518645801120866e-18,-0.024155892673515186,0.7058199081606978,0.060303519698672516,0.7058199081606977,700.0,6.428571428571418,[0.06460065]
-5.241810454524034e-18,-0.010360361933587787,-7.570814396964051e-18,-0.010360361933587787,7.124738226490742e-19,0.004399855962282382,-7.570814396964051e-18,0.004399855962282382,4.940650537105728e-18,0.011255924301618534,-2.0561859596748986e-18,-0.011255924301618528,0.6777016847880073,0.28537843799241663,0.6777016847880077,700.0,6.428571428571418,[0.10923124]
-5.085532875755616e-18,-0.0025890393218846817,-7.690803562259768e-18,-0.0025890393218846817,9.192160362281277e-19,0.004808625735377661,-7.690803562259768e-18,0.004808625735377661,5.704131625047272e-18,0.005461319078135014,-8.98959710535264e-18,-0.005461319078135006,0.4028182461430898,0.8218728132432718,0.40281824614308964,700.0,6.428571428571418,[0.12440302]
-4.975921518424989e-18,0.0018314237727745227,-7.79936357303184e-18,0.0018314237727745227,1.083633072224068e-18,0.005333831908435393,-7.79936357303184e-18,0.005333831908435393,6.4562174728702864e-18,0.005639492518208286,1.3513656632691127e-19,-0.005639492518208289,0.1533090871607603,0.9762134231754181,0.15330908716076302,700.0,6.428571428571418,[0.13250309]
-4.924914253132519e-18,0.0039027533986117683,-7.91131502431538e-18,0.0039027533986117683,1.2089807135279036e-18,0.005968830405630511,-7.91131502431538e-18,0.005968830405630511,7.201791754911282e-18,0.007131508991900308,5.640041127389424e-18,-0.0071315089919003136,0.31827119519894825,0.8929764233244148,0.3182711951989501,700.0,6.428571428571418,[0.12362668]
-4.903209033859128e-18,0.004019904425557625,-8.013906099787269e-18,0.004019904425557625,1.3109952441128433e-18,0.006728338326790855,-8.013906099787269e-18,0.006728338326790855,7.948451297915948e-18,0.007837739995073869,5.68499412269639e-18,-0.00783773999507387,0.29242363581239633,0.9104816496978492,0.2924236358123978,700.0,6.428571428571418,[0.13194532]
-4.9292552969871974e-18,0.0021913739429561046,-8.120126016606428e-18,0.0021913739429561046,1.3733977495238438e-18,0.007649373051458969,-8.120126016606428e-18,0.007649373051458969,8.686428753211257e-18,0.007957074075202124,4.0920577687499497e-19,-0.007957074075202117,0.11740307063387061,0.9861201945054549,0.11740307063387273,700.0,6.428571428571418,[0.13785777]
-4.985688867098015e-18,-0.0019581013420700783,-8.214136747584305e-18,-0.0019581013420700783,1.4244050148163137e-18,0.008803070787742036,-8.214136747584305e-18,0.008803070787742036,9.418979903688218e-18,0.009018215796919806,-7.928194536637023e-18,-0.009018215796919794,0.2298489307247184,0.9456949498064414,0.22984893072471754,700.0,6.428571428571418,[0.14016449]
-5.0887886586466246e-18,-0.009400365024866233,-8.30668915914225e-18,-0.009400365024866233,1.4195213404798006e-18,0.010326579622051687,-8.30668915914225e-18,0.010326579622051687,1.0139593183564814e-17,0.013964422984545468,-5.9633450634686454e-18,-0.013964422984545451,0.5315529699514467,0.6594716675275689,0.5315529699514469,700.0,6.428571428571418,[0.12838415]
-5.309096634271548e-18,-0.022392978699943892,-8.379808616569488e-18,-0.022392978699943892,1.3446383339866e-18,0.012509414733452188,-8.379808616569488e-18,0.012509414733452188,1.0844470179468201e-17,0.02565016475638416,3.9381791898938606e-19,-0.025650164756384153,0.6520443758653639,0.3868801672413515,0.6520443758653638,700.0,6.428571428571418,[0.13404598]
-5.743201019739377e-18,-0.046807937229540894,-8.417317948626318e-18,-0.046807937229540894,1.096113573306268e-18,0.016069297017701094,-8.417317948626318e-18,0.016069297017701094,1.1515704085497832e-17,0.049489446292393886,4.722197513861722e-18,-0.04948944629239382,0.6902949525482832,0.21676198230484794,0.690294952548283,700.0,6.428571428571418,[0.09797553]
-6.737300062460706e-18,-0.10262868869715873,-8.363597530924674e-18,-0.10262868869715873,3.4619824741059357e-19,0.023298892393335657,-8.363597530924674e-18,0.023298892393335657,1.2069729807451148e-17,0.1052401355493927,7.436647163590417e-18,-0.10524013554939274,0.7027521658651652,0.1108096870478321,0.7027521658651656,700.0,6.428571428571418,[0.12037677]
-1.0264398194386815e-17,-0.2897951934585104,-7.928645285328978e-18,-0.2897951934585104,-4.214068321928949e-18,0.040987767862598855,-7.928645285328978e-18,0.040987767862598855,1.1772368303405686e-17,0.2926794343065698,8.868204499515322e-18,-0.2926794343065698,0.706823536287901,0.028301538808562825,0.706823536287901,700.0,6.428571428571418,[0.18349267]
-1.0058198611289596e-17,-0.2868188904745496,-7.034186764834562e-18,-0.2868188904745496,-4.2032157122922536e-18,0.04728389102422212,-7.034186764834562e-18,0.04728389102422212,1.1094622831594038e-17,0.29069028584292633,8.100941689535094e-18,-0.29069028584292644,0.6965257625427493,0.1723476841401799,0.6965257625427493,700.0,19.28571428571425,[0.31956893]
-6.381334466377086e-18,-0.09906699282913285,-6.2598191528512085e-18,-0.09906699282913285,3.765855543933416e-19,0.03104264129904253,-6.2598191528512085e-18,0.03104264129904253,1.0317575981606624e-17,0.10381673587157558,5.8642844745789415e-18,-0.10381673587157554,0.7067231912304772,0.03293420644284607,0.7067231912304772,700.0,19.28571428571425,[0.09648851]
-5.22661680103266e-18,-0.043871965555509866,-5.075324639816099e-18,-0.043871965555509866,1.1503766214897466e-18,0.022744373049223814,-5.075324639816099e-18,0.022744373049223814,8.672862991165387e-18,0.04941716166582314,8.02181946585202e-19,-0.04941716166582315,0.7000216491545248,0.14120687458462577,0.700021649154525,700.0,19.28571428571425,[0.07140072]
-4.631893792941735e-18,-0.019574877600036778,-3.762531932232178e-18,-0.019574877600036778,1.4151802966251223e-18,0.019168965577124386,-3.762531932232178e-18,0.019168965577124386,6.899546576529307e-18,0.027397537742530828,-2.0522691504967807e-18,-0.02739753774253083,0.640260367217382,0.42442116387066026,0.640260367217382,700.0,19.28571428571425,[0.13429646]
-4.2260061925293146e-18,-0.0064644402510061405,-2.407787105521405e-18,-0.0064644402510061405,1.5117685223917142e-18,0.01745848281744734,-2.407787105521405e-18,0.01745848281744734,5.080649201419103e-18,0.018616863593149423,-3.6373807602961464e-18,-0.018616863593149416,0.4507653110627101,0.7704682139355756,0.4507653110627104,700.0,19.28571428571425,[0.12954743]
-3.935156254265869e-18,0.0012317643495489143,-1.0220784269409344e-18,0.0012317643495489143,1.5410705684107927e-18,0.016688287604143454,-1.0220784269409344e-18,0.016688287604143454,3.2481860642630303e-18,0.016733684190023062,-5.204170427930421e-18,-0.01673368419002306,0.1837798252227572,0.9656344814070102,0.18377982522275682,700.0,19.28571428571425,[0.14265515]
-3.6855462326218676e-18,0.005736930989290972,3.6953135812948937e-19,0.005736930989290972,1.5085127395007055e-18,0.0164973584760973,3.6953135812948937e-19,0.0164973584760973,1.403242426024757e-18,0.017466402430516326,-1.933959005516297e-18,-0.017466402430516326,0.0013658657316233946,0.9999981344090628,0.001365865731623016,700.0,19.28571428571425,[0.11974091]
-3.4750056056699705e-18,0.008017204220127024,1.778844462669773e-18,0.008017204220127024,1.456420213244566e-18,0.01673657387372694,1.778844462669773e-18,0.01673657387372694,-4.558096047412204e-19,0.018557706446054742,-2.6406431050969195e-18,-0.018557706446054742,0.07771383816759955,0.9939422109531921,0.07771383816759997,700.0,19.28571428571425,[0.12903373]
-3.312216461119535e-18,0.008460682304490392,3.1949743626381066e-18,0.008460682304490392,1.3815372067513655e-18,0.017361315273524452,3.1949743626381066e-18,0.017361315273524452,-2.3181174183982065e-18,0.0193131668320923,-5.770964208014592e-18,-0.019313166832092304,0.08244509247484852,0.9931795474402538,0.08244509247484859,700.0,19.28571428571425,[0.13001769]
-3.1667914919878124e-18,0.007091052033386858,4.618972404593044e-18,0.007091052033386858,1.2730111103844083e-18,0.018401266846310542,4.618972404593044e-18,0.018401266846310542,-4.2010451903649144e-18,0.01972028500020543,-4.065448014861985e-18,-0.019720285000205437,0.022072480153257048,0.9995126868828469,0.022072480153257076,700.0,19.28571428571425,[0.12760598]
-3.0712885271848896e-18,0.0035751470981502075,6.052873452841466e-18,0.0035751470981502075,1.1373534899257118e-18,0.01996989353797657,6.052873452841466e-18,0.01996989353797657,-6.076376135585935e-18,0.020287393245351417,-7.469001078485675e-18,-0.020287393245351414,0.11227035961369311,0.9873149106057417,0.11227035961369358,700.0,19.28571428571425,[0.1371974]
-3.030048610565446e-18,-0.0029696894773379055,7.513499052320252e-18,-0.0029696894773379055,9.485180822472062e-19,0.022320971734064016,7.513499052320252e-18,0.022320971734064016,-7.983179648753374e-18,0.02251765606684443,-1.0145380715314852e-18,-0.022517656066844444,0.31952463558276045,0.8920807219704995,0.31952463558276106,700.0,19.28571428571425,[0.12296631]
-3.060435917548194e-18,-0.014606850814833242,9.00359626984369e-18,-0.014606850814833242,6.934817557848567e-19,0.02601587501301137,9.00359626984369e-18,0.02601587501301137,-9.909517859266865e-18,0.02983598236055625,3.1423269271706504e-18,-0.02983598236055627,0.530393483260613,0.6613361519147031,0.5303934832606132,700.0,19.28571428571425,[0.12772378]
-3.294852285700822e-18,-0.03672316306988664,1.0555892506347439e-17,-0.03672316306988664,2.5720684838968864e-19,0.032462732559040836,1.0555892506347439e-17,0.032462732559040836,-1.190097172760053e-17,0.04901448470663847,-5.740321858721096e-19,-0.049014484706638474,0.6547336972331075,0.37768713429892076,0.6547336972331073,700.0,19.28571428571425,[0.14265666]
-4.017636087504757e-18,-0.08776429102470859,1.2295023200627929e-17,-0.08776429102470859,-6.782881022934827e-19,0.046106531305161604,1.2295023200627929e-17,0.046106531305161604,-1.405955578433931e-17,0.0991382015575408,-2.240255472213304e-18,-0.09913820155754081,0.6994683462640326,0.1465880798336565,0.6994683462640325,700.0,19.28571428571425,[0.12071384]
-7.023808956869472e-18,-0.2637802191085696,1.4748662581864373e-17,-0.2637802191085696,-5.402429077147131e-18,0.07720094528671448,1.4748662581864373e-17,0.07720094528671448,-1.732727654594839e-17,0.27484539280498627,-9.373736076044026e-18,-0.2748453928049865,0.7061554182651932,0.05185605566778131,0.7061554182651931,700.0,19.28571428571425,[0.1714947]
-6.266296804228111e-18,-0.2583540018595198,1.5353797312325504e-17,-0.2583540018595198,-5.523978305078123e-18,0.08156936411296475,1.5353797312325504e-17,0.08156936411296475,-1.7526964563263593e-17,0.27092499227391775,-8.655946292919566e-18,-0.2709249922739174,0.6842097827117966,0.25241621675904974,0.6842097827117971,700.0,32.142857142857125,[0.47432088]
-2.248660716723354e-18,-0.08115642184332883,1.3728042474343371e-17,-0.08115642184332883,-1.004951652358024e-18,0.05150222192191511,1.3728042474343371e-17,0.05150222192191511,-1.4166996619742597e-17,0.09611890380828597,6.83057618941193e-18,-0.09611890380828601,0.7070996935851644,0.0044773500570551555,0.7070996935851647,700.0,32.142857142857125,[0.07595735]
-4.449569951045246e-19,-0.031117005677139056,1.2836907565550194e-17,-0.031117005677139056,-2.8867941633610623e-19,0.03714397501374032,1.2836907565550194e-17,0.03714397501374032,-1.1935700078437956e-17,0.0484555767908346,6.488703886833746e-18,-0.0484555767908346,0.6728679427779553,0.3074043967862611,0.672867942777955,700.0,32.142857142857125,[0.10356361]
8.595266832263014e-19,-0.009088333634131937,1.214505370121084e-17,-0.009088333634131937,-7.813878938420921e-20,0.03071138175295699,1.214505370121084e-17,0.03071138175295699,-9.906262076375856e-18,0.03202790622911765,6.350325759629557e-18,-0.03202790622911767,0.5306352579251717,0.6609481417580149,0.5306352579251721,700.0,32.142857142857125,[0.12171668]
1.9795159977333e-18,0.002884720637863007,1.1531372540660811e-17,0.002884720637863007,-4.341043854678289e-20,0.02736836966278568,1.1531372540660811e-17,0.02736836966278568,-7.951707080806956e-18,0.02751997949049744,-4.283582692409673e-18,-0.027519979490497455,0.31137099727150874,0.8978286050891293,0.31137099727150946,700.0,32.142857142857125,[0.12641244]
3.030048610565446e-18,0.01000941185008557,1.0950113551400411e-17,0.01000941185008557,-8.030931131154835e-20,0.025563665099206295,1.0950113551400411e-17,0.025563665099206295,-6.024283609329796e-18,0.02745340231900249,-8.697487452270462e-18,-0.02745340231900249,0.1320149913484329,0.9824174693675527,0.13201499134843353,700.0,32.142857142857125,[0.13545506]
4.019806609432096e-18,0.014287065621044233,1.0398800981856268e-17,0.014287065621044233,-1.6930071033245328e-19,0.02468644381522649,1.0398800981856268e-17,0.02468644381522649,-4.122906400980705e-18,0.02852263578813075,-5.615749478035976e-18,-0.028522635788130763,0.025702785016440174,0.999339148480033,0.02570278501644051,700.0,32.142857142857125,[0.13065618]
4.994370954807372e-18,0.01658993202305011,9.851252911279855e-18,0.01658993202305011,-2.908499382634454e-19,0.02447467176862534,9.851252911279855e-18,0.02447467176862534,-2.230211280340971e-18,0.029567472037889366,-6.076409916698159e-18,-0.029567472037889366,0.024531707143579436,0.9993980141511407,0.02453170714357899,700.0,32.142857142857125,[0.12159888]
5.929865905490543e-18,0.017274172216922082,9.32466394306431e-18,0.017274172216922082,-4.210812539037941e-19,0.024833260431909466,9.32466394306431e-18,0.024833260431909466,-3.52709813192611e-19,0.03025041899641927,-6.1181092970873766e-18,-0.030250418996419254,0.03306101558992484,0.9989063712362265,0.033061015589924386,700.0,32.142857142857125,[0.12442099]
6.8241209395542715e-18,0.016373965296815833,8.81567655110328e-18,0.016373965296815833,-5.86040920381569e-19,0.025778708399268015,8.81567655110328e-18,0.025778708399268015,1.509598000464375e-18,0.030539295117533786,-3.505002385580229e-18,-0.030539295117533737,0.0034530227583276576,0.9999880765627465,0.003453022758327269,700.0,32.142857142857125,[0.11129507]
7.711864407835981e-18,0.013612430867192693,8.31981403392163e-18,0.013612430867192693,-7.922405034787879e-19,0.027444361590587503,8.31981403392163e-18,0.027444361590587503,3.357797421593657e-18,0.030634804670978653,3.010734218207224e-20,-0.030634804670978646,0.07098363422514604,0.9949485651752967,0.07098363422514666,700.0,32.142857142857125,[0.12442099]
8.543174306006873e-18,0.008237865066754772,7.846708082571925e-18,0.008237865066754772,-1.0288273935587545e-18,0.030150384782109307,7.846708082571925e-18,0.030150384782109307,5.174524274776521e-18,0.03125552948467371,2.5454234972066786e-18,-0.03125552948467371,0.2050987153121631,0.9570104670036793,0.20509871531216375,700.0,32.142857142857125,[0.13273233]
9.292004370938878e-18,-0.0015202313431976783,7.418131745137788e-18,-0.0015202313431976783,-1.3587467265143045e-18,0.03461884472364436,7.418131745137788e-18,0.03461884472364436,6.947840689412602e-18,0.03465220791431103,6.938893903907228e-18,-0.03465220791431104,0.4021079938811242,0.8225681263663184,0.40210799388112434,700.0,32.142857142857125,[0.11773555]
9.925796773721908e-18,-0.02031200291795668,7.080344270195634e-18,-0.02031200291795668,-1.8384320724562555e-18,0.04266940111293132,7.080344270195634e-18,0.04266940111293132,8.62673940020943e-18,0.04725733016025456,1.2358191203694741e-17,-0.047257330160254546,0.5970220854583144,0.535844435400808,0.5970220854583144,700.0,32.142857142857125,[0.12317707]
1.0121143747182431e-17,-0.0642637561436447,6.977685365913515e-18,-0.0642637561436447,-2.839042680959601e-18,0.060018994089259446,6.977685365913515e-18,0.060018994089259446,1.0038663913943544e-17,0.08793241725994112,2.4907958254176684e-17,-0.08793241725994108,0.6943472863970382,0.18911290740226827,0.6943472863970381,700.0,32.142857142857125,[0.09611922]
8.410772468439185e-18,-0.22441769870733388,7.769281495695124e-18,-0.22441769870733388,-7.633725618451772e-18,0.09835454834938107,7.769281495695124e-18,0.09835454834938107,9.9724629951597e-18,0.24502432669860846,1.2721728398555919e-17,-0.24502432669860846,0.6993823174748309,0.1474067434246798,0.6993823174748311,700.0,32.142857142857125,[0.27264448]
8.34999785447369e-18,-0.21762126128215997,7.040901817047268e-18,-0.21762126128215997,-7.69015918856259e-18,0.09992663191429263,7.040901817047268e-18,0.09992663191429263,1.0111376398509405e-17,0.23946679337180063,1.3952184281373802e-17,-0.23946679337180066,0.6630311633718287,0.3475332398427504,0.6630311633718289,700.0,45.0,[0.52823493]
9.333244287558322e-18,-0.0559318517996909,4.647189189648453e-18,-0.0559318517996909,-3.0083433912920544e-18,0.06198783983401959,4.647189189648453e-18,0.06198783983401959,1.106315026364762e-17,0.08349170218069968,1.2254062311808124e-17,-0.0834917021806997,0.7061761142352738,0.05128929095960268,0.7061761142352737,700.0,45.0,[0.1095516]
8.434648209639916e-18,-0.013167408193509353,3.1531579011317134e-18,-0.013167408193509353,-2.1271114887923617e-18,0.04441302787816591,3.1531579011317134e-18,0.04441302787816591,1.0503155606394121e-17,0.04632383494316116,7.216005267349823e-18,-0.046323834943161155,0.6214990203458524,0.4769464701811844,0.6214990203458525,700.0,45.0,[0.18019014]
7.149699228655142e-18,0.0055768433776370654,1.9091775215254657e-18,0.0055768433776370654,-1.7494406734353506e-18,0.036397406544111825,1.9091775215254657e-18,0.036397406544111825,9.645799445095159e-18,0.036822172467089034,6.732948573233009e-18,-0.03682217246708902,0.41850549684462035,0.8060436081389616,0.41850549684462,700.0,45.0,[0.17108147]
5.732348410102681e-18,0.01581551570684089,7.550703154731049e-19,0.01581551570684089,-1.5432410903381318e-18,0.032084608116906825,7.550703154731049e-19,0.032084608116906825,8.67991718742924e-18,0.035770834699358274,1.0814211205794819e-17,-0.0357708346993583,0.22740722360551766,0.9468748118437097,0.22740722360551674,700.0,45.0,[0.18897559]
4.2563934995120626e-18,0.02197480044801968,-3.5698302823705994e-19,0.02197480044801968,-1.4130097746977831e-18,0.029603963834937498,-3.5698302823705994e-19,0.029603963834937498,7.658686620616172e-18,0.03686850321711709,8.376553575111655e-18,-0.036868503217117085,0.10346451199808683,0.9892371755620567,0.10346451199808655,700.0,45.0,[0.18178819]
2.7261755407379656e-18,0.025747762542585775,-1.4446688718723315e-18,0.025747762542585775,-1.3261888976042174e-18,0.028215816333034823,-1.4446688718723315e-18,0.028215816333034823,6.612495051638705e-18,0.03819790003768451,5.4279007896595485e-18,-0.038197900037684536,0.0323061449453265,0.9989557677883156,0.03230614494532637,700.0,45.0,[0.17501887]
1.185104972327173e-18,0.027873089977738262,-2.50951336366287e-18,0.027873089977738262,-1.2784374152027562e-18,0.027597102792066848,-2.50951336366287e-18,0.027597102792066848,5.5380866976058275e-18,0.0392238349402885,4.081908292898576e-18,-0.03922383494028855,0.003518105586712328,0.999987622856484,0.0035181055867126677,700.0,45.0,[0.16038981]
-3.906939469210461e-19,0.028656298871318254,-3.556790193604007e-18,0.028656298871318254,-1.2502206301473473e-18,0.027621079266838083,-3.556790193604007e-18,0.027621079266838083,4.443058385263229e-18,0.03980084779081055,8.574418983560346e-18,-0.03980084779081051,0.01300499439008401,0.9998308558160365,0.013004994390084202,700.0,45.0,[0.16968745]
-1.9578107784599084e-18,0.02813533024559811,-4.591467822045043e-18,0.02813533024559811,-1.2480501082200082e-18,0.028287768906339286,-4.591467822045043e-18,0.028287768906339286,3.3360922023202657e-18,0.0398973016346635,7.348811062907081e-18,-0.03989730163466354,0.0019103881026472868,0.9999963504106376,0.001910388102646852,700.0,45.0,[0.16282855]
-3.572679092400232e-18,0.026092673240090555,-5.605644192594258e-18,0.026092673240090555,-1.2849489809847736e-18,0.029723962696152725,-5.605644192594258e-18,0.029723962696152725,2.192227146612536e-18,0.039551757927763664,4.9845125044102525e-18,-0.039551757927763685,0.0459055380382114,0.9978904564905132,0.04590553803821129,700.0,45.0,[0.17501887]
-5.213593669468625e-18,0.021923446790397885,-6.600523266633225e-18,0.021923446790397885,-1.3565762045869654e-18,0.03225277339571848,-6.600523266633225e-18,0.03225277339571848,1.0158042619947197e-18,0.038998447544575064,1.1966922548244704e-18,-0.0389984475445751,0.13243253585305165,0.982305068140779,0.13243253585305126,700.0,45.0,[0.18605294]
-6.902259728938481e-18,0.01419079663958637,-7.548108702739777e-18,0.01419079663958637,-1.515024305282723e-18,0.03661391640817104,-7.548108702739777e-18,0.03661391640817104,-2.2573428044327104e-19,0.039267767749270294,1.2452810517919962e-18,-0.03926776774927031,0.28551559018785033,0.9148561064557461,0.2855155901878502,700.0,45.0,[0.18184463]
-8.699451884775292e-18,-0.0009131026677080436,-8.401310349412191e-18,-0.0009131026677080436,-1.8275794628195598e-18,0.04467814330188109,-8.401310349412191e-18,0.04467814330188109,-1.601845182376289e-18,0.04468747302528079,-6.938893903907228e-18,-0.04468747302528079,0.5101121509354206,0.6925107847074136,0.5101121509354205,700.0,45.0,[0.17743152]
-1.0804858154294262e-17,-0.03687297205368206,-9.014652365911073e-18,-0.03687297205368206,-2.6610598829177913e-18,0.06230200171271884,-9.014652365911073e-18,0.06230200171271884,-3.3599679435209963e-18,0.07239582505561522,-9.336256718257959e-18,-0.07239582505561519,0.6849495374230055,0.24837121888017077,0.6849495374230056,700.0,45.0,[0.1841957]
-1.4407924553677242e-17,-0.17959726767015322,-8.722242365012353e-18,-0.17959726767015322,-7.28427158815017e-18,0.1002908863987228,-8.722242365012353e-18,0.1002908863987228,-6.997762693741402e-18,0.2057023102671093,-2.3073490962887092e-17,-0.20570231026710947,0.6803233121335251,0.27261764787947934,0.6803233121335253,700.0,45.0,[0.48279111]
-1.4143120878541866e-17,-0.17278429508412402,-8.861350776191467e-18,-0.17278429508412402,-7.23217906189403e-18,0.09876331227492463,-8.861350776191467e-18,0.09876331227492463,-6.8848955535197675e-18,0.19901910581457216,-1.5080422956086346e-17,-0.1990191058145721,0.6237293717538177,0.47108740337985666,0.6237293717538177,700.0,57.8571428571429,[0.54389342]
-1.0596488049269704e-17,-0.02848886907476255,-9.280956753472773e-18,-0.02848886907476255,-2.478736041021303e-18,0.06047814229341426,-9.280956753472773e-18,0.06047814229341426,-2.4071088174191114e-18,0.06685223523878185,-2.293916124351433e-17,-0.06685223523878187,0.7019563763590135,0.12047610293268282,0.7019563763590133,700.0,57.8571428571429,[0.09615565]
-8.508445955169447e-18,0.006319090614753097,-8.809266728536606e-18,0.006319090614753097,-1.5280474368467578e-18,0.04317879324159379,-8.809266728536606e-18,0.04317879324159379,1.6278914455043585e-19,0.04363873384961766,-7.698445007360023e-18,-0.04363873384961766,0.5379380212083715,0.6490341829802528,0.537938021208371,700.0,57.8571428571429,[0.18171027]
-6.706912755477958e-18,0.021410913301863645,-8.104347339626826e-18,0.021410913301863645,-1.096113573306268e-18,0.03517888757880542,-8.104347339626826e-18,0.03517888757880542,2.311605852616189e-18,0.041182294007281225,4.804214600370194e-18,-0.04118229400728121,0.3158541600009056,0.8946911753338382,0.31585416000090566,700.0,57.8571428571429,[0.18455574]
-4.996541476734711e-18,0.029659741976323636,-7.304942418067563e-18,0.029659741976323636,-8.226278104615359e-19,0.030761622565305114,-7.304942418067563e-18,0.030761622565305114,4.317168113477559e-18,0.042731460505725564,5.735167210450621e-18,-0.04273146050572555,0.16988973041141595,0.9707084830171583,0.16988973041141628,700.0,57.8571428571429,[0.18663683]
-3.3295806365382482e-18,0.03464951918418149,-6.459867510720753e-18,0.03464951918418149,-6.316218808556911e-19,0.028107378157475982,-6.459867510720753e-18,0.028107378157475982,6.248932628809398e-18,0.04461629619973311,8.179838313982111e-18,-0.0446162961997331,0.0850205884677014,0.9927451833543246,0.08502058846770126,700.0,57.8571428571429,[0.17888722]
-1.6843250156151764e-18,0.03773972073144466,-5.603728028705279e-18,0.03773972073144466,-4.775148240146118e-19,0.026494098491153036,-5.603728028705279e-18,0.026494098491153036,8.139457227521792e-18,0.04611099408759639,8.992407101353146e-18,-0.0461109940875964,0.03610525536225902,0.9986955597530472,0.03610525536225887,700.0,57.8571428571429,[0.17929762]
-6.077461396549605e-20,0.039522260392802856,-4.718265304167531e-18,0.039522260392802856,-3.7115924957499373e-19,0.02560161701098357,-4.718265304167531e-18,0.02560161701098357,9.990912431542083e-18,0.047089827565341504,1.1572185516437329e-17,-0.0470898275653415,0.009766464243323005,0.9999046116267132,0.009766464243323154,700.0,57.8571428571429,[0.17129056]
1.5627757876841843e-18,0.04024332787458297,-3.827755692218655e-18,0.04024332787458297,-2.7565628477207137e-19,0.025296578560359967,-3.827755692218655e-18,0.025296578560359967,1.182283293821632e-17,0.047533591546207114,1.519384499757944e-17,-0.04753359154620707,0.00012620641636957474,0.9999999840719405,0.00012620641636970726,700.0,57.8571428571429,[0.16714225]
3.1429157507870818e-18,0.039937140443465434,-2.9150904353034587e-18,0.039937140443465434,-2.1488167080657534e-19,0.025562470159685043,-2.9150904353034587e-18,0.025562470159685043,1.363087770368983e-17,0.04741745530356801,1.3552380424289256e-17,-0.04741745530356798,0.005913088687803263,0.9999650347708866,0.005913088687803067,700.0,57.8571428571429,[0.16466856]
4.740419889308692e-18,0.03843686572268001,-1.9886071779543522e-18,0.03843686572268001,-1.7581227611447071e-19,0.02649436244186506,-1.9886071779543522e-18,0.02649436244186506,1.539985307447123e-17,0.04668344340110573,1.4623811014867976e-17,-0.046683443401105716,0.030047887858345147,0.9990967164746887,0.0300478878583454,700.0,57.8571428571429,[0.17929762]
6.2858315015741636e-18,0.03527121402745572,-1.0427428979073693e-18,0.03527121402745572,-1.8883540767850558e-19,0.028354270221534056,-1.0427428979073693e-18,0.028354270221534056,1.7123247484778512e-17,0.045255090086821874,1.3579284116347092e-17,-0.04525509008682189,0.08191874749223904,0.9932666498068912,0.08191874749223907,700.0,57.8571428571429,[0.17888722]
7.826902069984955e-18,0.029311618824193267,-5.699315779520988e-20,0.029311618824193267,-2.7565628477207137e-19,0.03175300194357383,-5.699315779520988e-20,0.03175300194357383,1.8757650496064888e-17,0.04321370304108878,1.2029933664755849e-17,-0.04321370304108876,0.18476001671463146,0.9652603133078757,0.1847600167146314,700.0,57.8571428571429,[0.19761595]
9.276810717447504e-18,0.01753134934094838,9.94145675028361e-19,0.01753134934094838,-5.382894379801079e-19,0.03824183341035906,9.94145675028361e-19,0.03824183341035906,2.022275279701881e-17,0.042068824945558275,8.545526149501297e-18,-0.042068824945558234,0.387483246225598,0.8364887732593581,0.38748324622559766,700.0,57.8571428571429,[0.17774604]
1.0544395523013565e-17,-0.011113735160190284,2.2644309151016773e-18,-0.011113735160190284,-1.3023131564034868e-18,0.05265691919558305,2.2644309151016773e-18,0.05265691919558305,2.1201658186248765e-17,0.05381696989222835,1.2261746413706897e-17,-0.053816969892228325,0.6635083614297894,0.3457069693042245,0.6635083614297893,700.0,57.8571428571429,[0.14860426]
1.0670285794799235e-17,-0.1382892046590503,4.258267270394648e-18,-0.1382892046590503,-5.86257972574303e-18,0.08278194298169309,4.258267270394648e-18,0.08278194298169309,1.9936243902610043e-17,0.16117305670941726,1.8228761080320938e-17,-0.16117305670941717,0.6303066680355239,0.4532405635641097,0.6303066680355239,700.0,57.8571428571429,[0.3362797]
1.086129172440508e-17,-0.13281078697704946,4.514193849991258e-18,-0.13281078697704946,-5.8473860722516556e-18,0.07846534061748145,4.514193849991258e-18,0.07846534061748145,1.9749579016858877e-17,0.15425794895460224,1.7985971948124677e-17,-0.154257948954602,0.540567306752636,0.6446502724271532,0.5405673067526361,700.0,70.71428571428567,[0.33686113]
1.0652921619380522e-17,-0.004341902946974778,3.424668149878516e-18,-0.004341902946974778,-1.2523911520746864e-18,0.04742560696689592,3.424668149878516e-18,0.04742560696689592,2.1145224616137947e-17,0.047623946889977904,1.577946383321362e-17,-0.0476239468899779,0.6859388780539522,0.24284915307278876,0.6859388780539519,700.0,70.71428571428567,[0.12726305]
9.302856980575574e-18,0.02341252645053474,3.0436228512125942e-18,0.02341252645053474,-4.514685608865421e-19,0.03383610113643456,3.0436228512125942e-18,0.03383610113643456,2.0253140104001558e-17,0.041146423112003526,1.2807809435970733e-17,-0.04114642311200352,0.4159603957293715,0.8086741608146816,0.4159603957293712,700.0,70.71428571428567,[0.18552958]
7.805196850711564e-18,0.035216254135880094,2.845978176805552e-18,0.035216254135880094,-1.606186226230967e-19,0.027443475316728,2.845978176805552e-18,0.027443475316728,1.8857494504722488e-17,0.044646712004611844,1.1577276150213506e-17,-0.04464671200461185,0.22604134848451835,0.9475286895659684,0.226041348484518,700.0,70.71428571428567,[0.20161716]
6.259785238446094e-18,0.041623097359706165,2.7142376701376003e-18,0.041623097359706165,-3.4728350837426314e-20,0.023802763222595415,2.7142376701376003e-18,0.023802763222595415,1.728169558547427e-17,0.047948449097405886,1.2062244609941521e-17,-0.04794844909740584,0.12859280105417087,0.9833248613932655,0.12859280105417095,700.0,70.71428571428567,[0.1967022]
4.657940056069804e-18,0.04548030650269507,2.6137662449853782e-18,0.04548030650269507,6.5115657820174346e-21,0.021505784803520746,2.6137662449853782e-18,0.021505784803520746,1.5621246311059824e-17,0.05030861814435406,1.2108148168712498e-17,-0.050308618144354104,0.0741809094178189,0.9944819683412519,0.07418090941781884,700.0,70.71428571428567,[0.1858349]
3.0517538298388373e-18,0.04785443749794807,2.5356104983986117e-18,0.04785443749794807,3.447723361506982e-55,0.0199910960715845,2.5356104983986117e-18,0.0199910960715845,1.3891340334970526e-17,0.051862232022815404,9.952050546630734e-18,-0.05186223202281542,0.04177481799066186,0.9982533391698193,0.041774817990661815,700.0,70.71428571428567,[0.18722926]
1.4455676036078703e-18,0.04920641620578062,2.4715970587446642e-18,0.04920641620578062,-2.1705219273391446e-20,0.01900484302137683,2.4715970587446642e-18,0.01900484302137683,1.2137558617680497e-17,0.0527489853370061,9.050642195728815e-18,-0.05274898533700611,0.022607818779202753,0.9994887558447536,0.022607818779202624,700.0,70.71428571428567,[0.18290401]
-1.8232384189648815e-19,0.049726105132131965,2.415044788215945e-18,0.049726105132131965,-8.682087709356578e-20,0.018433480014827988,2.415044788215945e-18,0.018433480014827988,1.0336025417989007e-17,0.053032807931212754,7.409945698028668e-18,-0.05303280793121273,0.01300755785382738,0.9998307891225189,0.013007557853827307,700.0,70.71428571428567,[0.18189783]
-1.80153319969149e-18,0.049437182637713975,2.362867475947019e-18,0.049437182637713975,-1.6278914455043585e-19,0.01824724104338677,2.362867475947019e-18,0.01824724104338677,8.519298564806143e-18,0.05269721845458403,5.689183583975391e-18,-0.052697218454583965,0.012012061506438469,0.9998556999671157,0.012012061506438501,700.0,70.71428571428567,[0.18189783]
-3.459811952178597e-18,0.048204702494346524,2.3247476845981252e-18,0.048204702494346524,-2.778268066994105e-19,0.01849066300597668,2.3247476845981252e-18,0.01849066300597668,6.656990751149157e-18,0.05162942921405438,3.741984168865137e-18,-0.05162942921405441,0.020982316475602215,0.9995596454392481,0.020982316475602267,700.0,70.71428571428567,[0.18290401]
-5.085532875755616e-18,0.04565121534705206,2.3039242398577153e-18,0.04565121534705206,-4.384454293225072e-19,0.019312787676987384,2.3039242398577153e-18,0.019312787676987384,4.7360788454540136e-18,0.049568308731681804,1.4282334137674858e-18,-0.04956830873168177,0.04495534842646426,0.9979769703233187,0.044955348426464155,700.0,70.71428571428567,[0.18722926]
-6.7785399790801494e-18,0.04086996863418233,2.3063152054183e-18,0.04086996863418233,-6.793733632571523e-19,0.02107456177982388,2.3063152054183e-18,0.02107456177982388,2.71532293110127e-18,0.04598360023280756,-2.079771000031277e-18,-0.045983600232807585,0.09831417206237214,0.9902871538818325,0.0983141720623719,700.0,70.71428571428567,[0.18935514]
-8.497593345532751e-18,0.03139934429309552,2.34611375982037e-18,0.03139934429309552,-1.0787493978875549e-18,0.02470056211108843,2.34611375982037e-18,0.02470056211108843,4.992200432880033e-19,0.03995042666405565,-3.2027979881288577e-18,-0.03995042666405561,0.22910197067324878,0.9460573841301951,0.22910197067324917,700.0,70.71428571428567,[0.20161716]
-1.0340366461843685e-17,0.00795134171863119,2.517059318800885e-18,0.00795134171863119,-1.9903686073699956e-18,0.0330487178418214,2.517059318800885e-18,0.0330487178418214,-2.281218545633441e-18,0.03399178703914769,-1.234734327123203e-17,-0.033991787039147695,0.5942790482394221,0.5419085030217679,0.594279048239422,700.0,70.71428571428567,[0.19087929]
-1.3040495739453582e-17,-0.10862798726096887,3.0946046807012285e-18,-0.10862798726096887,-6.702571711623279e-18,0.049339372332848956,3.0946046807012285e-18,0.049339372332848956,-7.566439438704258e-18,0.11930806040904655,-3.81445381652627e-18,-0.11930806040904655,0.4886480712489294,0.7228043476137942,0.48864807124892917,700.0,70.71428571428567,[0.32639541]
-1.2875536072975807e-17,-0.10556334031549447,2.708336563647647e-18,-0.10556334031549447,-6.7047422335506185e-18,0.04308482948671468,2.708336563647647e-18,0.04308482948671468,-8.302246372072228e-18,0.11401719760836168,-6.64902304098261e-18,-0.11401719760836157,0.33882215247452185,0.8777238164622536,0.33882215247452196,700.0,83.57142857142856,[0.31933714]
-1.0103779571763718e-17,0.011788269436686661,1.929458335784041e-18,0.011788269436686661,-1.9925391292973348e-18,0.02543445620159642,1.929458335784041e-18,0.02543445620159642,-4.215153582892619e-18,0.02803345962564818,-1.0699290287545422e-17,-0.028033459625648197,0.6042245358526065,0.5194472259502451,0.6042245358526064,700.0,83.57142857142856,[0.19794525]
-8.158991924867845e-18,0.034795697614540204,1.530014472343409e-18,0.034795697614540204,-1.080919919814894e-18,0.0182417246728129,1.530014472343409e-18,0.0182417246728129,-2.658889360990452e-18,0.0392874164526153,-6.492448510040292e-18,-0.039287416452615305,0.25613639842603714,0.9320881346754055,0.25613639842603725,700.0,83.57142857142856,[0.19389164]
-6.357458725176355e-18,0.04433278436122546,1.2289902125455613e-18,0.04433278436122546,-6.75032319402474e-19,0.014717171951010315,1.2289902125455613e-18,0.014717171951010315,-1.6691313621238024e-18,0.04671178565902315,-2.833054253129398e-18,-0.04671178565902317,0.14624389983437186,0.9783789876742389,0.1462438998343718,700.0,83.57142857142856,[0.21136076]
-4.56677813512156e-18,0.04941552536972294,9.557248933340745e-19,0.04941552536972294,-4.406159512498464e-19,0.012568096808486341,9.557248933340745e-19,0.012568096808486341,-8.834024244270319e-19,0.05098873605957708,-1.7020507489066626e-18,-0.05098873605957712,0.09646911625458977,0.9906499983435708,0.09646911625458963,700.0,83.57142857142856,[0.20052676]
-2.8260195493955663e-18,0.052405941239664175,6.989250178057619e-19,0.052405941239664175,-2.7565628477207137e-19,0.011076712644952417,6.989250178057619e-19,0.011076712644952417,-1.9968801731520133e-19,0.053563758645505645,-5.732821577671176e-19,-0.05356375864550571,0.06784713595833913,0.9953861222081114,0.06784713595833906,700.0,83.57142857142856,[0.19801802]
-1.0592147005415026e-18,0.054176353114991006,4.489249805029415e-19,0.054176353114991006,-1.64959666477775e-19,0.009953431835149016,4.489249805029415e-19,0.009953431835149016,4.1891073197645496e-19,0.05508310123928347,2.3470754750555022e-19,-0.05508310123928346,0.04910212648541238,0.997586067639891,0.049102126485412366,700.0,83.57142857142856,[0.19801802]
6.90225972893848e-19,0.05509843291575845,2.081327041887552e-19,0.05509843291575845,-8.465035516622664e-20,0.00906103178303731,2.081327041887552e-19,0.00906103178303731,9.984400865760065e-19,0.05583851365093402,9.41124512642471e-19,-0.05583851365093404,0.03590069016617512,0.9987103087938888,0.035900690166175094,700.0,83.57142857142856,[0.19801802]
2.430984558619842e-18,0.055319879231507316,-2.787764100426214e-20,0.055319879231507316,-2.821678505540888e-20,0.008328299682689994,-2.787764100426214e-20,0.008328299682689994,1.5410705684107927e-18,0.055943271389803866,1.5508168722544741e-18,-0.0559432713898039,0.026316785598746343,0.9993071868006851,0.026316785598746357,700.0,83.57142857142856,[0.20275008]
4.156549490854462e-18,0.05484911460756904,-2.6700811146782946e-19,0.05484911460756904,-4.341043854678289e-21,0.007718136617982692,-2.6700811146782946e-19,0.007718136617982692,2.053313743262831e-18,0.05538948461655956,2.176604839810718e-18,-0.05538948461655957,0.01951237398815074,0.9996191947550291,0.01951237398815077,700.0,83.57142857142856,[0.19369278]
5.8907965107984385e-18,0.05355798389060718,-5.002544326440008e-19,0.05355798389060718,-4.341043854678289e-21,0.007215731882361872,-5.002544326440008e-19,0.007215731882361872,2.519975957640747e-18,0.054041876586816195,2.6992723238524743e-18,-0.054041876586816175,0.015358093776844767,0.9997641011314036,0.015358093776844795,700.0,83.57142857142856,[0.1926866]
7.601167789541684e-18,0.05110455295919478,-7.267687444049094e-19,0.05110455295919478,-4.341043854678289e-20,0.006827606811487485,-7.267687444049094e-19,0.006827606811487485,2.925863558053167e-18,0.05155862244020309,3.1694171053049364e-18,-0.051558622440203115,0.014575645156105618,0.9997875279961072,0.01457564515610566,700.0,83.57142857142856,[0.1926866]
9.318050634066948e-18,0.046673482549829365,-9.556740217264024e-19,0.046673482549829365,-1.64959666477775e-19,0.006593247150247138,-9.556740217264024e-19,0.006593247150247138,3.2297366278806476e-18,0.0471368739026409,3.624538496581953e-18,-0.04713687390264089,0.01989178249403765,0.9996042386756971,0.01989178249403775,700.0,83.57142857142856,[0.19369278]
1.0989352518118089e-17,0.038040340581191545,-1.1691821591258335e-18,0.038040340581191545,-4.623211705232378e-19,0.006627066879304093,-1.1691821591258335e-18,0.006627066879304093,3.3187280269015525e-18,0.038613281742890186,3.873083165394379e-18,-0.03861328174289018,0.042599159292810385,0.9981836620858365,0.04259915929281041,700.0,83.57142857142856,[0.19801802]
1.2576004047003005e-17,0.01664088801181202,-1.3751443413872495e-18,0.01664088801181202,-1.2632437617113822e-18,0.007241506710209929,-1.3751443413872495e-18,0.007241506710209929,2.819507983613549e-18,0.018148238847218338,5.5508054813753524e-18,-0.018148238847218338,0.20778041878668668,0.9558528103937647,0.20778041878668707,700.0,83.57142857142856,[0.20201419]
1.337692663819115e-17,-0.09639646176258486,-1.5544667584310892e-18,-0.09639646176258486,-5.858238681888351e-18,0.006450732519642697,-1.5544667584310892e-18,0.006450732519642697,-2.9519098211812367e-19,0.09661205820385702,-4.45175472584427e-19,-0.09661205820385704,0.1259104190612248,0.9840188680831552,0.1259104190612248,700.0,83.57142857142856,[0.31509557]
