stress_11,stress_12,stress_13,stress_21,stress_22,stress_23,stress_31,stress_32,stress_33,e1,e2,e3,anev1,anev2,anev3,temp,miss,velo
2.4277287757288333e-17,-0.10695686457358429,-4.1213582083872203e-17,-0.10695686457358429,-1.0570441786141634e-17,-0.04376985021323975,-4.1213582083872203e-17,-0.04376985021323975,2.471790370853818e-17,0.11556630420283202,5.261005024884534e-17,-0.11556630420283195,0.4689267355109307,0.748475406039586,0.46892673551093084,100.0,109.28571428571416,[0.39503203]
2.3567527087048432e-17,0.009717771855924963,-3.9475519693352826e-17,0.009717771855924963,-5.866920769597708e-18,-0.02750528404773133,-3.9475519693352826e-17,-0.02750528404773133,2.6605172524359568e-17,0.029171488484309324,-4.199203144543206e-18,-0.02917148848430929,0.5515055122473369,0.625846099230158,0.5515055122473373,100.0,109.28571428571416,[0.26229699]
2.1991728167800213e-17,0.0332580054549035,-3.8146286977889567e-17,0.0332580054549035,-4.953131038187928e-18,-0.01919310471405968,-3.8146286977889567e-17,-0.01919310471405968,2.5978976948322225e-17,0.038398830651508765,-9.947884563309305e-18,-0.038398830651508786,0.13132751612766383,0.9826017336721307,0.13132751612766294,100.0,109.28571428571416,[0.30288387]
2.030089158640302e-17,0.042819331696407205,-3.6942588432958273e-17,0.042819331696407205,-4.5537550035575254e-18,-0.015608339216045488,-3.6942588432958273e-17,-0.015608339216045488,2.4793871975995052e-17,0.04557538173191845,1.4198056267403216e-19,-0.045575381731918434,0.009155811780158046,0.9999161675967104,0.009155811780157069,100.0,109.28571428571416,[0.31487292]
1.8564474044531704e-17,0.047690105663218546,-3.5785666331281395e-17,0.047690105663218546,-4.332361766968933e-18,-0.013891837888507456,-3.5785666331281395e-17,-0.013891837888507456,2.3402567420570657e-17,0.04967221897690423,3.748642222298833e-18,-0.04967221897690418,0.03756408713520478,0.998587942404372,0.03756408713520567,100.0,109.28571428571416,[0.28666271]
1.6828056502660388e-17,0.050332027389259425,-3.4651102301176365e-17,0.050332027389259425,-4.158720012781801e-18,-0.013118582995255076,-3.4651102301176365e-17,-0.013118582995255076,2.1919015683234352e-17,0.05201355785674111,4.667067338427868e-18,-0.05201355785674114,0.057657724549539345,0.9966700424912647,0.057657724549540185,100.0,109.28571428571416,[0.28666271]
1.5065592697661003e-17,0.051651862226095954,-3.353210498301897e-17,0.051651862226095954,-4.0588760041242004e-18,-0.012927386055864238,-3.353210498301897e-17,-0.012927386055864238,2.037903037578723e-17,0.053245020252235334,4.2104105487500715e-18,-0.05324502025223534,0.06450989884768847,0.9958297775731163,0.06450989884768923,100.0,109.28571428571416,[0.28666271]
1.3277082629533549e-17,0.05202705038941551,-3.2417262179488124e-17,0.05202705038941551,-3.987248780522009e-18,-0.013169028657859141,-3.2417262179488124e-17,-0.013169028657859141,1.8790208324974975e-17,0.05366784221500149,2.8981788637218843e-18,-0.053667842215001475,0.06262921162957875,0.9960698588459117,0.0626292116295795,100.0,109.28571428571416,[0.28666271]
1.149508412718811e-17,0.05159252202016052,-3.132244583217749e-17,0.05159252202016052,-3.926474166556513e-18,-0.013798821094675059,-3.132244583217749e-17,-0.013798821094675059,1.717968105488933e-17,0.05340595277685439,1.1615478842717683e-18,-0.053405952776854386,0.05316549171793919,0.9971694244113078,0.05316549171793992,100.0,109.28571428571416,[0.28666271]
9.700062493278637e-18,0.05032458194525651,-3.022603126852583e-17,0.05032458194525651,-3.904768947283121e-18,-0.014846385264374302,-3.022603126852583e-17,-0.014846385264374302,1.5535510694929928e-17,0.05246883554437881,-1.2920751832264434e-18,-0.05246883554437881,0.035145889228394955,0.9987640026255906,0.035145889228395795,100.0,109.28571428571416,[0.28666271]
7.887676683950452e-18,0.04803335396695327,-2.914847311411793e-17,0.04803335396695327,-3.900427903428443e-18,-0.01642512559742311,-2.914847311411793e-17,-0.01642512559742311,1.3849015157387414e-17,0.05076404085773464,-4.7201267568034404e-18,-0.05076404085773463,0.00502859495270477,0.9999747129130833,0.0050285949527054535,100.0,109.28571428571416,[0.30825092]
6.079631918476944e-18,0.04425790613992748,-2.8087734384996586e-17,0.04425790613992748,-3.956861473539261e-18,-0.018788756524097516,-2.8087734384996586e-17,-0.018788756524097516,1.2114768137443436e-17,0.048080969495346584,-9.188200636706865e-18,-0.04808096949534658,0.04583945463251997,0.9978965321104121,0.04583945463251918,100.0,109.28571428571416,[0.28666271]
4.21298306096528e-18,0.03793169352011456,-2.706454102198751e-17,0.03793169352011456,-4.080581223397592e-18,-0.022498587117880303,-2.706454102198751e-17,-0.022498587117880303,1.0294785501369563e-17,0.04410215182510658,-1.7593624309547894e-17,-0.044102151825106566,0.13961867172076925,0.9803128342594808,0.13961867172076856,100.0,109.28571428571416,[0.29430031]
2.3333110718895805e-18,0.026207522770415416,-2.6103005107302068e-17,0.026207522770415416,-4.371431161661037e-18,-0.028962680554362054,-2.6103005107302068e-17,-0.028962680554362054,8.282711674726176e-18,0.039059840177039465,-1.8600339871844338e-17,-0.03905984017703941,0.3381960266116983,0.878206635802827,0.33819602661169834,100.0,109.28571428571416,[0.25512039]
2.430984558619842e-19,-0.001468196057872616,-2.532789455788167e-17,-0.001468196057872616,-5.178865318631199e-18,-0.042625964036587055,-2.532789455788167e-17,-0.042625964036587055,5.764906239012768e-18,0.042651241596379896,-6.938893903907228e-18,-0.04265124159637991,0.6750700520127247,0.29759175013947253,0.6750700520127246,100.0,109.28571428571416,[0.19624887]
-2.9497392992538975e-18,-0.12985825621263125,-2.5257831636215393e-17,-0.12985825621263125,-9.782542326517525e-18,-0.07374209502988371,-2.5257831636215393e-17,-0.07374209502988371,9.66967518629589e-19,0.14933540533303474,2.175284511260422e-17,-0.14933540533303455,0.5326589758464222,0.657684446296612,0.5326589758464223,100.0,109.28571428571416,[0.41662596]
2.3762874060508955e-17,-0.10397377229033669,-3.957566893165646e-17,-0.10397377229033669,-1.0418505251227894e-17,-0.03743423857880497,-3.957566893165646e-17,-0.03743423857880497,2.3491558819591562e-17,0.11050731895335116,4.925166294656608e-17,-0.11050731895335117,0.31251556338208625,0.8970329120427825,0.31251556338208675,100.0,96.42857142857144,[0.42800764]
2.182242745746776e-17,0.013276808444706788,-3.5107039084936765e-17,0.013276808444706788,-5.40459959907447e-18,-0.01974241455061959,-3.5107039084936765e-17,-0.01974241455061959,2.3197453098437108e-17,0.023791523170363756,-7.409178338397569e-18,-0.02379152317036369,0.5388928448613809,0.647448070129501,0.5388928448613808,100.0,96.42857142857144,[0.30748715]
1.900508999578155e-17,0.03618459895041369,-3.102927275716369e-17,0.03618459895041369,-4.197789407473906e-18,-0.012505284834247704,-3.102927275716369e-17,-0.012505284834247704,2.037251881000521e-17,0.03828455759164453,9.743302983309712e-19,-0.03828455759164445,0.15468916815614628,0.9757779063446351,0.15468916815614525,100.0,96.42857142857144,[0.29644432]
1.6081396959655722e-17,0.04562182480721993,-2.7043160109213027e-17,0.04562182480721993,-3.485858215306666e-18,-0.008938284176974289,-2.7043160109213027e-17,-0.008938284176974289,1.6971310949864772e-17,0.046489179631060557,6.711246200482944e-18,-0.04648917963106054,0.05740394462950503,0.9966993399626318,0.057403944629504246,100.0,96.42857142857144,[0.32587542]
1.3125146094619809e-17,0.05060412788444784,-2.3091504496858866e-17,0.05060412788444784,-2.9519098211812367e-18,-0.00675000239404834,-2.3091504496858866e-17,-0.00675000239404834,1.3370415072409132e-17,0.05105232895045251,7.334269591216598e-18,-0.051052328950452495,0.014428130987435336,0.9997918073641228,0.014428130987434756,100.0,96.42857142857144,[0.33322276]
1.0162383663801875e-17,0.05349346680932684,-1.9153889448222183e-17,0.05349346680932684,-2.4852476068033206e-18,-0.005223105693548878,-1.9153889448222183e-17,-0.005223105693548878,9.663163620513872e-18,0.05374785413731916,5.958384039824638e-18,-0.05374785413731913,0.010513013523168758,0.9998894704382697,0.010513013523169268,100.0,96.42857142857144,[0.33147254]
7.171404447928534e-18,0.05516217859737292,-1.5227110052019638e-17,0.05516217859737292,-2.072848440608883e-18,-0.004068232139626147,-1.5227110052019638e-17,-0.004068232139626147,5.903819642362473e-18,0.0553119920121338,3.6779850826656445e-18,-0.0553119920121338,0.02727526834612501,0.9992557828070318,0.027275268346125398,100.0,96.42857142857144,[0.3394651]
4.197789407473906e-18,0.05598197925557258,-1.1299821939740374e-17,0.05598197925557258,-1.6973481471792113e-18,-0.00314829906609895,-1.1299821939740374e-17,-0.00314829906609895,2.098894703736953e-18,0.056070435956758514,8.400291528036684e-19,-0.056070435956758514,0.03959224604184687,0.9984312235235453,0.03959224604184714,100.0,96.42857142857144,[0.32587542]
1.1937870600365295e-18,0.05610062417847551,-7.385268686581669e-18,0.05610062417847551,-1.334870985313574e-18,-0.002392191676553608,-7.385268686581669e-18,-0.002392191676553608,-1.742929107653333e-18,0.056151603843807754,-2.3668331577030945e-18,-0.05615160384380775,0.049163949544150966,0.997579977811524,0.04916394954415115,100.0,96.42857142857144,[0.32587542]
-1.799362677764151e-18,0.05552659949170522,-3.470715433422964e-18,0.05552659949170522,-1.0158042619947197e-18,-0.0017628836886731762,-3.470715433422964e-18,-0.0017628836886731762,-5.6194812698810454e-18,0.05555457685926545,-5.835822977293182e-18,-0.055554576859265445,0.05683381522775339,0.996764683811237,0.05683381522775347,100.0,96.42857142857144,[0.32587542]
-4.805535547128866e-18,0.05413181774346616,4.421251422774494e-19,0.05413181774346616,-7.032491044578829e-19,-0.0012456188210378837,4.421251422774494e-19,-0.0012456188210378837,-9.537273348728201e-18,0.05414614721713046,-9.514526172176058e-18,-0.05414614721713046,0.06298535265327335,0.9960249448192979,0.06298535265327333,100.0,96.42857142857144,[0.32587542]
-7.822561026130277e-18,0.05157441528826223,4.3497089851850885e-18,0.05157441528826223,-4.514685608865421e-19,-0.000846958067132614,4.3497089851850885e-18,-0.000846958067132614,-1.3520181085395533e-17,0.05158136921693354,-1.3375770101073269e-17,-0.051581369216933536,0.06762258835329012,0.9954166821431129,0.06762258835329,100.0,96.42857142857144,[0.32587542]
-1.0856950680550401e-17,0.047039125349361326,8.254393146455423e-18,0.047039125349361326,-2.7999732862674966e-19,-0.000606413856497974,8.254393146455423e-18,-0.000606413856497974,-1.7600762308793124e-17,0.04704303403691434,-1.7386840573588643e-17,-0.04704303403691434,0.07010653115385906,0.9950729363112766,0.07010653115385883,100.0,96.42857142857144,[0.32587542]
-1.3917386598098595e-17,0.03830158985868439,1.216268919187047e-17,0.03830158985868439,-2.626331532080365e-19,-0.0006384148862481103,1.216268919187047e-17,-0.0006384148862481103,-2.1894054681069952e-17,0.038306910072072625,-2.14864819593493e-17,-0.03830691007207263,0.06744945064263945,0.9954401756087667,0.06744945064263899,100.0,96.42857142857144,[0.32587542]
-1.7066813914667694e-17,0.016797644976873242,1.603919048249051e-17,0.016797644976873242,-7.618531964960398e-19,-0.0012554052197336547,1.603919048249051e-17,-0.0012554052197336547,-2.677772901758303e-17,0.01684449224627471,-2.433867012935128e-17,-0.016844492246274732,0.02658197252481355,0.9992931489174637,0.026581972524812172,100.0,96.42857142857144,[0.33515676]
-2.1001970168933563e-17,-0.0963442197700644,1.9909044549708075e-17,-0.0963442197700644,-5.070339222264242e-18,-0.00047154311094671795,1.9909044549708075e-17,-0.00047154311094671795,-3.427905279846711e-17,0.09634537371357249,-3.447361476770753e-17,-0.09634537371357253,0.08260892366766596,0.993152320372328,0.08260892366766569,100.0,96.42857142857144,[0.44370346]
-3.7463208465873636e-18,-0.1352714548395695,-2.4078848214011415e-17,-0.1352714548395695,-9.674016230150568e-18,-0.07812051045406922,-2.4078848214011415e-17,-0.07812051045406922,3.75500293429672e-19,0.15620877263463154,2.615274309493803e-17,-0.1562087726346316,0.6252033684939576,0.46716324346808097,0.6252033684939575,100.0,122.14285714285735,[0.51046717]
-1.6886660594698547e-18,-0.008025476201925372,-2.139699456145769e-17,-0.008025476201925372,-4.860883856276014e-18,-0.04805186029045844,-2.139699456145769e-17,-0.04805186029045844,3.5032223907253794e-18,0.048717446009016174,4.347720819839946e-18,-0.048717446009016174,0.6525184935366409,0.38527812186178534,0.6525184935366409,100.0,122.14285714285735,[0.33948935]
-7.553416307140223e-19,0.020687930398166677,-1.945122127716317e-17,0.020687930398166677,-3.838568028499277e-18,-0.03369450567567401,-1.945122127716317e-17,-0.03369450567567401,4.380113249370394e-18,0.03953871744110347,-1.3658157503464985e-17,-0.03953871744110343,0.3133852758732121,0.8964258685087918,0.3133852758732121,100.0,122.14285714285735,[0.37702988]
-3.255782891008717e-20,0.032535205378727027,-1.7702759882175506e-17,0.032535205378727027,-3.3360922023202657e-18,-0.027265076944701875,-1.7702759882175506e-17,-0.027265076944701875,4.76972193532777e-18,0.042449075488595334,-1.1084547281488049e-17,-0.04244907548859527,0.0962190491585729,0.9906986369012728,0.09621904915857313,100.0,122.14285714285735,[0.3715182]
6.359629247103694e-19,0.03856070607686726,-1.6029177254380403e-17,0.03856070607686726,-3.0126844351467327e-18,-0.023927416079914735,-1.6029177254380403e-17,-0.023927416079914735,4.987859389025354e-18,0.045381155708156096,-1.2845918802373123e-17,-0.04538115570815615,0.003982793694167022,0.9999841372285759,0.003982793694167594,100.0,122.14285714285735,[0.36244325]
1.2719258494207387e-18,0.04179123009464332,-1.4398945714923132e-17,0.04179123009464332,-2.7391986723020005e-18,-0.02213016971404982,-1.4398945714923132e-17,-0.02213016971404982,5.1246022704477204e-18,0.04728901906781394,-7.316430629727182e-18,-0.047289019067813895,0.05227711486061287,0.9972633586589355,0.0522771148606131,100.0,122.14285714285735,[0.36900946]
1.8579667698023078e-18,0.043355372203354475,-1.2787629934918572e-17,0.043355372203354475,-2.5264875234227643e-18,-0.021262431901346197,-1.2787629934918572e-17,-0.021262431901346197,5.213593669468625e-18,0.048288500797299426,-5.795176862467146e-18,-0.04828850079729945,0.07413990830930002,0.9944880833834949,0.07413990830930015,100.0,122.14285714285735,[0.3676151]
2.476565519093964e-18,0.043724437383571416,-1.1196060817292028e-17,0.043724437383571416,-2.336566854780589e-18,-0.021062083456937265,-1.1196060817292028e-17,-0.021062083456937265,5.267856717652104e-18,0.04853285262641019,-3.610543137225071e-18,-0.048532852626410175,0.07909904176362978,0.9937236452777759,0.07909904176362982,100.0,122.14285714285735,[0.3676151]
3.0213665228560893e-18,0.04306526836583899,-9.608756436108656e-18,0.04306526836583899,-2.1857155808305186e-18,-0.021433947148042677,-9.608756436108656e-18,-0.021433947148042677,5.296073502707513e-18,0.04810438056733317,-3.080056897396755e-18,-0.048104380567333176,0.07002016321125763,0.995085098616062,0.07002016321125754,100.0,122.14285714285735,[0.36900946]
3.60306639938298e-18,0.04134365656465382,-8.045276924518342e-18,0.04134365656465382,-2.0446316555534742e-18,-0.022394429602881356,-8.045276924518342e-18,-0.022394429602881356,5.294988241743843e-18,0.04701923452561145,-2.2303143350265645e-18,-0.04701923452561148,0.045631025898297595,0.9979156371913097,0.045631025898297796,100.0,122.14285714285735,[0.36900946]
4.132673749653731e-18,0.03831342141554363,-6.4912086603473515e-18,0.03831342141554363,-1.938276081113856e-18,-0.024076782021601545,-6.4912086603473515e-18,-0.024076782021601545,5.263515673797426e-18,0.045250521467500804,5.096751468265531e-19,-0.04525052146750081,3.78914720218495e-05,0.9999999985642363,3.789147202156748e-05,100.0,122.14285714285735,[0.36236823]
4.653599012215126e-18,0.03338266168036661,-4.970851314860345e-18,0.03338266168036661,-1.87750146714836e-18,-0.02680107241491696,-4.970851314860345e-18,-0.02680107241491696,5.191888450195234e-18,0.04281004068504771,3.2792296492091965e-18,-0.0428100406850477,0.08147114002736781,0.9933402773900201,0.08147114002736723,100.0,122.14285714285735,[0.36859906]
5.137625402011755e-18,0.025191924410251976,-3.487604807170072e-18,0.025191924410251976,-1.90354773027643e-18,-0.03128926984189908,-3.487604807170072e-18,-0.03128926984189908,5.046463481063511e-18,0.04017028083958367,1.7302550027747165e-18,-0.040170280839583704,0.23042806722477782,0.9454130376031985,0.23042806722477743,100.0,122.14285714285735,[0.37331695]
5.513125695441427e-18,0.01015732243737668,-2.0911791765733645e-18,0.01015732243737668,-2.0847863112092484e-18,-0.03936093783665584,-2.0911791765733645e-18,-0.03936093783665584,4.748016716054379e-18,0.04065039515770938,1.1432168557898288e-17,-0.040650395157709365,0.4857304481326825,0.7267268149130363,0.4857304481326826,100.0,122.14285714285735,[0.38876398]
5.6368454452997586e-18,-0.02459410296578256,-9.356645227087447e-19,-0.02459410296578256,-2.7847796327761225e-18,-0.05673293065746414,-9.356645227087447e-19,-0.05673293065746414,4.0436823506328264e-18,0.061834418584443315,6.752707051140006e-18,-0.06183441858444331,0.6989598918151212,0.15136095687986179,0.6989598918151214,100.0,122.14285714285735,[0.1708244]
4.260734543366741e-18,-0.1688329306836988,-6.685885824306859e-19,-0.1688329306836988,-7.278845283331821e-18,-0.09509213500567605,-6.685885824306859e-19,-0.09509213500567605,1.4216918624071397e-18,0.1937706701830398,4.334891900919617e-18,-0.19377067018304003,0.6216086322880541,0.47666069329235583,0.6216086322880543,100.0,122.14285714285735,[0.76892434]
4.0284886971414524e-18,-0.17560076232842944,-7.006716096691676e-20,-0.17560076232842944,-7.168148665037525e-18,-0.09667701824104742,-7.006716096691676e-20,-0.09667701824104742,1.550837917083819e-18,0.20045466716019714,1.220638242771127e-18,-0.20045466716019694,0.6791505142454011,0.2784046659099197,0.6791505142454011,100.0,135.00000000000023,[0.67577998]
5.558706655915549e-18,-0.03282858436981531,1.0059012557012348e-18,-0.03282858436981531,-2.4320698195835115e-18,-0.05874028019646486,1.0059012557012348e-18,-0.05874028019646486,3.816862809225886e-18,0.06729142938952391,3.251699060417691e-18,-0.06729142938952389,0.6803902472945218,0.2722833501575126,0.6803902472945218,100.0,135.00000000000023,[0.26892604]
5.55653613398821e-18,0.0031774480699014963,1.182188333487311e-18,0.0031774480699014963,-1.4889780421546532e-18,-0.04116876164897445,1.182188333487311e-18,-0.04116876164897445,4.2086420171106014e-18,0.04129119896475506,1.0408340855860843e-17,-0.041291198964755055,0.46004129852830195,0.7594234703357461,0.4600412985283017,100.0,135.00000000000023,[0.38869605]
5.293902980780174e-18,0.018326404600779774,1.106169194422769e-18,0.018326404600779774,-1.06572626632352e-18,-0.03315753145996366,1.106169194422769e-18,-0.03315753145996366,4.219494626747297e-18,0.03788507619247931,6.195114682773168e-19,-0.03788507619247927,0.19573837972282962,0.9609229799557105,0.19573837972283026,100.0,135.00000000000023,[0.35993673]
4.892356424222432e-18,0.02610314144231158,9.475176072963233e-19,0.02610314144231158,-7.987520692608053e-19,-0.028850130442675575,9.475176072963233e-19,-0.028850130442675575,4.092519093997957e-18,0.038906349349646256,5.305035437192327e-18,-0.03890634934964625,0.03530257973675415,0.9987529502974496,0.03530257973675391,100.0,135.00000000000023,[0.37136669]
4.456081516827264e-18,0.030315506370756404,7.462864845484043e-19,0.030315506370756404,-6.023198348366126e-19,-0.026375812073461558,7.462864845484043e-19,-0.026375812073461558,3.898257381501104e-18,0.0401834964761646,4.652525435257547e-18,-0.040183496476164586,0.04902129783096318,0.9975940179842377,0.04902129783096308,100.0,135.00000000000023,[0.37136669]
3.967714083175956e-18,0.032400343461905394,5.1248057568784085e-19,0.032400343461905394,-4.688327363052552e-19,-0.024994847297676752,5.1248057568784085e-19,-0.024994847297676752,3.6627557523848065e-18,0.04092095609689019,-1.4154348326357137e-18,-0.0409209560968902,0.09048537559453093,0.9917786011036098,0.09048537559453129,100.0,135.00000000000023,[0.37133914]
3.4511298644692403e-18,0.03296250964702758,2.6485454674304765e-19,0.03296250964702758,-3.6681820572031544e-19,-0.02438410629900661,2.6485454674304765e-19,-0.02438410629900661,3.4098899478497966e-18,0.0410013619558136,3.4397428382388526e-18,-0.04100136195581361,0.10461119995557631,0.9889959523110844,0.1046111999555767,100.0,135.00000000000023,[0.37895004]
2.938886689617202e-18,0.03221948347395753,-6.375908161558738e-21,0.03221948347395753,-2.821678505540888e-19,-0.02441678273682367,-6.375908161558738e-21,-0.02441678273682367,3.129892619223047e-18,0.04042615977984892,4.459170227612592e-18,-0.04042615977984892,0.09650558919800598,0.9906428935328269,0.09650558919800589,100.0,135.00000000000023,[0.37387543]
2.3962562077824157e-18,0.0301332858033007,-2.835922555689051e-19,0.0301332858033007,-2.279048023706102e-19,-0.02509284223086107,-2.835922555689051e-19,-0.02509284223086107,2.8379574199959316e-18,0.039213080018359804,4.342849731854993e-19,-0.0392130800183598,0.06426992689785975,0.995860810049822,0.06426992689785982,100.0,135.00000000000023,[0.37136669]
1.829749984746899e-18,0.02639835816347489,-5.827851374905603e-19,0.02639835816347489,-1.9534697346052304e-19,-0.02653902351245729,-5.827851374905603e-19,-0.02653902351245729,2.514549652822399e-18,0.03743251371096874,2.7704290163774507e-18,-0.037432513710968715,0.001878919354285606,0.9999964696558283,0.001878919354285717,100.0,135.00000000000023,[0.36469051]
1.2241743670192776e-18,0.02027596807456629,-9.093469443397576e-19,0.02027596807456629,-2.1813745369758403e-19,-0.029078392908656034,-9.093469443397576e-19,-0.029078392908656034,2.1683514054118055e-18,0.03544951079367681,-1.1242678696992185e-19,-0.03544951079367682,0.12415439080840104,0.9844650194323766,0.12415439080840121,100.0,135.00000000000023,[0.38162143]
5.55653613398821e-19,0.010073008756304775,-1.2782678431771828e-18,0.010073008756304775,-3.2340776717353255e-19,-0.033450626109852645,-1.2782678431771828e-18,-0.033450626109852645,1.765719587890394e-18,0.03493436549510737,4.088053581601458e-20,-0.03493436549510736,0.3345934157129859,0.8809622536312403,0.3345934157129862,100.0,135.00000000000023,[0.37428436]
-2.4526897778932334e-19,-0.008636735623971657,-1.7396733247623244e-18,-0.008636735623971657,-5.827851374905603e-19,-0.041526443861315106,-1.7396733247623244e-18,-0.041526443861315106,1.2545616740020256e-18,0.042415076824230034,-1.1432071073725414e-18,-0.04241507682423004,0.5913366571651524,0.548308230638102,0.5913366571651523,100.0,135.00000000000023,[0.33438546]
-1.4455676036078703e-18,-0.05136781993685012,-2.444211176614565e-18,-0.05136781993685012,-1.3522351607322871e-18,-0.05916238027751883,-2.444211176614565e-18,-0.05916238027751883,4.438717341408551e-19,0.07835075089089066,-2.383810376035331e-18,-0.07835075089089064,0.705355079291394,0.07034503703646897,0.7053550792913938,100.0,135.00000000000023,[0.18659389]
-4.503832999228725e-18,-0.21302458646014083,-4.0499226011739265e-18,-0.21302458646014083,-5.9211838177811865e-18,-0.09716387109856074,-4.0499226011739265e-18,-0.09716387109856074,-1.8731604232936818e-18,0.23413733637199266,1.6132224665446727e-18,-0.2341373363719928,0.6624070777543153,0.34990531102282035,0.6624070777543154,100.0,135.00000000000023,[0.76656535]
-4.5765454837945864e-18,-0.21979796945429653,-4.302211860821987e-18,-0.21979796945429653,-5.960253212473291e-18,-0.09563808362856781,-4.302211860821987e-18,-0.09563808362856781,-1.4320018415620007e-18,0.2397035469415854,2.7649988580744803e-18,-0.23970354694158533,0.6991043534588959,0.15002068507255478,0.6991043534588959,100.0,147.8571428571427,[0.34629527]
-1.0266568716314154e-18,-0.05962161451851284,-3.333887765987812e-18,-0.05962161451851284,-1.4705286057722705e-18,-0.057343881745848146,-3.333887765987812e-18,-0.057343881745848146,1.1639423835356163e-18,0.08272277613496756,3.511872832857551e-18,-0.08272277613496755,0.6923109670988414,0.20349705076323363,0.6923109670988413,100.0,147.8571428571427,[0.22530287]
6.229397931463345e-19,-0.015649522105095428,-3.260903966181033e-18,-0.015649522105095428,-7.531711087866832e-19,-0.04003602756571705,-3.260903966181033e-18,-0.04003602756571705,2.2823038065971106e-18,0.04298594008929811,4.1114908540567226e-18,-0.042985940089298104,0.5683589634974543,0.5949253543295988,0.5683589634974543,100.0,147.8571428571427,[0.37175952]
1.8406025943835946e-18,0.003160818929057833,-3.4264401775457576e-18,0.003160818929057833,-5.589093962898297e-19,-0.032028099478716286,-3.4264401775457576e-18,-0.032028099478716286,3.1309778801867165e-18,0.032183690473916095,3.893046619979216e-18,-0.03218369047391609,0.31558292831734885,0.8948825792858494,0.31558292831734847,100.0,147.8571428571427,[0.38215027]
2.9117551655254625e-18,0.012935730313076346,-3.678220721117098e-18,0.012935730313076346,-5.25266306416073e-19,-0.027603305193273777,-3.678220721117098e-18,-0.027603305193273777,3.889575293791747e-18,0.03048402165603576,2.564689085887785e-18,-0.030484021656035764,0.08658706800116625,0.9924743620416211,0.08658706800116585,100.0,147.8571428571427,[0.38069313]
3.912365774028808e-18,0.018325303150540328,-3.973411703235222e-18,0.018325303150540328,-5.697620059265255e-19,-0.024942052411585865,-3.973411703235222e-18,-0.024942052411585865,4.5993359640316474e-18,0.03095032655823682,1.362806427121768e-18,-0.03095032655823682,0.05132480300368354,0.997362285828608,0.05132480300368366,100.0,147.8571428571427,[0.38110353]
4.87282172687638e-18,0.02109996323755306,-4.297396015295704e-18,0.02109996323755306,-6.706912755477957e-19,-0.02332232188940295,-4.297396015295704e-18,-0.02332232188940295,5.286306154034487e-18,0.03145058261684534,1.0947123266949344e-18,-0.03145058261684534,0.1227043865671119,0.9848285470244948,0.12270438656711179,100.0,147.8571428571427,[0.38908583]
5.827851374905603e-18,0.022011332578530503,-4.63447128773045e-18,0.022011332578530503,-7.933257644424575e-19,-0.022423990381246355,-4.63447128773045e-18,-0.022423990381246355,5.9515711247639345e-18,0.031421873058443,2.349172283326877e-18,-0.03142187305844303,0.1509375004152371,0.9769522720874343,0.15093750041523743,100.0,147.8571428571427,[0.38067118]
6.698230667768601e-18,0.02133620524363078,-4.985621038287786e-18,0.02133620524363078,-9.420065164651888e-19,-0.02211375182117574,-4.985621038287786e-18,-0.02211375182117574,6.609239268747696e-18,0.030728678360887746,1.5688408764231131e-18,-0.030728678360887735,0.14498627406465048,0.9787532685338528,0.1449862740646506,100.0,147.8571428571427,[0.38573054]
7.596826745687006e-18,0.019040313255403615,-5.346877281569295e-18,0.019040313255403615,-1.1210745754706682e-18,-0.022375147544149855,-5.346877281569295e-18,-0.022375147544149855,7.24357430201256e-18,0.0293799379932357,3.3699863819946356e-18,-0.02937993799323568,0.1015077701682209,0.9896425340449708,0.10150777016822085,100.0,147.8571428571427,[0.3852246]
8.433562948676246e-18,0.014767405427798941,-5.732823211774286e-18,0.014767405427798941,-1.3283594195315565e-18,-0.023303307305903524,-5.732823211774286e-18,-0.023303307305903524,7.872483030459078e-18,0.027588410509892795,2.131257798620707e-18,-0.02758841050989277,0.0027120365854866944,0.9999926448305098,0.0027120365854861913,100.0,147.8571428571427,[0.37395415]
9.231229756973382e-18,0.007645142205837749,-6.133420164988817e-18,0.007645142205837749,-1.5855662679212453e-18,-0.025160309581181897,-6.133420164988817e-18,-0.025160309581181897,8.477516017704864e-18,0.0262961856087227,2.3473891481276e-18,-0.026296185608722693,0.1858848643624249,0.9648282927039018,0.1858848643624251,100.0,147.8571428571427,[0.392231]
9.9475019929953e-18,-0.004327887866668933,-6.5748500619614166e-18,-0.004327887866668933,-1.9122298179857864e-18,-0.028557031099502528,-6.5748500619614166e-18,-0.028557031099502528,9.053246958931572e-18,0.028883120305888264,1.4184750890291557e-17,-0.028883120305888257,0.46166988757426225,0.7574442750554895,0.46166988757426247,100.0,147.8571428571427,[0.39807416]
1.048145038712073e-17,-0.026359013257439716,-7.087771524915747e-18,-0.026359013257439716,-2.4125351222374592e-18,-0.03504482195098116,-7.087771524915747e-18,-0.03504482195098116,9.552467002219575e-18,0.043851306998558826,1.780504263914777e-17,-0.04385130699855879,0.6605451759847635,0.35687552587213806,0.6605451759847637,100.0,147.8571428571427,[0.27601149]
1.0520519781812834e-17,-0.0764033876434738,-7.805705566788284e-18,-0.0764033876434738,-3.4098899478497966e-18,-0.04945992463790912,-7.805705566788284e-18,-0.04945992463790912,9.850371136746873e-18,0.09101517339755266,1.8581939670384584e-17,-0.09101517339755259,0.7070422216997828,0.013512715036963953,0.7070422216997827,100.0,147.8571428571427,[0.17134528]
8.329377896163967e-18,-0.25360825840569223,-9.259412627623676e-18,-0.25360825840569223,-8.229533887506367e-18,-0.07958616086967914,-9.259412627623676e-18,-0.07958616086967914,9.024487543394329e-18,0.26580275719702917,1.3762173777247366e-17,-0.2658027571970293,0.6838982842793225,0.2540989443496329,0.6838982842793225,100.0,147.8571428571427,[0.62544544]
8.281626413762506e-18,-0.2590484862430224,-9.01129483980472e-18,-0.2590484862430224,-8.20837129871481e-18,-0.0752600902099126,-9.01129483980472e-18,-0.0752600902099126,9.33975585334034e-18,0.2697595214319701,1.2647797643148876e-17,-0.26975952143197024,0.7060815019836174,0.05383145096612414,0.7060815019836172,100.0,160.7142857142859,[0.23246467]
1.0837415983204349e-17,-0.08304903446613052,-7.450079114755811e-18,-0.08304903446613052,-3.368650031230353e-18,-0.044200109243671744,-7.450079114755811e-18,-0.044200109243671744,1.0318118612088459e-17,0.09407864679569466,1.6894019036177415e-17,-0.09407864679569461,0.698901601824537,0.15189832762144767,0.6989016018245372,100.0,160.7142857142859,[0.21373929]
1.1123924877613116e-17,-0.03202754928765336,-6.603745135119119e-18,-0.03202754928765336,-2.3387373767079283e-18,-0.030591565727083485,-6.603745135119119e-18,-0.030591565727083485,1.0194941492711962e-17,0.04429004184924117,1.6270895483164984e-17,-0.044290041849241166,0.6439474958571016,0.41311408249869264,0.6439474958571015,100.0,160.7142857142859,[0.34730662]
1.0894934814278836e-17,-0.009933949684343094,-5.937869705097606e-18,-0.009933949684343094,-1.8156415922191945e-18,-0.024181146938142606,-5.937869705097606e-18,-0.024181146938142606,9.893238944811821e-18,0.026142135023274286,1.6804368690407838e-17,-0.026142135023274272,0.4696443642429606,0.7475749743468213,0.4696443642429606,100.0,160.7142857142859,[0.39041391]
1.0484706170011738e-17,0.0016774055190161828,-5.340738774243539e-18,0.0016774055190161828,-1.4499086474625486e-18,-0.020523969542208764,-5.340738774243539e-18,-0.020523969542208764,9.53021915246435e-18,0.020592401876535413,8.673617379884035e-18,-0.020592401876535403,0.17839958327257485,0.9676503383848647,0.1783995832725752,100.0,160.7142857142859,[0.39569081]
9.990912431542083e-18,0.008193293866109726,-4.772943803813664e-18,0.008193293866109726,-1.1552602958262597e-18,-0.018211946704011914,-4.772943803813664e-18,-0.018211946704011914,9.141153096988808e-18,0.01997010433438448,6.7044923619266994e-18,-0.019970104334384474,0.060848710775299096,0.9962905544036682,0.06084871077529878,100.0,160.7142857142859,[0.37882868]
9.44068512296161e-18,0.011677056253328452,-4.2287193449384885e-18,0.011677056253328452,-9.197586667099625e-19,-0.016683729168798837,-4.2287193449384885e-18,-0.016683729168798837,8.737436018503727e-18,0.02036419558247334,4.539540467886916e-18,-0.020364195582473325,0.19137576937639278,0.9626788819700927,0.19137576937639247,100.0,160.7142857142859,[0.38639377]
8.840535810052336e-18,0.013011299148187173,-3.692668257695949e-18,0.013011299148187173,-7.276674761404482e-19,-0.01568555673766107,-3.692668257695949e-18,-0.01568555673766107,8.320967123695528e-18,0.02037966132432041,4.943534378443601e-18,-0.0203796613243204,0.24636514169689536,0.9373411512962276,0.2463651416968954,100.0,160.7142857142859,[0.38500858]
8.240386497143063e-18,0.012529142074133692,-3.170691648576e-18,0.012529142074133692,-5.437157427984557e-19,-0.015103975544353809,-3.170691648576e-18,-0.015103975544353809,7.899614554550817e-18,0.019624206438943335,5.478344496734692e-18,-0.019624206438943338,0.24637214322955028,0.9373374707547736,0.2463721432295505,100.0,160.7142857142859,[0.38500858]
7.571865743522606e-18,0.010206856269847995,-2.653191740931187e-18,0.010206856269847995,-3.8635290306636774e-19,-0.014909308621044256,-2.653191740931187e-18,-0.014909308621044256,7.462254386191979e-18,0.018068408852770623,5.7513676501177024e-18,-0.01806840885277062,0.1843198374080907,0.9654286069283996,0.18431983740809038,100.0,160.7142857142859,[0.38995615]
6.894120271710959e-18,0.005656307144643655,-2.1492915097373586e-18,0.005656307144643655,-2.6046263128069735e-19,-0.015146178683074723,-2.1492915097373586e-18,-0.015146178683074723,7.027336055001398e-18,0.016167886046548386,7.329744685148709e-18,-0.016167886046548383,0.014713782493922968,0.9997834811645187,0.014713782493923161,100.0,160.7142857142859,[0.37529584]
6.1317244447330835e-18,-0.0020886796903474003,-1.6541751094682311e-18,-0.0020886796903474003,-1.8096726569190118e-19,-0.015963709810224044,-1.6541751094682311e-18,-0.015963709810224044,6.566100145441831e-18,0.016099770611841435,6.120342138966641e-18,-0.016099770611841424,0.3181564268669654,0.8930582153961133,0.31815642686696544,100.0,160.7142857142859,[0.37924112]
5.290647197889165e-18,-0.015251321110848832,-1.1874281090775281e-18,-0.015251321110848832,-1.9263382105134908e-19,-0.017722927652686016,-1.1874281090775281e-18,-0.017722927652686016,6.094282941486483e-18,0.023381722781022064,8.094190866952593e-18,-0.023381722781022067,0.6123668037339378,0.5000137951790551,0.6123668037339377,100.0,160.7142857142859,[0.34906347]
4.247168781320871e-18,-0.03960404640388193,-7.642950336642963e-19,-0.03960404640388193,-3.597640094564632e-19,-0.02134848603894771,-7.642950336642963e-19,-0.02134848603894771,5.576613461816097e-18,0.04499153640092749,6.0472068863565155e-18,-0.04499153640092742,0.6983216174445905,0.15714272881410227,0.6983216174445902,100.0,160.7142857142859,[0.16253422]
2.6355562502715564e-18,-0.09485813393293092,-4.613546099774696e-19,-0.09485813393293092,-1.0337110678952676e-18,-0.029698397082213432,-4.613546099774696e-19,-0.029698397082213432,4.939293960901141e-18,0.09939849275764034,5.269733339040571e-18,-0.09939849275764034,0.7067174919132436,0.03317790300348729,0.7067174919132434,100.0,160.7142857142859,[0.17201949]
-1.486807520227314e-18,-0.2826724336952112,-5.7515439633975865e-19,-0.2826724336952112,-5.497932041950053e-18,-0.04599312967888488,-5.7515439633975865e-19,-0.04599312967888488,3.42616886230484e-18,0.28638972179328004,3.750902592700084e-18,-0.2863897217932799,0.6962692994930192,0.17440792747751224,0.6962692994930191,100.0,160.7142857142859,[0.38774607]
-2.0066475218250392e-18,-0.28571353556605406,6.852405553419909e-20,-0.28571353556605406,-5.425219557384192e-18,-0.03973127211033287,6.852405553419909e-20,-0.03973127211033287,3.42616886230484e-18,0.2884628197691344,3.166852429113284e-18,-0.2884628197691344,0.7068682707121595,0.02597105544258639,0.7068682707121596,100.0,173.57142857142813,[0.24296913]
1.3451809644684349e-18,-0.09861271336704747,9.115683378747687e-19,-0.09861271336704747,-8.201859732932794e-19,-0.022061968869391827,9.115683378747687e-19,-0.022061968869391827,4.653056381733291e-18,0.10105047109244697,4.342533442654727e-18,-0.10105047109244701,0.7029946159195846,0.10769001799680492,0.7029946159195842,100.0,173.57142857142813,[0.21167105]
2.166723513966301e-18,-0.04286062381480288,1.3664283392727782e-18,-0.04286062381480288,-3.52709813192611e-21,-0.014852449582728603,1.3664283392727782e-18,-0.014852449582728603,5.026928783717459e-18,0.04536108830706713,3.762908660262701e-18,-0.045361088307067136,0.689850167514706,0.21957571076934845,0.6898501675147056,100.0,173.57142857142813,[0.22279051]
2.417961427055807e-18,-0.018517252035015523,1.7315677819399175e-18,-0.018517252035015523,3.1648922853013902e-19,-0.011313265784058214,1.7315677819399175e-18,-0.011313265784058214,5.2868487845163215e-18,0.021699737455301817,3.346645742553028e-18,-0.02169973745530183,0.6408844804406199,0.42253303475670867,0.6408844804406196,100.0,173.57142857142813,[0.34730662]
2.4554029303024074e-18,-0.00559911186005363,2.062436718238678e-18,-0.00559911186005363,4.536390828138812e-19,-0.009151774075191521,2.062436718238678e-18,-0.009151774075191521,5.517738054537023e-18,0.01072870086938493,5.101106033455952e-19,-0.01072870086938492,0.43423982415573115,0.7892221171725987,0.43423982415573115,100.0,173.57142857142813,[0.39041391]
2.3962562077824157e-18,0.001765829806029112,2.3762806231698726e-18,0.001765829806029112,5.142780391589186e-19,-0.007650252182139884,2.3762806231698726e-18,-0.007650252182139884,5.7271934205252505e-18,0.007851401999273562,2.5151914838777595e-18,-0.00785140199927356,0.08089029344209905,0.9934352122074706,0.08089029344209962,100.0,173.57142857142813,[0.37743432]
2.2850169590062845e-18,0.0058351766537496266,2.6797467201359768e-18,0.0058351766537496266,5.255376216569904e-19,-0.006519175564823697,2.6797467201359768e-18,-0.006519175564823697,5.93122248169513e-18,0.008749224915697339,6.904774638561111e-18,-0.008749224915697334,0.40963861389248113,0.8151027002878184,0.4096386138924817,100.0,173.57142857142813,[0.37997889]
2.1222278144558487e-18,0.007580819150291092,2.980906637554283e-18,0.007580819150291092,5.156346153635055e-19,-0.0056213824914225765,2.980906637554283e-18,-0.0056213824914225765,6.1254841941919835e-18,0.009437624706688248,7.746139211524451e-18,-0.009437624706688245,0.5172587201193372,0.6818261016718346,0.5172587201193369,100.0,173.57142857142813,[0.35253837]
1.9192840142496386e-18,0.007378072538283553,3.275080187518967e-18,0.007378072538283553,4.87282172687638e-19,-0.004885720018051963,3.275080187518967e-18,-0.004885720018051963,6.315133547593242e-18,0.008849079866006838,8.426456758286076e-18,-0.008849079866006831,0.5421438952975287,0.6419968797301464,0.5421438952975288,100.0,173.57142857142813,[0.3589577]
1.6843250156151764e-18,0.005218496873202607,3.56925373748365e-18,0.005218496873202607,4.1877507435599626e-19,-0.004275151482253955,3.56925373748365e-18,-0.004275151482253955,6.502069748585326e-18,0.006746082552996483,8.593548804997603e-18,-0.0067460825529964815,0.4933774531552397,0.716350038344452,0.4933774531552397,100.0,173.57142857142813,[0.39041391]
1.4064982089157657e-18,0.0007071996686640091,3.8613245943312236e-18,0.0007071996686640091,3.253069738599543e-19,-0.0037749383694223415,3.8613245943312236e-18,-0.0037749383694223415,6.678424655181631e-18,0.003840610767091025,3.2614806179848602e-18,-0.0038406107670910204,0.051568967158248054,0.9973370960976349,0.051568967158250004,100.0,173.57142857142813,[0.37882868]
1.085803594151407e-18,-0.007157477512163701,4.145188165141046e-18,-0.007157477512163701,1.840873909624512e-19,-0.0033917017951602003,4.145188165141046e-18,-0.0033917017951602003,6.849353256959589e-18,0.007920424572232347,2.606536860295015e-18,-0.007920424572232349,0.6688784897624965,0.32435032274700054,0.6688784897624964,100.0,173.57142857142813,[0.27333673]
6.41931860010552e-19,-0.020690141081681893,4.428305619038346e-18,-0.020690141081681893,-3.4728350837426314e-20,-0.003165101700043686,4.428305619038346e-18,-0.003165101700043686,6.999390585186907e-18,0.020930833876162697,5.521307246316086e-18,-0.020930833876162708,0.7065524320552751,0.039589411634323224,0.7065524320552748,100.0,173.57142857142813,[0.12681402]
-1.8992066864217515e-21,-0.04590040702001688,4.7099308391106e-18,-0.04590040702001688,-4.244726944152615e-19,-0.003209951541555129,4.7099308391106e-18,-0.003209951541555129,7.128536639863586e-18,0.04601251083675336,6.43998002593414e-18,-0.04601251083675337,0.7064718582399667,0.04236775932164674,0.7064718582399668,100.0,173.57142857142813,[0.12681402]
-1.2450656405699168e-18,-0.10322341320871586,4.966357656182651e-18,-0.10322341320871586,-1.3134370812810999e-18,-0.003839968548249275,4.966357656182651e-18,-0.003839968548249275,7.157431713021288e-18,0.10329481300098682,6.776480142324087e-18,-0.10329481300098681,0.7051181103115486,0.07494598735983743,0.7051181103115486,100.0,173.57142857142813,[0.19709642]
-5.095300224428642e-18,-0.2946008951287936,5.211151832300369e-18,-0.2946008951287936,-6.002171417195028e-18,-0.003074423993432681,5.211151832300369e-18,-0.003074423993432681,6.420810833930567e-18,0.2946169368749493,6.310833121974525e-18,-0.29461693687494933,0.7034485562250092,0.101588668117558,0.7034485562250092,100.0,173.57142857142813,[0.26577353]
-5.3682433567915394e-18,-0.294645294803419,5.4337999018782045e-18,-0.294645294803419,-6.094282941486483e-18,0.0038870451982943297,5.4337999018782045e-18,0.0038870451982943297,6.203487325955735e-18,0.2946709331952632,6.344866302281127e-18,-0.2946709331952634,0.7036438594173944,0.09884653867681939,0.7036438594173947,100.0,173.57142857142813,[0.26577353]
-2.0218411753164132e-18,-0.10335633838023824,5.009140678234812e-18,-0.10335633838023824,-1.5610800674284506e-18,0.00467258931142106,5.009140678234812e-18,0.00467258931142106,6.5197052392449564e-18,0.10346190494207766,6.956158914442673e-18,-0.10346190494207763,0.705519233972765,0.06697179248733015,0.705519233972765,100.0,173.57142857142813,[0.19678659]
-1.2882047638757823e-18,-0.046121431284555474,4.601998244833149e-18,-0.046121431284555474,-8.422981654280469e-19,0.004061932282953799,4.601998244833149e-18,0.004061932282953799,6.060911166853644e-18,0.046299953753835145,6.8129859728592565e-18,-0.046299953753835166,0.706897058472569,0.02435359204837737,0.7068970584725691,100.0,173.57142857142813,[0.12681402]
-1.163671068294699e-18,-0.020998766200984502,4.211287340709546e-18,-0.020998766200984502,-6.259920896066552e-19,0.004035913456219865,4.211287340709546e-18,0.004035913456219865,5.504307950111612e-18,0.02138309564561935,6.8482363537769916e-18,-0.02138309564561936,0.704974314897034,0.07760432121290224,0.7049743148970342,100.0,173.57142857142813,[0.15155199]
-1.2374688138242298e-18,-0.007553135419877953,3.82969941156179e-18,-0.007553135419877953,-5.760022564676255e-19,0.004280832263863639,3.82969941156179e-18,0.004280832263863639,4.924371622650684e-18,0.008681899535375357,6.588563599444494e-18,-0.008681899535375358,0.6503424796619317,0.3925675971018751,0.6503424796619316,100.0,173.57142857142813,[0.34497083]
-1.4070408393976005e-18,0.0002251447862109666,3.449908945885112e-18,0.0002251447862109666,-6.006241145808789e-19,0.004681872020667586,3.449908945885112e-18,0.004681872020667586,4.325036255464163e-18,0.004687282346164776,-2.168404344971009e-18,-0.004687282346164775,0.045328475292342546,0.9979432141436421,0.04532847529234374,100.0,173.57142857142813,[0.37882868]
-1.6504106105005023e-18,0.004650746436700903,3.0685245031680437e-18,0.004650746436700903,-6.71912194131924e-19,0.005199366058886851,3.0685245031680437e-18,0.005199366058886851,3.718171890342184e-18,0.006975876277055869,-2.6254769618695516e-18,-0.00697587627705586,0.4094479581313926,0.8152942653815657,0.40944795813139284,100.0,173.57142857142813,[0.37997889]
-1.93474898298193e-18,0.006725391392984323,2.695754319350103e-18,0.006725391392984323,-7.766398771260378e-19,0.005826686862304419,2.695754319350103e-18,0.005826686862304419,3.1064238508836924e-18,0.008898380143609197,-1.1271757119497942e-18,-0.0088983801436092,0.47922926095446344,0.7353085276875807,0.47922926095446355,100.0,173.57142857142813,[0.39041391]
-2.250288608168858e-18,0.006844033357222835,2.3260703463975975e-18,0.006844033357222835,-9.113478942415233e-19,0.006578568093950414,2.3260703463975975e-18,0.006578568093950414,2.486129381336302e-18,0.00949306856403772,-2.1425335986538626e-18,-0.009493068564037721,0.4517192813732754,0.769349973465407,0.4517192813732757,100.0,173.57142857142813,[0.39041391]
-2.5970294860612865e-18,0.005015171279599774,1.9584466735558086e-18,0.005015171279599774,-1.0607069343665482e-18,0.00749204363210171,1.9584466735558086e-18,0.00749204363210171,1.8661062270298296e-18,0.00901568969902127,-2.425995840035246e-18,-0.009015689699021267,0.3250790765623245,0.8880580994297461,0.32507907656232443,100.0,173.57142857142813,[0.37589276]
-2.9871808025004978e-18,0.0008635467432945598,1.5941042194088646e-18,0.0008635467432945598,-1.2491353691836777e-18,0.00863826605165789,1.5941042194088646e-18,0.00863826605165789,1.236315724050331e-18,0.008681322097300607,-3.105556952303697e-18,-0.008681322097300609,0.00888326363647401,0.999921084513338,0.008883263636474233,100.0,173.57142857142813,[0.37354562]
-3.4465175053736446e-18,-0.006582675974132496,1.240097180220617e-18,-0.006582675974132496,-1.4840265390079108e-18,0.01015439960673061,1.240097180220617e-18,0.01015439960673061,5.98114448602393e-19,0.01210138233234501,-1.0362580798674213e-18,-0.012101382332345013,0.448652850367336,0.7729302942145103,0.44865285036733615,100.0,173.57142857142813,[0.39041391]
-4.02251976184127e-18,-0.019581047628215813,9.032677872229522e-19,-0.019581047628215813,-1.793427656869083e-18,0.012329975378722054,9.032677872229522e-19,0.012329975378722054,-5.840060560746886e-20,0.023139700064139734,-9.773671145479965e-19,-0.023139700064139724,0.6367846588979027,0.4347534892149385,0.6367846588979028,100.0,173.57142857142813,[0.35092503]
-4.769857592948229e-18,-0.04400354932951141,5.979448765768197e-19,-0.04400354932951141,-2.276843587373648e-18,0.01588272983563072,5.979448765768197e-19,0.01588272983563072,-7.491692089831516e-19,0.04678219170396336,-8.899732155929049e-19,-0.04678219170396336,0.6878046992833635,0.23205471614997095,0.6878046992833636,100.0,173.57142857142813,[0.22418025]
-6.094825571968318e-18,-0.09983361254679222,3.84453696379946e-19,-0.09983361254679222,-3.2736557825041506e-18,0.02310534407439241,3.84453696379946e-19,0.02310534407439241,-1.549074368017856e-18,0.10247247005385934,-1.6358055197999034e-18,-0.10247247005385927,0.7024171445236491,0.11497960757667314,0.7024171445236496,100.0,173.57142857142813,[0.21086955]
-9.961203412661628e-18,-0.2870111782382101,5.58366765807995e-19,-0.2870111782382101,-8.052331120782194e-18,0.04078739982047944,5.58366765807995e-19,0.04078739982047944,-3.2100662729141366e-18,0.2898948575221734,-3.1650070385343616e-18,-0.2898948575221735,0.7068101630981368,0.028961814210619108,0.7068101630981368,100.0,173.57142857142813,[0.24296913]
-1.0316219405402037e-17,-0.28404462490212,6.080174548958779e-19,-0.28404462490212,-8.075833803526664e-18,0.04707832103561525,6.080174548958779e-19,0.04707832103561525,-4.153022392722536e-18,0.28791963678658405,-4.1910901295169694e-18,-0.28791963678658405,0.696630657397373,0.1714976802997842,0.6966306573973732,100.0,160.7142857142859,[0.38624787]
-7.413824615688225e-18,-0.09630122485710713,-3.427898496965688e-20,-0.09630122485710713,-3.3507771397349196e-18,0.03083387356692661,-3.427898496965688e-20,0.03083387356692661,-4.111375503241716e-18,0.10111702956535228,-4.6760535019091725e-18,-0.10111702956535225,0.7068541544393443,0.026728425013059175,0.7068541544393445,100.0,160.7142857142859,[0.17201949]
-7.047413382829285e-18,-0.041116499848586764,-2.598648898905512e-19,-0.041116499848586764,-2.412772523073262e-18,0.022533106368407507,-2.598648898905512e-19,0.022533106368407507,-4.9309171028378165e-18,0.0468861114020858,-6.276954503001519e-18,-0.04688611140208586,0.6975343438432732,0.16398682361174144,0.6975343438432731,100.0,160.7142857142859,[0.16446088]
-7.232586034755406e-18,-0.016831509137073944,-3.644738724667636e-19,-0.016831509137073944,-1.9925391292973348e-18,0.018955909455737784,-3.644738724667636e-19,0.018955909455737784,-5.885709350031237e-18,0.025350073039846103,-5.614636923248583e-18,-0.025350073039846124,0.6177814007052116,0.4865103101532518,0.6177814007052118,100.0,160.7142857142859,[0.34906347]
-7.596691088066547e-18,-0.003734950592291258,-4.2352309107205064e-19,-0.003734950592291258,-1.739808982382783e-18,0.017244355620840566,-4.2352309107205064e-19,0.017244355620840566,-6.870821075397178e-18,0.017644196119542318,-1.1066532270604813e-17,-0.017644196119542332,0.3695320124768947,0.8525797226708787,0.3695320124768947,100.0,160.7142857142859,[0.37263113]
-8.087771674127029e-18,0.0039456107737069574,-4.5890005490729505e-19,0.0039456107737069574,-1.5605204797440585e-18,0.016473814658412057,-4.5890005490729505e-19,0.016473814658412057,-7.884793959515704e-18,0.016939728857844928,-7.610308170707318e-18,-0.016939728857844942,0.0716618617130062,0.9948513231391172,0.07166186171300609,100.0,160.7142857142859,[0.37882868]
-8.618735600602367e-18,0.008433390543817386,-4.842341155279566e-19,0.008433390543817386,-1.4390051662181809e-18,0.016283270142613687,-4.842341155279566e-19,0.016283270142613687,-8.908500277902143e-18,0.018337583335921965,-8.79804165482174e-18,-0.01833758333592197,0.09956764626333339,0.9900366496424057,0.09956764626333324,100.0,160.7142857142859,[0.38133742]
-9.206268754808982e-18,0.010694557679934281,-4.939590711945894e-19,0.010694557679934281,-1.331750860043024e-18,0.01652360360415502,-4.939590711945894e-19,0.01652360360415502,-9.944212295699176e-18,0.01968255674542019,-1.026728594414603e-17,-0.0196825567454202,0.16658731808495905,0.9718525252868984,0.16658731808495905,100.0,160.7142857142859,[0.38320489]
-9.792309675190551e-18,0.011117238384886697,-4.969053851389268e-19,0.011117238384886697,-1.259106204287392e-18,0.01715019765751288,-4.969053851389268e-19,0.01715019765751288,-1.0977787705973985e-17,0.02043825503799574,-1.0250422078066126e-17,-0.020438255037995748,0.16707082739420434,0.9716865118275706,0.1670708273942044,100.0,160.7142857142859,[0.38320489]
-1.0451470052999357e-17,0.00972515083195915,-4.849505573360041e-19,0.00972515083195915,-1.2087433126921008e-18,0.018192735661129496,-4.849505573360041e-19,0.018192735661129496,-1.20331022499273e-17,0.020628964819885846,-8.495841456657182e-18,-0.020628964819885874,0.10868423843917459,0.9881171350754895,0.10868423843917509,100.0,160.7142857142859,[0.38641203]
-1.113192867722018e-17,0.006185163424339177,-4.676584500281596e-19,0.006185163424339177,-1.188225097597723e-18,0.019764679810981248,-4.676584500281596e-19,0.019764679810981248,-1.3098658944225249e-17,0.020709872394980924,-1.0073510335778875e-17,-0.02070987239498093,0.023551726308952945,0.9994451622654124,0.023551726308953025,100.0,160.7142857142859,[0.37630202]
-1.1867939097018837e-17,-0.00038534289022480224,-4.3306151751055274e-19,-0.00038534289022480224,-1.2165436258684759e-18,0.022119801826830737,-4.3306151751055274e-19,0.022119801826830737,-1.416709836295794e-17,0.02212315804765022,-1.0408340855860843e-17,-0.022123158047650242,0.2451324178770657,0.9379873109011054,0.24513241787706583,100.0,160.7142857142859,[0.38500858]
-1.267747594710611e-17,-0.012049720238767462,-3.5385442436523125e-19,-0.012049720238767462,-1.3278167890497217e-18,0.025819468737361705,-3.5385442436523125e-19,0.025819468737361705,-1.527416628911625e-17,0.028492818809520398,-1.210751661702489e-17,-0.02849281880952043,0.49388743428788606,0.7156468434256228,0.4938874342878863,100.0,160.7142857142859,[0.39041391]
-1.3694636785305417e-17,-0.03419475085812765,-2.182180004097314e-19,-0.03419475085812765,-1.6007853572164554e-18,0.032271801333100106,-2.182180004097314e-19,0.032271801333100106,-1.6440787910655924e-17,0.04701861490444504,-1.5214521011956265e-17,-0.047018614904445054,0.6456871489574705,0.40764716525734196,0.6456871489574703,100.0,160.7142857142859,[0.34497083]
-1.520966109058814e-17,-0.08526605284209121,1.0392221587264023e-19,-0.08526605284209121,-2.3870738825976176e-18,0.04592177635722141,1.0392221587264023e-19,0.04592177635722141,-1.7781220858408305e-17,0.09684580172146316,-1.8662967278304102e-17,-0.09684580172146318,0.6983627031115421,0.1567771341920751,0.698362703111542,100.0,160.7142857142859,[0.20790055]
-1.899586527759036e-17,-0.2613135613325933,1.1336229053630976e-18,-0.2613135613325933,-6.9658068455221e-18,0.07702305591513059,1.1336229053630976e-18,0.07702305591513059,-2.0224194159236184e-17,0.2724285750042171,-2.0050805688023922e-17,-0.27242857500421713,0.7062243976793785,0.0499419687717429,0.7062243976793785,100.0,160.7142857142859,[0.24022736]
-1.8805469807276578e-17,-0.25591780179388196,1.4871593821803788e-18,-0.25591780179388196,-6.8877613207519575e-18,0.08140229501443993,1.4871593821803788e-18,0.08140229501443993,-2.0932242152017793e-17,0.2685521456042207,-2.016658756799284e-17,-0.2685521456042209,0.684589822303304,0.2503468601709658,0.684589822303304,100.0,147.85714285714295,[0.62544544]
-1.5175814514283694e-17,-0.07874968191350304,7.743718512839939e-19,-0.07874968191350304,-2.154497370922461e-18,0.05135020141819967,7.743718512839939e-19,0.05135020141819967,-1.9403702956296873e-17,0.09401252888401405,-1.5028808759451012e-17,-0.09401252888401411,0.7070066468768973,0.016828622753303536,0.7070066468768971,100.0,147.85714285714295,[0.17432833]
-1.3784509958859304e-17,-0.02874120731401006,7.887091660462224e-19,-0.02874120731401006,-1.2114310292974388e-18,0.03700802015233122,7.887091660462224e-19,0.03700802015233122,-1.901375512628835e-17,0.046857769403400536,-1.3648619330366824e-17,-0.046857769403400536,0.6643638711404838,0.3424051597836413,0.6643638711404839,100.0,147.85714285714295,[0.27737208]
-1.2855323087527462e-17,-0.006744896448777895,1.0073150624644528e-18,-0.006744896448777895,-7.796328233774078e-19,0.030592475877175063,1.0073150624644528e-18,0.030592475877175063,-1.882519103385076e-17,0.031327195986878144,-9.620831358666423e-18,-0.031327195986878165,0.4962886051805718,0.712316812054752,0.4962886051805719,100.0,147.85714285714295,[0.39669671]
-1.2132742772154213e-17,0.0051944421463238485,1.2993096119005184e-18,0.0051944421463238485,-5.256817578787278e-19,0.027267459617763768,1.2993096119005184e-18,0.027267459617763768,-1.8709763356042968e-17,0.027757820217334844,-1.4473087895859714e-17,-0.027757820217334857,0.25751568438203376,0.9313277321085772,0.25751568438203365,100.0,147.85714285714295,[0.3836642]
-1.1481687937167814e-17,0.01228413128259818,1.6254877620418561e-18,0.01228413128259818,-3.389151289122173e-19,0.025481658654777733,1.6254877620418561e-18,0.025481658654777733,-1.862104327226298e-17,0.028288068318050908,-1.3507215291532846e-17,-0.028288068318050925,0.07888412365737048,0.9937578125829338,0.07888412365737071,100.0,147.85714285714295,[0.37970917]
-1.088415003345237e-17,0.016525567345113245,1.9828290111829396e-18,0.016525567345113245,-2.0764094531459241e-19,0.02462420731724437,1.9828290111829396e-18,0.02462420731724437,-1.8560777374374204e-17,0.029655454170868876,-1.5360618843783816e-17,-0.029655454170868886,0.02126246529814609,0.9995478053294351,0.02126246529814591,100.0,147.85714285714295,[0.37857687]
-1.0295701190307659e-17,0.018791073530377213,2.3543994729199488e-18,0.018791073530377213,-1.0248085365526658e-19,0.024433028024006216,2.3543994729199488e-18,0.024433028024006216,-1.8504360761465944e-17,0.03082332400708783,-1.3617993035434569e-17,-0.030823324007087823,0.06679630871833635,0.9955282548894379,0.06679630871833594,100.0,147.85714285714295,[0.38110353]
-9.754122055031428e-18,0.019436886160086077,2.7334120269293092e-18,0.019436886160086077,-1.3438583026689627e-20,0.02481298683429874,2.7334120269293092e-18,0.02481298683429874,-1.8464502856854923e-17,0.03151946794029409,-1.4639082990534077e-17,-0.03151946794029412,0.07305346125913174,0.9946488745261421,0.07305346125913202,100.0,147.85714285714295,[0.38074107]
-9.242014537799848e-18,0.018497261200380945,3.1297633205535472e-18,0.018497261200380945,3.870905413776119e-20,0.025780535299452557,3.1297633205535472e-18,0.025780535299452557,-1.8446477350536474e-17,0.031729870347063156,-1.5622717250802845e-17,-0.03172987034706316,0.04336717089153779,0.9981175166170206,0.043367170891537105,100.0,147.85714285714295,[0.38110353]
-8.755139337973587e-18,0.015695396535908856,3.544554512133729e-18,0.015695396535908856,6.699366800339942e-20,0.027468970909828746,3.544554512133729e-18,0.027468970909828746,-1.843746459737725e-17,0.03163684300407419,-1.0942006277236985e-17,-0.03163684300407419,0.0296080573744783,0.9991229783550268,0.029608057374478643,100.0,147.85714285714295,[0.38110353]
-8.326800401375252e-18,0.010279667673893317,3.986306595954917e-18,0.010279667673893317,3.54320747435558e-20,0.030198408870733762,3.986306595954917e-18,0.030198408870733762,-1.8456414271235073e-17,0.031900085670883385,-9.782472460219937e-18,-0.031900085670883385,0.16319889354346834,0.9730016661303181,0.16319889354346875,100.0,147.85714285714295,[0.38067118]
-7.934580306224046e-18,0.00047965553516014043,4.466176351474679e-18,0.00047965553516014043,-6.867243105657579e-20,0.03469086545977631,4.466176351474679e-18,0.03469086545977631,-1.851985116600207e-17,0.03469418129572608,-6.938893903907228e-18,-0.0346941812957261,0.3678900226511654,0.8539987485163254,0.3678900226511656,100.0,147.85714285714295,[0.37413259]
-7.70772685041199e-18,-0.01835470377143718,5.0371645751111315e-18,-0.01835470377143718,-3.2160818405213515e-19,0.04276594923646178,5.0371645751111315e-18,0.04276594923646178,-1.8682318123703918e-17,0.0465383880751454,-8.172990303166558e-18,-0.04653838807514543,0.5818445774359496,0.5682550267413057,0.5818445774359501,100.0,147.85714285714295,[0.34376357]
-7.90761835415788e-18,-0.062349635857221,5.839301725932445e-18,-0.062349635857221,-1.0976312429351497e-18,0.06014054876736362,5.839301725932445e-18,0.06014054876736362,-1.9110436616669007e-17,0.08662772476273227,-6.368396777346312e-18,-0.08662772476273228,0.6921032983935904,0.204904974818635,0.6921032983935906,100.0,147.85714285714295,[0.21067183]
-1.0007988334517321e-17,-0.2225472675845866,7.543256823158059e-18,-0.2225472675845866,-5.671929897390889e-18,0.09850153696276326,7.543256823158059e-18,0.09850153696276326,-2.1013306058843143e-17,0.24337181244629003,-1.558208944373546e-17,-0.2433718124462902,0.6997569051515518,0.1438073273009559,0.699756905151552,100.0,147.85714285714295,[0.34629527]
-9.400072622836787e-18,-0.21579276004898013,7.19135777621272e-18,-0.21579276004898013,-5.570786543087332e-18,0.10010301517987728,7.19135777621272e-18,0.10010301517987728,-2.0943938382481717e-17,0.23788049297422337,-1.4152439120397384e-17,-0.2378804929742232,0.6639799911274926,0.343891178666551,0.6639799911274926,100.0,134.9999999999996,[0.68771548]
-6.70301259888977e-18,-0.05414357291637513,4.652676964326071e-18,-0.05414357291637513,-8.179221867518749e-19,0.06219756587481796,4.652676964326071e-18,0.06219756587481796,-1.8294731584151504e-17,0.0824624986821473,-6.906904858759703e-18,-0.08246249868214729,0.705418466881724,0.06906209643846223,0.7054184668817242,100.0,134.9999999999996,[0.2068992]
-5.886692867779563e-18,-0.011419790213375951,3.00200457701109e-18,-0.011419790213375951,1.6582872310883852e-19,0.044656400781995835,3.00200457701109e-18,0.044656400781995835,-1.714726736220098e-17,0.04609344573059987,-1.263499395003392e-18,-0.04609344573059986,0.6082881210825266,0.5098736348349249,0.608288121082527,100.0,134.9999999999996,[0.34677859]
-5.450468831992067e-18,0.007283449236885746,1.6048550858302163e-18,0.007283449236885746,6.068219721155856e-19,0.03667465529492228,1.6048550858302163e-18,0.03667465529492228,-1.6307622998973156e-17,0.037390894263010906,-1.0099703575319553e-17,-0.03739089426301092,0.39302625194380797,0.831300625866482,0.3930262519438086,100.0,134.9999999999996,[0.37062207]
-5.149902416663267e-18,0.017480844175314446,2.9761586208382287e-19,0.017480844175314446,9.036090509244186e-19,0.032395887928624016,2.9761586208382287e-19,0.032395887928624016,-1.5574198552564492e-17,0.03681132254844412,-3.3021505191258012e-18,-0.03681132254844415,0.2025877192225513,0.9580795541292015,0.2025877192225511,100.0,134.9999999999996,[0.37941794]
-4.917164811563816e-18,0.0235986705325545,-9.65382020190478e-19,0.0235986705325545,1.1211784383363319e-18,0.02994935780799215,-9.65382020190478e-19,0.02994935780799215,-1.4888813861000764e-17,0.03812953296350738,-9.485993399409786e-18,-0.03812953296350739,0.08327780045871623,0.9930405912657935,0.08327780045871651,100.0,134.9999999999996,[0.37095629]
-4.704470619887137e-18,0.02733007558570928,-2.202244614023283e-18,0.02733007558570928,1.2932993434191023e-18,0.028595337407968414,-2.202244614023283e-18,0.028595337407968414,-1.4240196623881982e-17,0.039555358082011334,-5.808908847899906e-18,-0.03955535808201134,0.01599355793513753,0.9997441733809458,0.015993557935137796,100.0,134.9999999999996,[0.36884002]
-4.5432924095796484e-18,0.029413827493573783,-3.423775777093936e-18,0.029413827493573783,1.413055347179656e-18,0.028010695967980233,-3.423775777093936e-18,0.028010695967980233,-1.3610312856288419e-17,0.040617389581709226,-9.096648213507119e-18,-0.04061738958170925,0.01727254680868258,0.9997016146098213,0.01727254680868258,100.0,134.9999999999996,[0.36884002]
-4.382690744159109e-18,0.030155520172826994,-4.620370313978864e-18,0.030155520172826994,1.5296933453199793e-18,0.028068624057312756,-4.620370313978864e-18,0.028068624057312756,-1.3001871471328608e-17,0.041197124333678094,-1.4874610681997067e-18,-0.04119712433367812,0.025328177018023302,0.9993582775450891,0.02532817701802328,100.0,134.9999999999996,[0.36884002]
-4.2540703627617074e-18,0.02959316989756053,-5.8114272644036625e-18,0.02959316989756053,1.6136346774542775e-18,0.028769082001719737,-5.8114272644036625e-18,0.028769082001719737,-1.2412286495612555e-17,0.041272457932712905,-2.2332196121357594e-18,-0.041272457932712885,0.00998350882304965,0.9999003245839858,0.009983508823049872,100.0,134.9999999999996,[0.36608362]
-4.141762810224464e-18,0.02750933836151139,-6.98294474826919e-18,0.02750933836151139,1.665287376269086e-18,0.03023880080282661,-6.98294474826919e-18,0.03023880080282661,-1.18497101042697e-17,0.04087968653354804,1.694612183643835e-18,-0.040879686533548044,0.0333840921098513,0.9988848806484167,0.03338409210985134,100.0,134.9999999999996,[0.37136669]
-4.048430367348881e-18,0.023299214229676218,-8.13348564265871e-18,0.023299214229676218,1.6774594682297746e-18,0.03280083622360364,-8.13348564265871e-18,0.03280083622360364,-1.132512632525656e-17,0.04023367048490623,2.356295428041999e-19,-0.04023367048490623,0.11808047686691144,0.9859584179699291,0.1180804768669115,100.0,134.9999999999996,[0.37895004]
-4.0245207117430355e-18,0.015526010053565792,-9.227056695406537e-18,0.015526010053565792,1.6118965641921505e-18,0.03719484977639544,-9.227056695406537e-18,0.03719484977639544,-1.0865929519304511e-17,0.04030525819383929,5.1928863375113875e-18,-0.04030525819383931,0.26880909208692444,0.9249234260320184,0.2688090920869245,100.0,134.9999999999996,[0.37465154]
-4.116242220375672e-18,0.00038196417947426904,-1.0237890377401638e-17,0.00038196417947426904,1.3800089388708855e-18,0.045291542337446186,-1.0237890377401638e-17,0.045291542337446186,-1.0545385399712849e-17,0.04529315294764852,-6.938893903907228e-18,-0.045293152947648525,0.4957656426555287,0.7130447777837665,0.4957656426555285,100.0,134.9999999999996,[0.3873186]
-4.484145687059657e-18,-0.035617583576980666,-1.1001561703959372e-17,-0.035617583576980666,6.339752226231015e-19,0.06294741411428444,-1.1001561703959372e-17,0.06294741411428444,-1.0601698149755446e-17,0.07232557779609101,-1.0603248006606772e-17,-0.07232557779609104,0.6813979279166741,0.26719604724195717,0.681397927916674,100.0,134.9999999999996,[0.32494664]
-6.3714229814823224e-18,-0.17838103173300973,-1.0859342176023566e-17,-0.17838103173300973,-3.918618742471826e-18,0.10096781574101751,-1.0859342176023566e-17,0.10096781574101751,-1.2536339030571074e-17,0.2049738819890111,-1.9646018416880595e-17,-0.2049738819890111,0.6814254693410227,0.26705553629672996,0.6814254693410224,100.0,134.9999999999996,[0.65997675]
-5.836050182342076e-18,-0.17160438846023837,-1.1126926567422055e-17,-0.17160438846023837,-4.055466016672436e-18,0.09947341417001657,-1.1126926567422055e-17,0.09947341417001657,-1.2171969020969973e-17,0.19835076572943203,-1.3436887587693979e-17,-0.19835076572943194,0.625736592137792,0.46573322247780974,0.6257365921377921,100.0,122.14285714285755,[0.7707859]
-3.48035560307681e-18,-0.027342580059051935,-1.1662388391875727e-17,-0.027342580059051935,2.1082042079409311e-19,0.061222874216420975,-1.1662388391875727e-17,0.061222874216420975,-8.884696604812281e-18,0.06705115220192244,-1.4062940756345835e-17,-0.06705115220192243,0.700092429762468,0.14050330806983619,0.7000924297624681,100.0,122.14285714285755,[0.17371996]
-2.5767232359988754e-18,0.007432223516081656,-1.131041330247517e-17,0.007432223516081656,6.757079579418679e-19,0.043957326378574246,-1.131041330247517e-17,0.043957326378574246,-7.514813235518445e-18,0.04458121228438608,-3.570797814105092e-18,-0.0445812122843861,0.5276280130518805,0.6657457169864852,0.5276280130518802,100.0,122.14285714285755,[0.35461566]
-1.9634151339051083e-18,0.022491395043507095,-1.0709226950647e-17,0.022491395043507095,6.345904511283849e-19,0.035990356878113416,-1.0709226950647e-17,0.035990356878113416,-6.552720912624092e-18,0.042440177181735005,1.0193650734256913e-17,-0.042440177181735,0.3083626232632631,0.8999027642742286,0.308362623263263,100.0,122.14285714285755,[0.37908628]
-1.4526557142768372e-18,0.030708117750483117,-1.0028571198946449e-17,0.030708117750483117,4.3190180382940486e-19,0.03160513166712505,-1.0028571198946449e-17,0.03160513166712505,-5.7473152610098506e-18,0.0440666863228204,6.213275141590902e-18,-0.04406668632282043,0.1672524938138441,0.9716240047601231,0.16725249381384436,100.0,122.14285714285755,[0.37338567]
-9.826105379887324e-19,0.035666371268048745,-9.300850996504299e-18,0.035666371268048745,1.554117016128344e-19,0.028982004197454187,-9.300850996504299e-18,0.028982004197454187,-5.011099235130185e-18,0.045957008243917984,7.68452741362428e-18,-0.04595700824391799,0.08561089108744827,0.9926437178839275,0.0856108910874483,100.0,122.14285714285755,[0.36859906]
-5.304721676011755e-19,0.03872566541770992,-8.548033869321e-18,0.03872566541770992,-1.8185698891358146e-19,0.02739889675279126,-8.548033869321e-18,0.02739889675279126,-4.3153102399723704e-18,0.04743813555900492,1.1306101791349317e-17,-0.04743813555900497,0.038695833659079,0.9985015097208706,0.03869583365907874,100.0,122.14285714285755,[0.36900946]
-9.026318921270521e-20,0.040477945019993036,-7.782202619087525e-18,0.040477945019993036,-5.288970024573728e-19,0.02653562540354484,-7.782202619087525e-18,0.02653562540354484,-3.650998052061613e-18,0.0484004488470803,3.3286419719178403e-18,-0.048400448847080314,0.01362761870168572,0.9998142707608464,0.013627618701685693,100.0,122.14285714285755,[0.36547662]
3.3041957043099143e-19,0.04116942795625569,-7.002406317679213e-18,0.04116942795625569,-9.24914186199973e-19,0.02625882190522622,-7.002406317679213e-18,0.02625882190522622,-3.017616861440598e-18,0.048830805093667266,1.328385045973886e-18,-0.04883080509366723,0.004786231832792424,0.9999770917224482,0.0047862318327923595,100.0,122.14285714285755,[0.36244325]
7.337127188521389e-19,0.04083435690869264,-6.207289051282203e-18,0.04083435690869264,-1.3327394119608587e-18,0.026551964268648056,-6.207289051282203e-18,0.026551964268648056,-2.4070314501824435e-18,0.04870781775721487,5.360002009890504e-18,-0.048707817757214854,0.010989651518346398,0.9998792202656331,0.010989651518346773,100.0,122.14285714285755,[0.3637264]
1.1212568653981596e-18,0.03930592225905979,-5.3919827779810864e-18,0.03930592225905979,-1.7773334169481403e-18,0.027510117977316995,-5.3919827779810864e-18,0.027510117977316995,-1.8265630904912794e-18,0.04797668304250672,5.4678157619796825e-18,-0.04797668304250671,0.035099433955990016,0.9987672699242494,0.035099433955990064,100.0,122.14285714285755,[0.36900946]
1.5001146849341843e-18,0.03611285453392937,-4.559311269436098e-18,0.03611285453392937,-2.271041574536139e-18,0.029395296328432702,-4.559311269436098e-18,0.029395296328432702,-1.3036135618746026e-18,0.046564167648795264,5.846414571868741e-18,-0.0465641676487953,0.08620147552027,0.9925414909394249,0.08620147552027005,100.0,122.14285714285755,[0.36859906]
1.8339299351772825e-18,0.03012660498013089,-3.683507393970638e-18,0.03012660498013089,-2.8297363562311026e-18,0.03281830964609149,-3.683507393970638e-18,0.03281830964609149,-8.514804906128449e-19,0.04454945314653806,2.378358385152056e-18,-0.044549453146538076,0.18665525641715397,0.9645307825589046,0.18665525641715391,100.0,122.14285714285755,[0.38013693]
2.104778853024349e-18,0.018320458271030637,-2.73907546762717e-18,0.018320458271030637,-3.563572412236217e-18,0.039330438772564966,-2.73907546762717e-18,0.039330438772564966,-5.941560016304147e-19,0.04338804680212116,3.162316538839035e-18,-0.043388046802121175,0.3838816256332723,0.839803426405437,0.3838816256332722,100.0,122.14285714285755,[0.37279367]
2.1857113415298793e-18,-0.010349713112116611,-1.5904858438350478e-18,-0.010349713112116611,-4.811829716274973e-18,0.05376784624262369,-1.5904858438350478e-18,0.05376784624262369,-8.013221452734017e-19,0.05475488883262884,5.600649129709043e-19,-0.05475488883262882,0.6590410769653824,0.36239442289392165,0.6590410769653821,100.0,122.14285714285755,[0.33644049]
1.1140754901151273e-18,-0.13754946806417795,2.8998856536479065e-19,-0.13754946806417795,-9.857694131166888e-18,0.08391422638468758,2.8998856536479065e-19,0.08391422638468758,-3.2690889958904277e-18,0.16112558317808795,-3.307826886930962e-18,-0.16112558317808795,0.6329726451824977,0.4457479791332137,0.6329726451824976,100.0,122.14285714285755,[0.51046717]
1.2907992158670549e-18,-0.13209268079882577,6.417768605809264e-19,-0.13209268079882577,-9.936632293677902e-18,0.0796185045776979,6.417768605809264e-19,0.0796185045776979,-3.2999500447196214e-18,0.15423223590355356,-6.717436662700589e-18,-0.15423223590355356,0.5445602673168477,0.6378935887117902,0.5445602673168477,100.0,109.28571428571402,[0.41662596]
2.2041819744154587e-18,-0.0036430202345659646,-1.5026717780885728e-19,-0.0036430202345659646,-5.062205196640664e-18,0.048599061777355415,-1.5026717780885728e-19,0.048599061777355415,-4.1611915250545334e-19,0.048735412197586515,3.469446951953614e-18,-0.048735412197586515,0.6830165364945131,0.25879880554221807,0.6830165364945131,100.0,109.28571428571402,[0.1808429]
2.0132947452275153e-18,0.024092668982902587,-2.2983315424892736e-19,0.024092668982902587,-3.988093063739961e-18,0.03502876370838175,-2.2983315424892736e-19,0.03502876370838175,1.8812426499625726e-19,0.042514362110436965,-3.206162888287356e-19,-0.04251436211043699,0.41756370553016114,0.8070198904908362,0.4175637055301613,100.0,109.28571428571402,[0.25360213]
1.6558284367175715e-18,0.03587814476186688,-1.3437907388150232e-19,0.03587814476186688,-3.4278545142215555e-18,0.028654292687613866,-1.3437907388150232e-19,0.028654292687613866,2.8798841033189475e-19,0.04591633435914628,9.043669039054116e-19,-0.04591633435914628,0.23402466387689488,0.9436444846416538,0.23402466387689488,100.0,109.28571428571402,[0.25967725]
1.2565668632044307e-18,0.04226722841619213,3.457249029985829e-20,0.04226722841619213,-3.0415315512159526e-18,0.025030714546947015,3.457249029985829e-20,0.025030714546947015,1.9793241693793703e-19,0.04912285892247419,-2.414206296591175e-18,-0.04912285892247418,0.1391401176586963,0.9804489050000761,0.13914011765869616,100.0,109.28571428571402,[0.29430031]
7.894807187625813e-19,0.04610717354743154,2.398767860933076e-19,0.04610717354743154,-2.7165290121331605e-18,0.022749883035636565,2.398767860933076e-19,0.022749883035636565,3.6248670029207565e-20,0.05141428430570748,1.3161607631534561e-20,-0.051414284305707464,0.08588824783301478,0.992595797778909,0.0858882478330149,100.0,109.28571428571402,[0.28625231]
3.240055085636787e-19,0.04846453853742974,4.575395043583587e-19,0.04846453853742974,-2.437111010434405e-18,0.021250389355258335,4.575395043583587e-19,0.021250389355258335,-2.0058886870105986e-19,0.052918716380842924,-7.576676815256151e-19,-0.052918716380842855,0.05413087087724859,0.9970655433000084,0.05413087087724872,100.0,109.28571428571402,[0.28666271]
-1.3440702677009293e-19,0.049800250990772434,6.890192294712325e-19,0.049800250990772434,-2.203277016207106e-18,0.020278415802090118,6.890192294712325e-19,0.020278415802090118,-4.591326865298785e-19,0.053770616010851015,-1.372979166583384e-18,-0.053770616010851015,0.03540725246056058,0.9987455396377939,0.03540725246056053,100.0,109.28571428571402,[0.28666271]
-6.232259459394896e-19,0.05030417450654158,9.266008317027755e-19,0.05030417450654158,-1.978942764799975e-18,0.01972045389236253,9.266008317027755e-19,0.01972045389236253,-7.648880058412232e-19,0.054031530373527155,-1.315607333941674e-18,-0.05403153037352716,0.026165902043550286,0.9993151110337991,0.02616590204355035,100.0,109.28571428571402,[0.31855714]
-1.118547952289625e-18,0.049999987936189795,1.1853507855251819e-18,0.049999987936189795,-1.7982941090467487e-18,0.01954677538251484,1.1853507855251819e-18,0.01954677538251484,-1.0907190632427152e-18,0.05368496271278962,-2.713354440573831e-18,-0.053684962712789636,0.02549888400234715,0.9993495954015639,0.02549888400234715,100.0,109.28571428571402,[0.31855714]
-1.6252821559608484e-18,0.04875274498204209,1.4417665406721272e-18,0.04875274498204209,-1.633114595087381e-18,0.019801955323851456,1.4417665406721272e-18,0.019801955323851456,-1.4591471433808178e-18,0.05262079035829697,-2.3335823901631923e-18,-0.05262079035829699,0.03478672112919664,0.9987891509553749,0.03478672112919648,100.0,109.28571428571402,[0.28666271]
-2.1320163596320715e-18,0.04618499568873178,1.7188339826445172e-18,0.04618499568873178,-1.5238300613404176e-18,0.02063507382728614,1.7188339826445172e-18,0.02063507382728614,-1.884009323542318e-18,0.0505851766689188,-2.9067229350510506e-18,-0.05058517666891875,0.059033671803632275,0.9965089318148441,0.05903367180363214,100.0,109.28571428571402,[0.28666271]
-2.657208478286956e-18,0.041389986394804505,2.0189438782857182e-18,0.041389986394804505,-1.4867199521734828e-18,0.022407115952787944,2.0189438782857182e-18,0.022407115952787944,-2.410887624026498e-18,0.04706601554289241,-4.914252655169768e-18,-0.047066015542892345,0.11236929552829612,0.9872923998719673,0.11236929552829647,100.0,109.28571428571402,[0.29424606]
-3.2361231342938047e-18,0.031906097454858826,2.3632596112561574e-18,0.031906097454858826,-1.6151165117449423e-18,0.02604269667069714,2.3632596112561574e-18,0.02604269667069714,-3.1379955124825545e-18,0.04118520492459502,-7.053237471516534e-18,-0.04118520492459505,0.24110961621227195,0.9400703728657455,0.24110961621227178,100.0,109.28571428571402,[0.26767518]
-3.9414834104700756e-18,0.00844532622108025,2.829165176709025e-18,0.00844532622108025,-2.266884940259272e-18,0.034399783020338096,2.829165176709025e-18,0.034399783020338096,-4.415874399826078e-18,0.035421301597016557,5.004829056609367e-19,-0.03542130159701655,0.5924959257221637,0.5457995566187941,0.5924959257221636,100.0,109.28571428571402,[0.2619233]
-5.517771968942138e-18,-0.10814627797234429,3.709605191097104e-18,-0.10814627797234429,-6.705676204472722e-18,0.05069875580589053,3.709605191097104e-18,0.05069875580589053,-8.215358196081013e-18,0.11944028331989522,-5.296875079284601e-18,-0.11944028331989544,0.49476140398099056,0.7144384551950702,0.4947614039809904,100.0,109.28571428571402,[0.39503203]
-5.661564807327717e-18,-0.1050924232629503,3.2934147653496527e-18,-0.1050924232629503,-6.591277683134199e-18,0.04445156418781024,3.2934147653496527e-18,0.04445156418781024,-8.467945796511567e-18,0.11410678764219999,-6.726964998364208e-18,-0.11410678764219997,0.34664563707448776,0.8715925680009238,0.346645637074488,100.0,96.42857142857196,[0.42809773]
-4.676739234754932e-18,0.012249618749659026,2.1444894419381527e-18,0.012249618749659026,-1.9358953826095075e-18,0.026807587809305457,2.1444894419381527e-18,0.026807587809305457,-4.900423813339085e-18,0.02947371581028799,-6.909603147540524e-18,-0.029473715810288,0.6061951730185005,0.5148347544777268,0.6061951730185003,100.0,96.42857142857196,[0.31208678]
-4.528107234689553e-18,0.03524762929723835,1.3801435366661844e-18,0.03524762929723835,-1.0721443025351821e-18,0.019620725562267877,1.3801435366661844e-18,0.019620725562267877,-3.8678006559703866e-18,0.040340652481899275,-6.146540310859439e-18,-0.04034065248189933,0.2725817882598507,0.9227124890333522,0.2725817882598505,100.0,96.42857142857196,[0.3007988]
-4.505910256541999e-18,0.044775453128078416,7.118586603828633e-19,0.044775453128078416,-7.293193461301938e-19,0.016101558062896027,7.118586603828633e-19,0.016101558062896027,-3.4071084367178134e-18,0.04758257427753945,-4.3104097788947524e-18,-0.04758257427753951,0.16327449695804053,0.9729762984195441,0.16327449695804036,100.0,96.42857142857196,[0.294477]
-4.522242162255034e-18,0.04984909072289458,7.285814428626597e-20,0.04984909072289458,-5.500983411063359e-19,0.013957426986412372,7.285814428626597e-20,0.013957426986412372,-3.150988968942114e-18,0.05176622078132041,-3.2675586561166683e-18,-0.05176622078132039,0.11321553166927953,0.9870990258214648,0.11321553166927954,100.0,96.42857142857196,[0.33345877]
-4.542908752871789e-18,0.05283056768132851,-5.52154534394558e-19,0.05283056768132851,-4.408780592596877e-19,0.0124705882566352,-5.52154534394558e-19,0.0124705882566352,-2.9963414012695192e-18,0.05428245069078923,-2.7840075221442044e-18,-0.05428245069078923,0.08437259293152806,0.9928557453749368,0.08437259293152809,100.0,96.42857142857196,[0.32546502]
-4.5842059000498634e-18,0.05459221040185399,-1.1683586749766428e-18,0.05459221040185399,-3.8212333957068945e-19,0.011351496936376552,-1.1683586749766428e-18,0.011351496936376552,-2.8994829200871697e-18,0.055759895258661166,-2.5120488723994303e-18,-0.05575989525866116,0.06553346160848679,0.9956961036477034,0.06553346160848683,100.0,96.42857142857196,[0.32587542]
-4.628758830118947e-18,0.0555056964197678,-1.773982845944399e-18,0.0555056964197678,-3.5185811119853975e-19,0.010462974280302427,-1.773982845944399e-18,0.010462974280302427,-2.848207519029262e-18,0.05648323791917115,-2.273720162284315e-18,-0.05648323791917114,0.05236044724844571,0.9972546149945287,0.052360447248445754,100.0,96.42857142857196,[0.32587542]
-4.6743970211517e-18,0.055718730479226854,-2.3748513827027645e-18,0.055718730479226854,-3.690739773339487e-19,0.0097338543606647,-2.3748513827027645e-18,0.0097338543606647,-2.8313859740923836e-18,0.056562574613708616,-2.0566158453391054e-18,-0.056562574613708644,0.042931172416115486,0.998155212815099,0.04293117241611553,100.0,96.42857142857196,[0.32587542]
-4.731432571953303e-18,0.055239742222138795,-2.9788406740028688e-18,0.055239742222138795,-3.7652415077314373e-19,0.009127091799287966,-2.9788406740028688e-18,0.009127091799287966,-2.8449549156137327e-18,0.055988685691673236,-1.9523573980879464e-18,-0.05598868569167323,0.03643363564678119,0.9986717080137575,0.036433635646781294,100.0,96.42857142857196,[0.32587542]
-4.7960713084515524e-18,0.05394058536237272,-3.5750899628021e-18,0.05394058536237272,-4.341692997588687e-19,0.008627943677206573,-3.5750899628021e-18,0.008627943677206573,-2.9041026979588842e-18,0.0546262588992919,-1.877195351893588e-18,-0.05462625889929191,0.03280464397928375,0.9989232756657465,0.03280464397928385,100.0,96.42857142857196,[0.32587542]
-4.8558263706132886e-18,0.051479338366757554,-4.1739514556640304e-18,0.051479338366757554,-5.308853006962931e-19,0.00824303086395451,-4.1739514556640304e-18,0.00824303086395451,-3.031620861190059e-18,0.05213511135984293,-1.7066751594274664e-18,-0.05213511135984291,0.032921975970632594,0.9989155554882398,0.03292197597063268,100.0,96.42857142857196,[0.32587542]
-4.947054000721442e-18,0.0470406834720833,-4.765335385230292e-18,0.0470406834720833,-7.06826941719336e-19,0.00801201665104757,-4.765335385230292e-18,0.00801201665104757,-3.2465046516469544e-18,0.04771811304250615,-1.6780667706978778e-18,-0.04771811304250614,0.03993197141641617,0.9984041643130287,0.03993197141641631,100.0,96.42857142857196,[0.32587542]
-5.0540263934040836e-18,0.038400235776100064,-5.348885451529962e-18,0.038400235776100064,-1.060753301717291e-18,0.00804971954712069,-5.348885451529962e-18,0.00804971954712069,-3.685765086517373e-18,0.03923488361709988,-1.5630952570563092e-18,-0.03923488361709987,0.06667643511969233,0.9955443264865,0.06667643511969248,100.0,96.42857142857196,[0.32587542]
-5.266813849694828e-18,0.016993901581415883,-5.915699586893947e-18,0.016993901581415883,-1.9139012285019164e-18,0.008669855331040704,-5.915699586893947e-18,0.008669855331040704,-4.712424077799108e-18,0.019077711666235658,-1.1097138805193911e-20,-0.019077711666235668,0.24880052331003427,0.9360537373470106,0.24880052331003438,100.0,96.42857142857196,[0.30316211]
-6.250136590190969e-18,-0.09604933380238011,-6.465471866165953e-18,-0.09604933380238011,-6.5578678210346784e-18,0.007891650266723125,-6.465471866165953e-18,0.007891650266723125,-8.346963575041086e-18,0.09637298723093163,-9.392730042570058e-18,-0.09637298723093164,0.13644340483575643,0.9812066013606164,0.13644340483575634,100.0,96.42857142857196,[0.44979964]
-6.018028521236458e-18,-0.09600833086196864,-6.944740899537306e-18,-0.09600833086196864,-6.5525849238082705e-18,0.000930198444349547,-6.944740899537306e-18,0.000930198444349547,-8.032262271555586e-18,0.09601283697530819,-8.166656629365448e-18,-0.09601283697530817,0.07235955746344645,0.994750314846589,0.07235955746344654,100.0,83.57142857142804,[0.44716629]
-4.5704896428312974e-18,0.017128250285752766,-6.715407121655879e-18,0.017128250285752766,-1.86793515406034e-18,0.0001575949108047016,-6.715407121655879e-18,0.0001575949108047016,-3.763977533750191e-18,0.01712897527604326,-3.640483286095623e-18,-0.017128975276043262,0.08563230932738086,0.9926400229683062,0.0856323093273814,100.0,83.57142857142804,[0.31759604]
-3.908126473389474e-18,0.03862606810929104,-6.504557655028499e-18,0.03862606810929104,-9.87124664539826e-19,0.0007787454958435677,-6.504557655028499e-18,0.0007787454958435677,-2.1109004031475475e-18,0.03863391750950047,-1.8495218206830825e-18,-0.03863391750950048,0.09331831490249738,0.9912534409562052,0.09331831490249762,100.0,83.57142857142804,[0.32051518]
-3.325544822329602e-18,0.04735720885525563,-6.312666771414193e-18,0.04735720885525563,-6.144872238231544e-19,0.0008128611387579681,-6.312666771414193e-18,0.0008128611387579681,-1.045762869700315e-18,0.04736418450465712,-8.298470843377945e-19,-0.04736418450465712,0.09121819776878307,0.9916443318002833,0.09121819776878325,100.0,83.57142857142804,[0.31872221]
-2.796677230020414e-18,0.051885985170781426,-6.120556205915975e-18,0.051885985170781426,-4.0558846476105707e-19,0.0005736480608575682,-6.120556205915975e-18,0.0005736480608575682,-1.9306569980398126e-19,0.05188915618161733,-5.809115608486643e-20,-0.05188915618161734,0.08693409746411812,0.9924136866227704,0.08693409746411829,100.0,83.57142857142804,[0.31759604]
-2.2553291366290266e-18,0.05443680531468001,-5.939807628521898e-18,0.05443680531468001,-2.8120407204936515e-19,0.0001759210077136005,-5.939807628521898e-18,0.0001759210077136005,5.559895779744883e-19,0.0544370895719943,5.943510223593072e-19,-0.05443708957199431,0.08144117224802899,0.9933451922296365,0.08144117224802916,100.0,83.57142857142804,[0.31759604]
-1.7405656975469043e-18,0.05582496006532882,-5.756770491173306e-18,0.05582496006532882,-1.9616025679255032e-19,-0.0003406546997412222,-5.756770491173306e-18,-0.0003406546997412222,1.2412868339625302e-18,0.05582599942607398,1.1709202314114744e-18,-0.055825999426074,0.07488167504829768,0.9943769252571795,0.07488167504829783,100.0,83.57142857142804,[0.31661208]
-1.2258043781151016e-18,0.0563923275215393,-5.57780391042688e-18,0.0563923275215393,-1.5004978117294642e-19,-0.0009694504114646703,-5.57780391042688e-18,-0.0009694504114646703,1.889143116616552e-18,0.056400659902139855,1.696526958704912e-18,-0.05640065990213985,0.06708136597186695,0.9954899199282214,0.06708136597186709,100.0,83.57142857142804,[0.31800644]
-7.181014942477905e-19,0.05626700501871058,-5.401381274378955e-18,0.05626700501871058,-1.1574191596768407e-19,-0.0017251956161712682,-5.401381274378955e-18,-0.0017251956161712682,2.5048469534841227e-18,0.0562934468094614,2.1709417003051763e-18,-0.0562934468094614,0.05759958206531793,0.9966767662044709,0.05759958206531807,100.0,83.57142857142804,[0.31800644]
-2.185338283073618e-19,0.055440513280775615,-5.2317760961498025e-18,0.055440513280775615,-1.184684486695009e-19,-0.0026449168188873713,-5.2317760961498025e-18,-0.0026449168188873713,3.0824325887405396e-18,0.05550356833406923,2.5791566046200835e-18,-0.05550356833406923,0.04559694356405531,0.9979187529429601,0.04559694356405544,100.0,83.57142857142804,[0.31800644]
2.783185655735733e-19,0.05376510071349907,-5.068530498150841e-18,0.05376510071349907,-1.4059375614062138e-19,-0.0037997560530402424,-5.068530498150841e-18,-0.0037997560530402424,3.6062983362078925e-18,0.05389920408313388,2.881385232135678e-18,-0.05389920408313388,0.0294380817165937,0.9991330235207394,0.029438081716593838,100.0,83.57142857142804,[0.33159612]
7.654036107814822e-19,0.050869050463231355,-4.910881008832554e-18,0.050869050463231355,-2.2376539025259023e-19,-0.00532686408391238,-4.910881008832554e-18,-0.00532686408391238,4.087702188646514e-18,0.05114719714705054,3.0496430081739003e-18,-0.051147197147050516,0.005559791124769019,0.9999690882448806,0.005559791124769129,100.0,83.57142857142804,[0.31698156]
1.2372928828476975e-18,0.04588001501453254,-4.7686633024712415e-18,0.04588001501453254,-3.761218808859144e-19,-0.007515756177178331,-4.7686633024712415e-18,-0.007515756177178331,4.454476941535276e-18,0.04649153007428906,2.8713721453186194e-18,-0.04649153007428905,0.03546165758094867,0.9987416791559383,0.035461657580948505,100.0,83.57142857142804,[0.31800644]
1.6560064873444235e-18,0.03643599888754783,-4.659020812776545e-18,0.03643599888754783,-6.938459382054045e-19,-0.0110841526069575,-4.659020812776545e-18,-0.0110841526069575,4.62848221575223e-18,0.03808464853386085,1.806490201762044e-18,-0.03808464853386083,0.12875868173012472,0.9832814468697356,0.12875868173012447,100.0,83.57142857142804,[0.33127177]
1.9819302794474008e-18,0.013521224550529039,-4.640812089183589e-18,0.013521224550529039,-1.5319523626481646e-18,-0.01832472614273629,-4.640812089183589e-18,-0.01832472614273629,4.2210589286832115e-18,0.02277321017230798,-1.9499315828787543e-18,-0.022773210172307986,0.5183975838270417,0.6800940303844542,0.5183975838270415,100.0,83.57142857142804,[0.31993183]
1.4608036501056377e-18,-0.10373709645337237,-5.013551604310967e-18,-0.10373709645337237,-6.154635480082076e-18,-0.03602709514183821,-5.013551604310967e-18,-0.03602709514183821,1.2883685068629766e-18,0.10981501156460956,4.303942909870042e-18,-0.10981501156460965,0.30531139984352423,0.9019810963934751,0.3053113998435242,100.0,83.57142857142804,[0.43893235]
9.041983137132861e-19,-0.10672277537657784,-4.8173366340445405e-18,-0.10672277537657784,-6.050844682529255e-18,-0.042323753193399975,-4.8173366340445405e-18,-0.042323753193399975,8.276964242884399e-19,0.11480875780381623,3.315208495300855e-18,-0.11480875780381614,0.46313798530878003,0.7556496629578076,0.46313798530878025,100.0,70.71428571428592,[0.43682735]
5.969910339329695e-19,0.009943001098452791,-3.49837898974494e-18,0.009943001098452791,-1.215288527922943e-18,-0.02607034094645639,-3.49837898974494e-18,-0.02607034094645639,2.5732909922187544e-18,0.027902077842130574,-2.300001796253476e-18,-0.027902077842130574,0.540386898787957,0.6449527108530271,0.540386898787957,100.0,70.71428571428592,[0.30731807]
-5.67574526796629e-19,0.03347488950121195,-2.590056962573814e-18,0.03347488950121195,-1.7909455463447527e-19,-0.017762780215123404,-2.590056962573814e-18,-0.017762780215123404,1.796465645689746e-18,0.03789570672370592,-3.652772463669442e-19,-0.03789570672370591,0.10654334095445872,0.9885833465098044,0.10654334095445879,100.0,70.71428571428592,[0.31212733]
-1.875394534730611e-18,0.043027845365783864,-1.805319623792213e-18,0.043027845365783864,3.586935860450313e-19,-0.014180905578379034,-1.805319623792213e-18,-0.014180905578379034,4.662939251348739e-19,0.04530445408394976,-9.339731206128285e-19,-0.04530445408394974,0.01289330085121249,0.9998337489734584,0.012893300851212704,100.0,70.71428571428592,[0.31227417]
-3.2114228491187235e-18,0.04789008887185959,-1.0683172076439506e-18,0.04789008887185959,7.156506485656753e-19,-0.012466779567795102,-1.0683172076439506e-18,-0.012466779567795102,-1.067770669056839e-18,0.04948617185584882,-1.784712076273808e-18,-0.049486171855848825,0.057869046101402095,0.9966455473269459,0.05786904610140218,100.0,70.71428571428592,[0.30492683]
-4.547455402807475e-18,0.05052327822612853,-3.5127421377454394e-19,0.05052327822612853,1.0236361049695998e-18,-0.011695769876626102,-3.5127421377454394e-19,-0.011695769876626102,-2.7004578234094443e-18,0.051859354756126574,-2.969679007818704e-18,-0.05185935475612659,0.07700195117661739,0.9940530162068762,0.07700195117661743,100.0,70.71428571428592,[0.30353247]
-5.9312394388976874e-18,0.05183416112731709,3.5340678071334655e-19,0.05183416112731709,1.2544329052451058e-18,-0.011506857966306436,3.5340678071334655e-19,-0.011506857966306436,-4.383883047463922e-18,0.05309602659361074,-4.430179042989575e-18,-0.05309602659361077,0.08334904736299241,0.9930286363480982,0.08334904736299244,100.0,70.71428571428592,[0.30451643]
-7.310144039952026e-18,0.05220016835495375,1.0380435669095948e-18,0.05220016835495375,1.4669169865838476e-18,-0.011750921370022618,1.0380435669095948e-18,-0.011750921370022618,-6.116414210474128e-18,0.053506464369550415,-5.738749613067479e-18,-0.05350646436955043,0.08126283838287136,0.9933744018223536,0.08126283838287134,100.0,70.71428571428592,[0.30353247]
-8.713454294787013e-18,0.05175622385404859,1.7260545714584633e-18,0.05175622385404859,1.6576953187366183e-18,-0.012383336271604269,1.7260545714584633e-18,-0.012383336271604269,-7.864816255252842e-18,0.05321704355604528,-7.189527089106174e-18,-0.05321704355604525,0.07182505140932152,0.9948277860916918,0.0718250514093216,100.0,70.71428571428592,[0.30492683]
-1.0103749896659243e-17,0.05047862760564906,2.3952763994221495e-18,0.05047862760564906,1.817816883359753e-18,-0.013433777017529585,2.3952763994221495e-18,-0.013433777017529585,-9.659344010637832e-18,0.05223560289597987,-8.506911499398944e-18,-0.05223560289597988,0.05404076615460531,0.9970753187131083,0.05404076615460526,100.0,70.71428571428592,[0.30492683]
-1.150489386886753e-17,0.048177499081182795,3.0560189637164425e-18,0.048177499081182795,1.9475508760438496e-18,-0.01501569424885941,3.0560189637164425e-18,-0.01501569424885941,-1.1486835507969125e-17,0.050463278643907,-9.709063334140938e-18,-0.05046327864390701,0.024366775352780378,0.9994060838907347,0.02436677535278019,100.0,70.71428571428592,[0.31328035]
-1.2929917821577187e-17,0.044391902114968886,3.6960053159289026e-18,0.044391902114968886,2.0257357678225116e-18,-0.01738284581329897,3.6960053159289026e-18,-0.01738284581329897,-1.3364245830153741e-17,0.04767393734477891,-1.0759395074490675e-17,-0.047673937344778906,0.0258919220063523,0.9993293835115796,0.025891922006352375,100.0,70.71428571428592,[0.31420817]
-1.439373561443739e-17,0.038055287433095095,4.30560396372418e-18,0.038055287433095095,2.0328365963933965e-18,-0.021096583174517253,4.30560396372418e-18,-0.021096583174517253,-1.5336892041200998e-17,0.04351173086944266,-1.2788919905345587e-17,-0.04351173086944267,0.11934448493038395,0.9856539899140077,0.1193444849303839,100.0,70.71428571428592,[0.31212733]
-1.5894994910544195e-17,0.026320457138219303,4.8437782781963006e-18,0.026320457138219303,1.878640779195181e-18,-0.027565011814207663,4.8437782781963006e-18,-0.027565011814207663,-1.7496064300903485e-17,0.03811294190012426,-1.2282390174407753e-17,-0.03811294190012429,0.3214306289298845,0.8907102231205601,0.32143062892988467,100.0,70.71428571428592,[0.29462903]
-1.757856956994621e-17,-0.001366183577112366,5.205614047123021e-18,-0.001366183577112366,1.1990432629167241e-18,-0.04123310166647044,5.205614047123021e-18,-0.04123310166647044,-2.015703409868269e-17,0.04125572845804398,-1.3877787807814457e-17,-0.04125572845804398,0.6747940148928716,0.2988412202650725,0.6747940148928718,100.0,70.71428571428592,[0.25210993]
-2.0379424630746687e-17,-0.12976743315741,4.852855614451203e-18,-0.12976743315741,-3.2694016443125786e-18,-0.0723545536163874,4.852855614451203e-18,-0.0723545536163874,-2.5096917322372702e-17,0.14857579929884107,-4.3465759522180916e-17,-0.14857579929884132,0.5290064179188186,0.6635543833035848,0.5290064179188184,100.0,70.71428571428592,[0.46128025]
-2.1099084067979433e-17,-0.13519348802294043,5.210963514617281e-18,-0.13519348802294043,-3.3524770992912926e-18,-0.07673899736646306,5.210963514617281e-18,-0.07673899736646306,-2.5502576000550598e-17,0.155454665161966,-3.0018623302115753e-17,-0.155454665161966,0.6227267205125532,0.47373290271983515,0.6227267205125533,100.0,57.857142857142705,[0.44626623]
-1.9262186622354616e-17,-0.007962291841902292,6.666545074965057e-18,-0.007962291841902292,9.77696658635164e-19,-0.04667707833454967,6.666545074965057e-18,-0.04667707833454967,-2.1851929810442047e-17,0.04735132240207564,-1.5364449637366514e-17,-0.04735132240207565,0.6534590207623067,0.3820767152925372,0.6534590207623068,100.0,57.857142857142705,[0.28579476]
-1.854500717599588e-17,0.02073570498966536,7.394798369462602e-18,0.02073570498966536,1.5030133067463291e-18,-0.03232703063344327,7.394798369462602e-18,-0.03232703063344327,-2.0457951316139395e-17,0.0384058116825307,-1.419542142555662e-17,-0.038405811682530766,0.30084348417703227,0.9049786716030647,0.30084348417703183,100.0,57.857142857142705,[0.27306468]
-1.8049229444827017e-17,0.03256693200058258,7.91032342540021e-18,0.03256693200058258,1.50631943133243e-18,-0.0259055216637163,7.91032342540021e-18,-0.0259055216637163,-1.9545490605480047e-17,0.041613713035486784,-8.596113293426183e-18,-0.04161371303548683,0.07830291570752224,0.993849740546025,0.07830291570752189,100.0,57.857142857142705,[0.27251262]
-1.758410185728054e-17,0.03857573598960201,8.356272681810629e-18,0.03857573598960201,1.3403248455860775e-18,-0.02257643090688297,8.356272681810629e-18,-0.02257643090688297,-1.880449900743017e-17,0.04469656183234606,-8.645705446694139e-18,-0.04469656183234609,0.022267169193724467,0.9995040501929924,0.022267169193724578,100.0,57.857142857142705,[0.2822605]
-1.7190864329975893e-17,0.04178890441887695,8.766374676971127e-18,0.04178890441887695,1.1048740880774523e-18,-0.020788442814276158,8.766374676971127e-18,-0.020788442814276158,-1.8151076523036703e-17,0.04667410296055471,-1.0442234178732052e-17,-0.046674102960554714,0.07015846069642956,0.9950656163215645,0.07015846069642927,100.0,57.857142857142705,[0.27390698]
-1.6806046053740965e-17,0.04333502235431324,9.148938042700365e-18,0.04333502235431324,8.260160714975238e-19,-0.019930689444089638,9.148938042700365e-18,-0.019930689444089638,-1.7545744665095844e-17,0.04769860107136871,-1.0308512246047039e-17,-0.04769860107136873,0.09161266732230428,0.9915716002247067,0.09161266732230412,100.0,57.857142857142705,[0.27380871]
-1.643617555156033e-17,0.04368538557540413,9.521106378305665e-18,0.04368538557540413,5.166319108389089e-19,-0.019741089640784353,9.521106378305665e-18,-0.019741089640784353,-1.6966122045882227e-17,0.047938747721203684,-8.90786348150488e-18,-0.0479387477212037,0.09627122505597786,0.990688499202672,0.09627122505597772,100.0,57.857142857142705,[0.27560168]
-1.6083618353190734e-17,0.04300682817402165,9.874570654533933e-18,0.04300682817402165,1.7279283423410488e-19,-0.02012450404889814,9.874570654533933e-18,-0.02012450404889814,-1.6425424685138977e-17,0.0474824486816333,-8.557352927523895e-18,-0.047482448681633295,0.08698554630586497,0.9924046702166109,0.08698554630586479,100.0,57.857142857142705,[0.27349658]
-1.5744660831272123e-17,0.041265133572239154,1.0217894258676623e-17,0.041265133572239154,-1.831875994017525e-19,-0.021097376822485456,1.0217894258676623e-17,-0.021097376822485456,-1.5900609864240993e-17,0.046345555963055216,-8.02267890161411e-18,-0.0463455559630553,0.06241315703651969,0.9960969810502738,0.06241315703651959,100.0,57.857142857142705,[0.27390698]
-1.5418166853233155e-17,0.03821411394962536,1.0543938208457096e-17,0.03821411394962536,-5.791880908980852e-19,-0.02279299611796512,1.0543938208457096e-17,-0.02279299611796512,-1.5414726660764335e-17,0.04449538377167371,-5.488617240532362e-18,-0.044495383771673724,0.01639629751708731,0.9997311252809238,0.016396297517087082,100.0,57.857142857142705,[0.2822605]
-1.5119906617452153e-17,0.033261861647676756,1.0846089327356137e-17,0.033261861647676756,-1.0122188734790027e-18,-0.025531466096930723,1.0846089327356137e-17,-0.025531466096930723,-1.4969674281395426e-17,0.041930981401917033,-4.160996508504957e-18,-0.04193098140191706,0.0661344860061814,0.995616622762696,0.06613448600618191,100.0,57.857142857142705,[0.27390698]
-1.4867464742981077e-17,0.025048918250602847,1.1104117142810262e-17,0.025048918250602847,-1.5276966347188529e-18,-0.030034790909288848,1.1104117142810262e-17,-0.030034790909288848,-1.4600386683052698e-17,0.03910929519295999,-2.2283094264002396e-18,-0.03910929519295999,0.21885008084542937,0.9508991977217658,0.21885008084542978,100.0,57.857142857142705,[0.27966306]
-1.470594738862244e-17,0.009991392195589,1.126765902818047e-17,0.009991392195589,-2.2135635467303054e-18,-0.038122567850526166,1.126765902818047e-17,-0.038122567850526166,-1.4375506621688253e-17,0.03941012683973559,-4.3807344055528225e-18,-0.03941012683973562,0.48378722338745594,0.7293146405867029,0.4837872233874557,100.0,57.857142857142705,[0.28011945]
-1.4822765557039936e-17,-0.024783678420992113,1.1204974211842518e-17,-0.024783678420992113,-3.412753595431667e-18,-0.05551168332340859,1.1204974211842518e-17,-0.05551168332340859,-1.4556512041085908e-17,0.06079290831563785,-2.41553881915875e-17,-0.06079290831563785,0.7000801252253729,0.14062587432208895,0.700080125225373,100.0,57.857142857142705,[0.14169116]
-1.6408484439784197e-17,-0.1690468742964296,1.0241997464852283e-17,-0.1690468742964296,-8.398419146376165e-18,-0.09388905425720413,1.0241997464852283e-17,-0.09388905425720413,-1.6659726592174342e-17,0.19337011200985824,-2.6327789959045113e-17,-0.19337011200985815,0.6195874457085659,0.48189500333648383,0.6195874457085658,100.0,57.857142857142705,[0.71253163]
-1.604390458480145e-17,-0.17584198018017222,1.0378806320390848e-17,-0.17584198018017222,-8.547822699157903e-18,-0.0954922949722917,1.0378806320390848e-17,-0.0954922949722917,-1.5552510290493658e-17,0.20009792700765103,-2.2266130459298743e-17,-0.2000979270076511,0.6780037135069594,0.2839400094061177,0.6780037135069594,100.0,45.00000000000011,[0.55832869]
-1.311234340668902e-17,-0.03310020323516285,1.175616516644957e-17,-0.03310020323516285,-3.848956434715966e-18,-0.05757397611252407,1.175616516644957e-17,-0.05757397611252407,-1.1829933766787206e-17,0.06641073843599832,-2.0753278185552568e-17,-0.06641073843599829,0.682677090204862,0.2605839231780147,0.682677090204862,100.0,45.00000000000011,[0.2295973]
-1.169185550566345e-17,0.0028744158721911712,1.2223075379914887e-17,0.0028744158721911712,-2.9365699118178056e-18,-0.04002178312281812,1.2223075379914887e-17,-0.04002178312281812,-1.0004334057366215e-17,0.04012487247252249,-1.0408340855860843e-17,-0.04012487247252253,0.46289701326858473,0.7559449121556725,0.46289701326858435,100.0,45.00000000000011,[0.27464506]
-1.0577122923949225e-17,0.017990955364528875,1.2450195646710932e-17,0.017990955364528875,-2.5461960320950293e-18,-0.032030796156580305,1.2450195646710932e-17,-0.032030796156580305,-8.550499817511643e-18,0.03673753363187122,1.063735620276102e-18,-0.03673753363187126,0.19108306143708337,0.9627951637101548,0.19108306143708284,100.0,45.00000000000011,[0.28010357]
-9.555451469869667e-18,0.025734282796230443,1.259202171455615e-17,0.025734282796230443,-2.3196944382360388e-18,-0.02774456479057397,1.259202171455615e-17,-0.02774456479057397,-7.233993482567665e-18,0.037841963300742194,1.3023559815139073e-18,-0.037841963300742215,0.02656154463191088,0.9992942352948575,0.026561544631910926,100.0,45.00000000000011,[0.27843826]
-8.597267782164778e-18,0.029912260144042892,1.2683418916689877e-17,0.029912260144042892,-2.1583720917068126e-18,-0.02529234850833573,1.2683418916689877e-17,-0.02529234850833573,-5.984171346680415e-18,0.03917200786265634,6.78983536509118e-18,-0.03917200786265634,0.05896955361473002,0.9965165244455101,0.058969553614730066,100.0,45.00000000000011,[0.26915692]
-7.671404522534175e-18,0.031961748712540344,1.2749652160141096e-17,0.031961748712540344,-2.0523429434164233e-18,-0.02393442127474448,1.2749652160141096e-17,-0.02393442127474448,-4.768560366952593e-18,0.039930062641079296,1.4679637584845936e-18,-0.0399300626410793,0.10051734090616511,0.9898446991090611,0.10051734090616489,100.0,45.00000000000011,[0.27085162]
-6.778065177408544e-18,0.03248762583743992,1.2800133752154288e-17,0.03248762583743992,-1.9886898443168192e-18,-0.0233476530784913,1.2800133752154288e-17,-0.0233476530784913,-3.578461498472284e-18,0.040006983600704975,1.183751912735581e-17,-0.04000698360070499,0.11422971611870597,0.9868653119402261,0.11422971611870565,100.0,45.00000000000011,[0.27592623]
-5.897748963846947e-18,0.03170739381624603,1.2827961581376038e-17,0.03170739381624603,-1.929369310470615e-18,-0.02340523394245428,1.2827961581376038e-17,-0.02340523394245428,-2.412229892591427e-18,0.03941019916873716,8.784148197536432e-18,-0.039410199168737184,0.10533009283010053,0.9888433359682438,0.10533009283010031,100.0,45.00000000000011,[0.27592623]
-5.0305237106596144e-18,0.029583100759569166,1.284673532425733e-17,0.029583100759569166,-1.9112674967406575e-18,-0.024107122189985872,1.284673532425733e-17,-0.024107122189985872,-1.2585042235966065e-18,0.03816167175103483,8.288109412887311e-18,-0.03816167175103483,0.0717471001442003,0.9948390358453956,0.07174710014420023,100.0,45.00000000000011,[0.26915692]
-4.204436630876382e-18,0.025809219105775365,1.2842870671811997e-17,0.025809219105775365,-1.9138407522287334e-18,-0.025580045385286777,1.2842870671811997e-17,-0.025580045385286777,-1.3297838245463728e-19,0.03633805873685675,1.0870534901764382e-17,-0.03633805873685681,0.003153356679673952,0.9999900562922122,0.0031533566796738736,100.0,45.00000000000011,[0.26813204]
-3.3848272024700524e-18,0.019647051091780655,1.282138960555991e-17,0.019647051091780655,-1.9663063369411343e-18,-0.028147054619642443,1.282138960555991e-17,-0.028147054619642443,9.594130848902953e-19,0.03432584012612326,1.3278871808027569e-17,-0.03432584012612327,0.12381348128159972,0.9845508842644255,0.12381348128159934,100.0,45.00000000000011,[0.28120927]
-2.654344830705086e-18,0.009403528617614003,1.2749478348814883e-17,0.009403528617614003,-2.1066865383120492e-18,-0.03254780609288962,1.2749478348814883e-17,-0.03254780609288962,2.0045872217143227e-18,0.03387899101098833,-1.5453515502809395e-18,-0.03387899101098833,0.34157270899492076,0.8755890411258827,0.34157270899492015,100.0,45.00000000000011,[0.26625968]
-2.0756294218282864e-18,-0.009347521389613188,1.2588032532654537e-17,-0.009347521389613188,-2.403284968242432e-18,-0.04065299664178517,1.2588032532654537e-17,-0.04065299664178517,2.9368942183167147e-18,0.04171381416373085,-3.17149328840587e-18,-0.04171381416373084,0.599328052754196,0.5306710566478329,0.5993280527541958,100.0,45.00000000000011,[0.28103721]
-1.828189922111624e-18,-0.05212060682512274,1.2177825084890633e-17,-0.05212060682512274,-3.2176376638559876e-18,-0.058319131906364265,1.2177825084890633e-17,-0.058319131906364265,3.5675241028228016e-18,0.07821559180963183,-6.063372421247777e-18,-0.07821559180963182,0.7059956728339104,0.05603766482990276,0.7059956728339103,100.0,45.00000000000011,[0.11950333]
-3.4948794470671696e-18,-0.2138200186874648,1.0867996708278767e-17,-0.2138200186874648,-7.818440425908844e-18,-0.09635161446802658,1.0867996708278767e-17,-0.09635161446802658,2.701536725422155e-18,0.23452640363529006,-5.101017788167717e-18,-0.23452640363529015,0.6612723095303084,0.3541720842992915,0.6612723095303081,100.0,45.00000000000011,[0.68306475]
-3.1851730995599658e-18,-0.22063891783603753,1.0152498674536107e-17,-0.22063891783603753,-7.796599549014994e-18,-0.09485496521491142,1.0152498674536107e-17,-0.09485496521491142,1.7183242067426372e-18,0.2401645196313972,-7.273138738264489e-18,-0.24016451963139707,0.6986322455914871,0.15435663523020973,0.6986322455914871,100.0,32.14285714285738,[0.30109739]
-2.858306063064736e-19,-0.06051101608751553,9.889437351963498e-18,-0.06051101608751553,-3.1423646417039683e-18,-0.056587844100705935,9.889437351963498e-18,-0.056587844100705935,1.3904906097016395e-20,0.08284785554200755,-1.0243414788289534e-17,-0.0828478555420076,0.6942601858802597,0.18975138630063945,0.6942601858802596,100.0,32.14285714285738,[0.18332255]
7.0352041969880025e-19,-0.016588010313195106,8.726408537715658e-18,-0.016588010313195106,-2.2735369328749673e-18,-0.03930752943713294,8.726408537715658e-18,-0.03930752943713294,-3.15509102222325e-18,0.042664317135068984,-7.744365142255235e-18,-0.04266431713506896,0.5793899513034673,0.573249133149917,0.5793899513034672,100.0,32.14285714285738,[0.26151139]
1.2877977910144062e-18,0.0021726777474999127,7.334650377122858e-18,0.0021726777474999127,-1.9099236384379886e-18,-0.03132755954644268,7.334650377122858e-18,-0.03132755954644268,-6.5986918887570325e-18,0.031402810634247255,3.469446951953614e-18,-0.03140281063424728,0.33387782061896426,0.8815050775789446,0.33387782061896426,100.0,32.14285714285738,[0.25810521]
1.701960506274807e-18,0.011897440771550088,5.8493796033773025e-18,0.011897440771550088,-1.739995511610914e-18,-0.02693109898821798,5.8493796033773025e-18,-0.02693109898821798,-1.0125857849493371e-17,0.029442031003749338,4.4688101401441814e-18,-0.02944203100374935,0.10217654626750523,0.9895048796169166,0.1021765462675051,100.0,32.14285714285738,[0.26777177]
2.0562303821026928e-18,0.0172364445778978,4.320878561362136e-18,0.0172364445778978,-1.6260091960204942e-18,-0.024298509275031216,4.320878561362136e-18,-0.024298509275031216,-1.3708083846933385e-17,0.02979114926745392,-1.882763281209572e-18,-0.029791149267453906,0.03956532041031678,0.9984333582376232,0.039565320410316046,100.0,32.14285714285738,[0.26100245]
2.3726517818226025e-18,0.01996019337965299,2.7683777786025383e-18,0.01996019337965299,-1.5787833868983105e-18,-0.02270772199236394,2.7683777786025383e-18,-0.02270772199236394,-1.731511823171478e-17,0.030233259133537548,-3.939448349205993e-18,-0.030233259133537572,0.11272125863762959,0.9872121533400495,0.11272125863762919,100.0,32.14285714285738,[0.26777177]
2.647765436112839e-18,0.02082039120523836,1.200820059797185e-18,0.02082039120523836,-1.5423762730077076e-18,-0.02183856182909346,1.200820059797185e-18,-0.02183856182909346,-2.0938075429697517e-17,0.030173025580844642,-7.577241855510017e-18,-0.030173025580844646,0.14085208471161972,0.9799598871712971,0.1408520847116193,100.0,32.14285714285738,[0.26978783]
2.9090420131162886e-18,0.020093917615219024,-3.8389410869555387e-19,0.020093917615219024,-1.5294040130513448e-18,-0.021557667871969836,-3.8389410869555387e-19,-0.021557667871969836,-2.4578006787440148e-17,0.029470299781396328,-9.972854623883563e-18,-0.029470299781396356,0.13303730840482755,0.9821416135898109,0.1330373084048268,100.0,32.14285714285738,[0.27504711]
3.137489445968734e-18,0.017746593437864458,-1.979910252692758e-18,0.017746593437864458,-1.5462255579882233e-18,-0.02184852396462402,-1.979910252692758e-18,-0.02184852396462402,-2.823163956484911e-17,0.028147816577518137,-8.577310916082487e-18,-0.02814781657751813,0.08547121100657672,0.992667791447944,0.08547121100657547,100.0,32.14285714285738,[0.26059205]
3.317100135456048e-18,0.013422259423435006,-3.592099328629022e-18,0.013422259423435006,-1.6075428024355542e-18,-0.02280619989287175,-3.592099328629022e-18,-0.02280619989287175,-3.189544666379247e-17,0.026462800335255766,-6.578540025159681e-18,-0.02646280033525579,0.020539679725342843,0.9995780325285066,0.02053967972534358,100.0,32.14285714285738,[0.26935597]
3.4632033926900643e-18,0.006248670856874812,-5.223568743872979e-18,0.006248670856874812,-1.7068780950164347e-18,-0.02469271187752034,-5.223568743872979e-18,-0.02469271187752034,-3.558370604882351e-17,0.025471079822885205,6.019849379854286e-19,-0.025471079822885236,0.21782557115082765,0.9513695607415822,0.21782557115082837,100.0,32.14285714285738,[0.26675853]
3.533202724846751e-18,-0.005775486228946851,-6.8967274416041494e-18,-0.005775486228946851,-1.883334744828084e-18,-0.028118872331729765,-6.8967274416041494e-18,-0.028118872331729765,-3.9305303294082276e-17,0.028705874353324813,4.256300637573269e-18,-0.02870587435332486,0.4889710854550821,0.7223673270419678,0.4889710854550823,100.0,32.14285714285738,[0.26478836]
3.4176224322159423e-18,-0.027857440448983424,-8.641025843363987e-18,-0.027857440448983424,-2.225225862789114e-18,-0.03463596521553179,-8.641025843363987e-18,-0.03463596521553179,-4.3093678003011836e-17,0.04444870160961043,-9.594146913416942e-18,-0.044448701609610425,0.6683907481663338,0.32635504520582637,0.6683907481663337,100.0,32.14285714285738,[0.2334811]
2.8170661464452923e-18,-0.07795224359659936,-1.0595794923615173e-17,-0.07795224359659936,-3.073967765188949e-18,-0.04908016536507026,-1.0595794923615173e-17,-0.04908016536507026,-4.7087234862885174e-17,0.0921163118780068,-2.2326945925408333e-17,-0.09211631187800674,0.7071064853003027,0.0009148182909667278,0.7071064853003028,100.0,32.14285714285738,[0.10109998]
-3.418572035559153e-20,-0.25520703949230483,-1.327733062862095e-17,-0.25520703949230483,-7.7260067147688e-18,-0.07923522558922906,-1.327733062862095e-17,-0.07923522558922906,-5.2204240306587214e-17,0.26722435139897516,-3.9640509787186364e-17,-0.26722435139897505,0.6833481112574973,0.2570422488261845,0.6833481112574971,100.0,32.14285714285738,[0.56834231]
-3.0414438506839764e-19,-0.2606985189508574,-1.3684714702159055e-17,-0.2606985189508574,-7.67971355178727e-18,-0.07493389175199756,-1.3684714702159055e-17,-0.07493389175199756,-5.244815270817195e-17,0.27125413529800924,-4.078248865368037e-17,-0.2712541352980091,0.7059700743849684,0.0566789921025815,0.7059700743849683,100.0,19.285714285714306,[0.16021724]
2.4579804250911226e-18,-0.0847516938147832,-1.2218052338569856e-17,-0.0847516938147832,-2.9415998420263757e-18,-0.0438945445827989,-1.2218052338569856e-17,-0.0438945445827989,-4.8295096401044293e-17,0.09544412317479835,-2.812409678997024e-17,-0.09544412317479832,0.7000614810127832,0.14081138307813437,0.7000614810127832,100.0,19.285714285714306,[0.16794601]
2.929933286666928e-18,-0.033782232739427445,-1.146267043449976e-17,-0.033782232739427445,-1.9868415092380695e-18,-0.030306243641001138,-1.146267043449976e-17,-0.030306243641001138,-4.526230072366456e-17,0.04538400216473382,-1.3247353966889762e-17,-0.04538400216473384,0.6527619241485006,0.38445252081875364,0.6527619241485003,100.0,19.285714285714306,[0.28537748]
2.899003349202345e-18,-0.0117399628386836,-1.0888571624019196e-17,-0.0117399628386836,-1.5634540757864778e-18,-0.02391563003001287,-1.0888571624019196e-17,-0.02391563003001287,-4.2394295140737026e-17,0.026641773349124567,4.615173340268057e-18,-0.026641773349124608,0.5037531620423477,0.7017588641867466,0.5037531620423475,100.0,19.285714285714306,[0.27389156]
2.706369528150996e-18,-0.00017915107192879433,-1.0381051030079376e-17,-0.00017915107192879433,-1.2913248891463324e-18,-0.020277774455980356,-1.0381051030079376e-17,-0.020277774455980356,-3.957987431789068e-17,0.020278565826857227,3.469446951953614e-18,-0.02027856582685727,0.2394298307771761,0.9409286435580677,0.23942983077717703,100.0,19.285714285714306,[0.28050877]
2.4079227631418636e-18,0.006287071658244223,-9.902586602721553e-18,0.006287071658244223,-1.0929256192254887e-18,-0.017984544542378068,-9.902586602721553e-18,-0.017984544542378068,-3.680818564548882e-17,0.019051800766139604,-5.9320724007333596e-18,-0.019051800766139642,0.00020993580300377135,0.9999999559269577,0.00020993580300475857,100.0,19.285714285714306,[0.26865293]
2.056298210912922e-18,0.009722137157457424,-9.445725651421778e-18,0.009722137157457424,-9.438378943413812e-19,-0.016474546121211093,-9.445725651421778e-18,-0.016474546121211093,-3.404192327790531e-17,0.01912931312954874,-1.599920010304965e-17,-0.019129313129548752,0.1380761713179311,0.98074968357291,0.1380761713179296,100.0,19.285714285714306,[0.2785382]
1.6669608401964633e-18,0.01100874181234965,-9.006334858056699e-18,0.01100874181234965,-8.356509420255708e-19,-0.015493974923990229,-9.006334858056699e-18,-0.015493974923990229,-3.129546692290877e-17,0.019006726578667164,-1.819850513653053e-17,-0.01900672657866719,0.19619481567736569,0.9607367946543162,0.1961948156773647,100.0,19.285714285714306,[0.25526301]
1.2428951186425777e-18,0.010480093727353637,-8.566638835045588e-18,0.010480093727353637,-7.364852214702635e-19,-0.014929334077538192,-8.566638835045588e-18,-0.014929334077538192,-2.854351643428365e-17,0.018240542221459866,-1.5498719988073725e-17,-0.018240542221459877,0.19232187339360435,0.9623017167337641,0.19232187339360274,100.0,19.285714285714306,[0.26436619]
7.887134053468618e-19,0.008112551017084873,-8.146519902386923e-18,0.008112551017084873,-6.712339060296305e-19,-0.014750904892126885,-8.146519902386923e-18,-0.014750904892126885,-2.5806556112719222e-17,0.016834567982023697,-1.1103710745921838e-17,-0.016834567982023714,0.11699532675006238,0.9862171094831466,0.11699532675006094,100.0,19.285714285714306,[0.27652214]
3.101133203685803e-19,0.0035180638987347104,-7.735473073096433e-18,0.0035180638987347104,-6.560402525382565e-19,-0.015003269868337504,-7.735473073096433e-18,-0.015003269868337504,-2.307868485172552e-17,0.015410219996409662,-5.972384244606229e-18,-0.015410219996409682,0.07500566092814182,0.9943582360786604,0.07500566092814283,100.0,19.285714285714306,[0.26835847]
-2.4065661869372766e-19,-0.004269459652588711,-7.332942998790366e-18,-0.004269459652588711,-6.602456387724761e-19,-0.01583551460006232,-7.332942998790366e-18,-0.01583551460006232,-2.0368042108530074e-17,0.01640096973882549,3.971488267552563e-18,-0.016400969738825513,0.39923348840673806,0.8253637037507608,0.3992334884067384,100.0,19.285714285714306,[0.26203321]
-9.013092303275798e-19,-0.01747315695724227,-6.952495441514591e-18,-0.01747315695724227,-7.421828415295288e-19,-0.017608628197889956,-6.952495441514591e-18,-0.017608628197889956,-1.7672796505256692e-17,0.024806753134256575,-3.9291354148826176e-18,-0.024806753134256603,0.6358917129548344,0.43735964467556043,0.6358917129548347,100.0,19.285714285714306,[0.28611844]
-1.738588063798655e-18,-0.04186538093017182,-6.619260975459082e-18,-0.04186538093017182,-1.0075291471467392e-18,-0.02124723011031404,-6.619260975459082e-18,-0.02124723011031404,-1.5020961340530092e-17,0.046948428171654746,-6.2973256166697964e-18,-0.04694842817165483,0.7008581613244915,0.13264869169993834,0.7008581613244915,100.0,19.285714285714306,[0.12825879]
-3.1456289031962557e-18,-0.09715733710209327,-6.4111961000805565e-18,-0.09715733710209327,-1.767076164094981e-18,-0.02960930043486613,-6.4111961000805565e-18,-0.02960930043486613,-1.2491353691836779e-17,0.10156898554682901,-7.982602967193567e-18,-0.10156898554682893,0.706518765822102,0.04077336241257959,0.7065187658221019,100.0,19.285714285714306,[0.11873641]
-7.078614635534785e-18,-0.28500780653216773,-6.612088078777329e-18,-0.28500780653216773,-6.331412462048286e-18,-0.04591527861265485,-6.612088078777329e-18,-0.04591527861265485,-1.083321059697013e-17,0.28868263299747576,-8.521000506106483e-18,-0.2886826329974758,0.6960753981310822,0.1759490842070819,0.6960753981310821,100.0,19.285714285714306,[0.32973233]
-7.715662821208824e-18,-0.2880855071701138,-6.686716727232169e-18,-0.2880855071701138,-6.216781772760687e-18,-0.03966067341431646,-6.686716727232169e-18,-0.03966067341431646,-8.783152636598307e-18,0.290802731172076,-6.7903237309852354e-18,-0.2908027311720762,0.7068926604603859,0.024607583678100724,0.706892660460386,100.0,6.428571428571418,[0.17093195]
-4.786543480264649e-18,-0.10102189848427673,-7.183766248592833e-18,-0.10102189848427673,-1.422912780991268e-18,-0.02199489285824079,-7.183766248592833e-18,-0.02199489285824079,-6.627688705130079e-18,0.10338858392111291,-3.760381935855105e-18,-0.1033885839211129,0.7034187281935703,0.1020009100600559,0.7034187281935704,100.0,6.428571428571418,[0.15446792]
-4.398020055270942e-18,-0.045305471564482995,-8.072493234622868e-18,-0.045305471564482995,-4.3098426019727895e-19,-0.014788303052875406,-8.072493234622868e-18,-0.014788303052875406,-5.32551120634705e-18,0.04765794436254947,-5.9910204274899505e-19,-0.04765794436254947,0.6925429655821764,0.20191206414003196,0.6925429655821767,100.0,6.428571428571418,[0.12771685]
-4.60530489933183e-18,-0.020996159931368077,-9.046184284066441e-18,-0.020996159931368077,4.395306902861768e-20,-0.011251446880810742,-9.046184284066441e-18,-0.011251446880810742,-4.133759010617401e-18,0.023820868766174157,2.986936480818459e-18,-0.023820868766174206,0.6567334666967148,0.3706781723288146,0.6567334666967148,100.0,6.428571428571418,[0.27667724]
-4.963441017342789e-18,-0.008110428779481238,-1.0059080385822578e-17,-0.008110428779481238,3.52709813192611e-19,-0.009091673851727164,-1.0059080385822578e-17,-0.009091673851727164,-2.9740220133160042e-18,0.012183496559412527,5.809316103919036e-18,-0.01218349655941253,0.52683353434108,0.6670028891896734,0.5268335343410804,100.0,6.428571428571418,[0.2659595]
-5.461033169185288e-18,-0.0007761995305922038,-1.1087636464140415e-17,-0.0007761995305922038,5.947230080909256e-19,-0.007591256203262681,-1.1087636464140415e-17,-0.007591256203262681,-1.8286647237832293e-18,0.007630835894898124,-4.091217520466515e-18,-0.0076308358948981286,0.15023399912969934,0.97716912098725,0.15023399912970178,100.0,6.428571428571418,[0.25207112]
-6.016686782584109e-18,0.00326417367176227,-1.2125171381212362e-17,0.00326417367176227,7.94411025406127e-19,-0.006460665548094574,-1.2125171381212362e-17,-0.006460665548094574,-6.975514843986176e-19,0.007238441067230025,-1.501956620438374e-17,-0.00723844106723002,0.2462008091813222,0.9374275028592476,0.24620080918132128,100.0,6.428571428571418,[0.2679381]
-6.611409790675035e-18,0.004982619988323456,-1.3160722305585102e-17,0.004982619988323456,9.574714851974802e-19,-0.005562737978540709,-1.3160722305585102e-17,-0.005562737978540709,4.2243783010838107e-19,0.007467968650572907,-1.6827433388590812e-17,-0.007467968650572893,0.40984161338987624,0.814898585020226,0.4098416133898762,100.0,6.428571428571418,[0.25410115]
-7.235434844785039e-18,0.0047544897397849,-1.421340848314203e-17,0.0047544897397849,1.0879741160787462e-18,-0.004826320068645769,-1.421340848314203e-17,-0.004826320068645769,1.5437837208199666e-18,0.006774845982805276,-1.7305155007847993e-17,-0.00677484598280527,0.43671679117308587,0.7864838768944764,0.43671679117308654,100.0,6.428571428571418,[0.26568138]
-7.901242445996321e-18,0.002571374315595674,-1.5259973110575758e-17,0.002571374315595674,1.2027404629868035e-18,-0.004214376381783722,-1.5259973110575758e-17,-0.004214376381783722,2.6521064799675173e-18,0.00493689519417231,-1.8205153160420318e-17,-0.0049368951941722965,0.29839560095826345,0.9065981086774416,0.2983956009582622,100.0,6.428571428571418,[0.26097847]
-8.60394891997237e-18,-0.0019615912875974406,-1.6309471334051906e-17,-0.0019615912875974406,1.2792513609255084e-18,-0.0037121713423095676,-1.6309471334051906e-17,-0.0037121713423095676,3.7620571305605724e-18,0.004198577908559346,7.074451332810279e-18,-0.004198577908559361,0.3982845512814538,0.8262801174063544,0.39828455128145823,100.0,6.428571428571418,[0.25410115]
-9.378825248032444e-18,-0.009846041971840705,-1.7364294119131058e-17,-0.009846041971840705,1.3115378745946781e-18,-0.003326330714389824,-1.7364294119131058e-17,-0.003326330714389824,4.8657675306125274e-18,0.010392738740714197,1.3865228158940735e-17,-0.010392738740714214,0.6910377285205432,0.21197574276868278,0.6910377285205438,100.0,6.428571428571418,[0.17845598]
-1.025137506282278e-17,-0.023396564634837573,-1.841994780713552e-17,-0.023396564634837573,1.2591740330976213e-18,-0.00309652078373657,-1.841994780713552e-17,-0.00309652078373657,5.949129287595678e-18,0.02360058638416096,1.045283349638436e-17,-0.02360058638416098,0.706973929020638,0.01938368825180868,0.7069739290206382,100.0,6.428571428571418,[0.07397881]
-1.1324698155891987e-17,-0.04862275981274837,-1.9485402758218123e-17,-0.04862275981274837,1.0565015481323286e-18,-0.0031375630270168136,-1.9485402758218123e-17,-0.0031375630270168136,7.004545574764337e-18,0.04872388606788995,9.436600722803142e-18,-0.048723886067889965,0.7063004598440413,0.04774223338084953,0.7063004598440413,100.0,6.428571428571418,[0.07555059]
-1.2986232691270104e-17,-0.10595975405733521,-2.0568103184301537e-17,-0.10595975405733521,3.3941536638765874e-19,-0.0037631843344126943,-2.0568103184301537e-17,-0.0037631843344126943,7.96066048375723e-18,0.10602655816457368,9.39431160508684e-18,-0.10602655816457368,0.7050279155468652,0.07662425594604004,0.7050279155468653,100.0,6.428571428571418,[0.1338403]
-1.7273013497764913e-17,-0.29734927563834984,-2.1665624205420064e-17,-0.29734927563834984,-4.18693679783721e-18,-0.002992667241577221,-2.1665624205420064e-17,-0.002992667241577221,8.148953260953901e-18,0.2973643350838668,8.582544408951644e-18,-0.29736433508386684,0.7034218306244878,0.10195811101520352,0.7034218306244878,100.0,6.428571428571418,[0.19668003]
-1.7868821766819508e-17,-0.2974066885683441,-2.1097812277787632e-17,-0.2974066885683441,-4.229804605902158e-18,0.003975297296161013,-2.1097812277787632e-17,0.003975297296161013,8.059690546692079e-18,0.2974332553595527,7.491279504103865e-18,-0.2974332553595527,0.7036560257779986,0.09867317149370257,0.7036560257779985,100.0,6.428571428571418,[0.19668003]
-1.474001440856013e-17,-0.10613186455711716,-1.9491252993100404e-17,-0.10613186455711716,2.2193586707042754e-19,0.0047684797922403705,-1.9491252993100404e-17,0.0047684797922403705,7.692058395249011e-18,0.10623893388913161,5.898782863735385e-18,-0.10623893388913161,0.7055060316592292,0.06724937609296973,0.705506031659229,100.0,6.428571428571418,[0.13353047]
-1.4265755367436528e-17,-0.048909317213047795,-1.786619340042312e-17,-0.048909317213047795,8.6006931370813615e-19,0.004165508118086333,-1.786619340042312e-17,0.004165508118086333,6.5547049053233e-18,0.04908638067864013,3.3747837788129036e-18,-0.04908638067864013,0.7068445165238171,0.02723341551150991,0.7068445165238173,100.0,6.428571428571418,[0.07751137]
-1.4341723634893398e-17,-0.02379722327000332,-1.622838199142272e-17,-0.02379722327000332,9.827038026027977e-19,0.004147205745071887,-1.622838199142272e-17,0.004147205745071887,5.318863982944574e-18,0.024155892673514347,-7.434794530347163e-19,-0.024155892673514368,0.7058199081606947,0.060303519698742335,0.705819908160695,100.0,6.428571428571418,[0.10195174]
-1.4660790358212252e-17,-0.010360361933586772,-1.4582821140853616e-17,-0.010360361933586772,9.59370691883902e-19,0.00439985596228378,-1.4582821140853616e-17,0.00439985596228378,4.056705482196861e-18,0.011255924301618151,-9.2713489088212e-18,-0.01125592430161815,0.6777016847879772,0.28537843799255996,0.6777016847879778,100.0,6.428571428571418,[0.22709186]
-1.5065592697661003e-17,-0.0025890393218837397,-1.2929731292349057e-17,-0.0025890393218837397,8.383640944347447e-19,0.004808625735378938,-1.2929731292349057e-17,0.004808625735378938,2.773927023139427e-18,0.0054613190781356916,-2.1870750382661078e-17,-0.005461319078135685,0.40281824614293743,0.8218728132434219,0.40281824614293715,100.0,6.428571428571418,[0.25410115]
-1.55257433462569e-17,0.0018314237727753762,-1.1276658401047051e-17,0.0018314237727753762,6.7611758036614355e-19,0.005333831908436546,-1.1276658401047051e-17,0.005333831908436546,1.4851796287818097e-18,0.00563949251820965,-7.851937126536062e-18,-0.005639492518209656,0.15330908716081282,0.9762134231754015,0.1533090871608156,100.0,6.428571428571418,[0.25207112]
-1.6027133911472244e-17,0.0039027533986125155,-9.62127933019725e-18,0.0039027533986125155,4.851116507602988e-19,0.005968830405631543,-9.62127933019725e-18,0.005968830405631543,1.9643223442419261e-19,0.007131508991901577,-1.7455732011030497e-18,-0.007131508991901589,0.31827119519895364,0.8929764233244112,0.3182711951989556,100.0,6.428571428571418,[0.25677704]
-1.6576275959089047e-17,0.004019904425558247,-7.95906650671684e-18,0.004019904425558247,2.81625220072254e-19,0.006728338326791765,-7.95906650671684e-18,0.006728338326791765,-1.1102219658339725e-18,0.007837739995074963,-5.383356873326426e-18,-0.00783773999507497,0.2924236358124017,0.9104816496978456,0.2924236358124031,100.0,6.428571428571418,[0.26097847]
-1.715146426983392e-17,0.0021913739429566554,-6.2964467103750566e-18,0.0021913739429566554,3.1472567946417597e-20,0.007649373051459758,-6.2964467103750566e-18,0.007649373051459758,-2.4168761660921375e-18,0.007957074075203028,-1.3250661175587029e-17,-0.007957074075203033,0.11740307063389818,0.9861201945054484,0.11740307063389956,100.0,6.428571428571418,[0.26859008]
-1.7775489323943925e-17,-0.0019581013420696338,-4.6301302438757716e-18,-0.0019581013420696338,-2.36044259598132e-19,0.0088030707877427,-4.6301302438757716e-18,0.0088030707877427,-3.7262435187594765e-18,0.009018215796920356,-1.6674406488303654e-17,-0.009018215796920356,0.2298489307246751,0.9456949498064622,0.22984893072467494,100.0,6.428571428571418,[0.26757685]
-1.8452692165273738e-17,-0.009400365024865878,-2.951129789863599e-18,-0.009400365024865878,-5.567388743624906e-19,0.01032657962205223,-2.951129789863599e-18,0.01032657962205223,-5.047548742027181e-18,0.013964422984545623,-1.5600605230073957e-17,-0.013964422984545623,0.5315529699514254,0.6594716675276027,0.5315529699514261,100.0,6.428571428571418,[0.2659595]
-1.923733584200684e-17,-0.02239297869994362,-1.2599201500101441e-18,-0.02239297869994362,-9.496033432108758e-19,0.012509414733452608,-1.2599201500101441e-18,0.012509414733452608,-6.384590249268095e-18,0.02565016475638411,-9.906989488750273e-18,-0.025650164756384125,0.6520443758653585,0.3868801672413696,0.6520443758653587,100.0,6.428571428571418,[0.26678832]
-2.0214070709309454e-17,-0.04680793722954072,4.666282999728014e-19,-0.04680793722954072,-1.5215358710647404e-18,0.016069297017701392,4.666282999728014e-19,0.016069297017701392,-7.754189585419094e-18,0.049489446292393754,-8.630851202231038e-18,-0.049489446292393775,0.6902949525482819,0.2167619823048547,0.690294952548282,100.0,6.428571428571418,[0.18090366]
-2.1781187540848316e-17,-0.10262868869715866,2.2865770216415595e-18,-0.10262868869715866,-2.5894326593155995e-18,0.023298892393335827,2.2865770216415595e-18,0.023298892393335827,-9.242082366610078e-18,0.10524013554939271,-8.734660730960574e-18,-0.10524013554939268,0.7027521658651652,0.11080968704783381,0.702752165865165,100.0,6.428571428571418,[0.15242264]
-2.5859598242318572e-17,-0.2897951934585104,4.487723656799255e-18,-0.2897951934585104,-7.45899860330097e-18,0.04098776786259891,4.487723656799255e-18,0.04098776786259891,-1.158244763476351e-17,0.29267943430656995,-1.050941328775447e-17,-0.29267943430656995,0.7068235362879007,0.028301538808563034,0.7068235362879008,100.0,6.428571428571418,[0.17093195]
-2.5273557321937003e-17,-0.2868188904745497,5.2637530746332284e-18,-0.2868188904745497,-7.521943739193806e-18,0.0472838910242221,5.2637530746332284e-18,0.0472838910242221,-1.2024148846977026e-17,0.29069028584292633,-1.0865594849253891e-17,-0.2906902858429264,0.6965257625427493,0.17234768414017998,0.6965257625427494,100.0,19.28571428571425,[0.32222074]
-2.0279186367129628e-17,-0.09906699282913285,4.043173634556106e-18,-0.09906699282913285,-2.768500718321079e-18,0.031042641299042523,4.043173634556106e-18,0.031042641299042523,-1.030129706715158e-17,0.10381673587157557,-8.263955810311893e-18,-0.10381673587157551,0.7067231912304772,0.032934206442846184,0.7067231912304774,100.0,19.28571428571425,[0.11873641]
-1.7798279804180986e-17,-0.043871965555509936,3.2321445506437894e-18,-0.043871965555509936,-1.8156415922191945e-18,0.02274437304922381,3.2321445506437894e-18,0.02274437304922381,-9.441770383925279e-18,0.049417161665823224,-6.248891614667446e-18,-0.04941716166582321,0.7000216491545248,0.14120687458462494,0.700021649154525,100.0,19.28571428571425,[0.13168205]
-1.5879538420413182e-17,-0.0195748776000368,2.5451065318307204e-18,-0.0195748776000368,-1.3663435532599915e-18,0.019168965577124376,2.5451065318307204e-18,0.019168965577124376,-8.710847124893822e-18,0.027397537742530825,-1.140533665060803e-17,-0.027397537742530845,0.6402603672173822,0.42442116387065965,0.6402603672173826,100.0,19.28571428571425,[0.28611844]
-1.4164826097815258e-17,-0.006464440251006159,1.9021233252616135e-18,-0.006464440251006159,-1.0993693561972767e-18,0.017458482817447333,1.9021233252616135e-18,0.017458482817447333,-8.024419565372818e-18,0.01861686359314941,-1.0866771119183844e-17,-0.01861686359314943,0.4507653110627106,0.770468213935575,0.45076531106271156,100.0,19.28571428571425,[0.27361343]
-1.253910517423824e-17,0.0012317643495489143,1.2861020707586725e-18,0.0012317643495489143,-8.975108169547363e-19,0.016688287604143447,1.2861020707586725e-18,0.016688287604143447,-7.352100398379518e-18,0.016733684190023048,-1.0408340855860843e-17,-0.01673368419002306,0.18377982522275704,0.9656344814070102,0.18377982522275715,100.0,19.28571428571425,[0.28073966]
-1.0974158864626715e-17,0.005736930989290972,6.846979248601561e-19,0.005736930989290972,-7.412332381863179e-19,0.016497358476097294,6.846979248601561e-19,0.016497358476097294,-6.699315928732271e-18,0.017466402430516312,-9.516656887727189e-18,-0.01746640243051632,0.001365865731623136,0.9999981344090629,0.0013658657316232648,100.0,19.28571428571425,[0.26861798]
-9.435258818143262e-18,0.008017204220127024,8.990708795900113e-20,0.008017204220127024,-6.2511031507367365e-19,0.016736573873726936,8.990708795900113e-20,0.016736573873726936,-6.0481593505305265e-18,0.01855770644605473,-1.0051389447218972e-17,-0.01855770644605474,0.07771383816759972,0.9939422109531921,0.07771383816759968,100.0,19.28571428571425,[0.26835847]
-7.950621819843287e-18,0.008460682304490411,-4.943702833566049e-19,0.008460682304490411,-5.209252625613947e-19,0.017361315273524445,-4.943702833566049e-19,0.017361315273524445,-5.40459959907447e-18,0.019313166832092298,-4.928215740090507e-18,-0.019313166832092298,0.08244509247484902,0.9931795474402537,0.08244509247484903,100.0,19.28571428571425,[0.26934243]
-6.476837431180008e-18,0.007091052033386893,-1.0681681034917765e-18,0.007091052033386893,-4.438717341408551e-19,0.01840126684631054,-1.0681681034917765e-18,0.01840126684631054,-4.776233501109788e-18,0.01972028500020544,-7.81079381742562e-18,-0.01972028500020545,0.022072480153258186,0.999512686882847,0.022072480153258463,100.0,19.28571428571425,[0.27810634]
-5.061657134554885e-18,0.0035751470981502075,-1.6328090342459864e-18,0.0035751470981502075,-4.0371707848508095e-19,0.019969893537976565,-1.6328090342459864e-18,0.019969893537976565,-4.154378968927123e-18,0.020287393245351407,-2.4061897276672483e-18,-0.020287393245351403,0.11227035961369336,0.9873149106057417,0.11227035961369337,100.0,19.28571428571425,[0.27652214]
-3.6855462326218676e-18,-0.002969689477337834,-2.1707593281749473e-18,-0.002969689477337834,-4.1456968812177667e-19,0.022320971734064013,-2.1707593281749473e-18,0.022320971734064013,-3.547718090235832e-18,0.022517656066844426,-4.678163878760968e-18,-0.022517656066844426,0.3195246355827588,0.892080721970501,0.3195246355827587,100.0,19.28571428571425,[0.26470909]
-2.3984267297097548e-18,-0.01460685081483317,-2.6803232650229262e-18,-0.01460685081483317,-4.981347823243337e-19,0.026015875013011367,-2.6803232650229262e-18,0.026015875013011367,-2.9703592575636194e-18,0.029835982360556224,-4.319234113108628e-18,-0.029835982360556217,0.5303934832606121,0.6613361519147045,0.5303934832606123,100.0,19.28571428571425,[0.27389156]
-1.306654200258165e-18,-0.03672316306988661,-3.1254837465581393e-18,-0.03672316306988661,-7.444890210773266e-19,0.032462732559040836,-3.1254837465581393e-18,0.032462732559040836,-2.4548602998205726e-18,0.04901448470663845,-1.638595686211918e-18,-0.04901448470663846,0.6547336972331075,0.3776871342989213,0.6547336972331076,100.0,19.28571428571425,[0.28537748]
-7.141017140945786e-19,-0.08776429102470854,-3.3845898016342497e-18,-0.08776429102470854,-1.5009159127550185e-18,0.0461065313051616,-3.3845898016342497e-18,0.0461065313051616,-2.1130030962646573e-18,0.0991382015575408,-5.121607291335491e-18,-0.09913820155754068,0.6994683462640326,0.14658807983365668,0.6994683462640326,100.0,19.28571428571425,[0.16554359]
-2.3962562077824157e-18,-0.26378021910856964,-2.9329855831272485e-18,-0.26378021910856964,-6.0633530040219005e-18,0.07720094528671449,-2.9329855831272485e-18,0.07720094528671449,-2.8759415537243666e-18,0.2748453928049863,-4.863602360351843e-18,-0.2748453928049864,0.7061554182651931,0.05185605566778136,0.7061554182651932,100.0,19.28571428571425,[0.16021724]
-1.0982840952336072e-18,-0.25835400185951973,-2.763379643148763e-18,-0.25835400185951973,-6.06443826498557e-18,0.08156936411296475,-2.763379643148763e-18,0.08156936411296475,-2.3636983788723285e-18,0.2709249922739175,-4.802926089573763e-18,-0.2709249922739175,0.684209782711797,0.25241621675904957,0.684209782711797,100.0,32.142857142857125,[0.56834231]
2.671912492554487e-18,-0.08115642184332868,-3.2607343941554597e-18,-0.08115642184332868,-1.502001173718688e-18,0.05150222192191511,-3.2607343941554597e-18,0.05150222192191511,-7.271248456586134e-20,0.09611890380828593,-2.3850201929033225e-18,-0.09611890380828587,0.7070996935851644,0.004477350057056061,0.7070996935851643,100.0,32.142857142857125,[0.09970065]
4.202130451328584e-18,-0.031117005677138897,-3.0269623997000105e-18,-0.031117005677138897,-7.292953675859526e-19,0.03714397501374032,-3.0269623997000105e-18,0.03714397501374032,1.0776641369238853e-18,0.04845557679083449,-2.609879365183561e-18,-0.0484555767908345,0.6728679427779547,0.30740439678626374,0.6728679427779547,100.0,32.142857142857125,[0.22988701]
5.2461514983787125e-18,-0.00908833363413176,-2.590619663494613e-18,-0.00908833363413176,-4.775148240146118e-19,0.030711381752956988,-2.590619663494613e-18,0.030711381752956988,2.032693784953109e-18,0.03202790622911761,4.237428315432052e-18,-0.0320279062291176,0.5306352579251694,0.660948141758019,0.5306352579251692,100.0,32.142857142857125,[0.26514119]
6.1165307912417095e-18,0.0028847206378632383,-2.076205966715236e-18,0.0028847206378632383,-3.7332977150233287e-19,0.02736836966278567,-2.076205966715236e-18,0.02736836966278567,2.9117551655254625e-18,0.027519979490497466,9.271251103719258e-18,-0.02751997949049746,0.31137099727150386,0.8978286050891331,0.31137099727150425,100.0,32.142857142857125,[0.25864942]
6.9000892070111415e-18,0.01000941185008582,-1.5284544097081339e-18,0.01000941185008582,-3.6681820572031544e-19,0.02556366509920629,-1.5284544097081339e-18,0.02556366509920629,3.763685022006077e-18,0.027453402319002583,8.868344060782452e-18,-0.02745340231900259,0.13201499134842726,0.9824174693675544,0.13201499134842726,100.0,32.142857142857125,[0.27504711]
7.629384574597093e-18,0.014287065621044516,-9.567931970951867e-19,0.014287065621044516,-4.058876004124201e-19,0.02468644381522648,-9.567931970951867e-19,0.02468644381522648,4.5863128324676126e-18,0.028522635788130905,8.571089984634858e-18,-0.028522635788130933,0.0257027850164338,0.9993391484800335,0.025702785016433746,100.0,32.142857142857125,[0.2702838]
8.336974722909654e-18,0.01658993202305039,-3.7024356063689753e-19,0.01658993202305039,-4.731737801599335e-19,0.024474671768625327,-3.7024356063689753e-19,0.024474671768625327,5.402429077147131e-18,0.02956747203788952,7.991560228952664e-18,-0.029567472037889512,0.024531707143584863,0.9993980141511403,0.024531707143584866,100.0,32.142857142857125,[0.26935597]
9.018518608094146e-18,0.01727417221692244,2.310249276411602e-19,0.01727417221692244,-5.578241353261602e-19,0.024833260431909455,2.310249276411602e-19,0.024833260431909455,6.201181146407937e-18,0.03025041899641945,7.74292435915092e-18,-0.03025041899641945,0.03306101558993156,0.9989063712362259,0.033061015589931624,100.0,32.142857142857125,[0.26100245]
9.660993098586533e-18,0.016373965296816204,8.451130610525649e-19,0.016373965296816204,-6.728617974751348e-19,0.025778708399267998,8.451130610525649e-19,0.025778708399267998,6.985824823141037e-18,0.030539295117533935,9.598305909746724e-18,-0.03053929511753393,0.0034530227583350055,0.9999880765627464,0.003453022758334551,100.0,32.142857142857125,[0.25997757]
1.027742132595085e-17,0.01361243086719312,1.4793802655072004e-18,0.01361243086719312,-8.226278104615359e-19,0.027444361590587482,1.4793802655072004e-18,0.027444361590587482,7.755274846382764e-18,0.030634804670978833,1.1369703903899433e-17,-0.030634804670978816,0.07098363422513752,0.9949485651752981,0.07098363422513736,100.0,32.142857142857125,[0.26100245]
1.0848268592841045e-17,0.008237865066755199,2.134165685056214e-18,0.008237865066755199,-1.020145305849398e-18,0.03015038478210929,2.134165685056214e-18,0.03015038478210929,8.49976386746009e-18,0.03125552948467379,5.0688716293756245e-18,-0.0312555294846738,0.2050987153121548,0.9570104670036833,0.20509871531215473,100.0,32.142857142857125,[0.26599384]
1.1360511767693083e-17,-0.001520231343197216,2.835956470094166e-18,-0.001520231343197216,-1.2827784590574345e-18,0.034618844723644335,2.835956470094166e-18,0.034618844723644335,9.194330884208617e-18,0.03465220791431098,1.0408340855860843e-17,-0.03465220791431098,0.40210799388111657,0.8225681263663257,0.4021079938811167,100.0,32.142857142857125,[0.25328284]
1.1709965797994685e-17,-0.020312002917956182,3.62490727627683e-18,-0.020312002917956182,-1.723394410307281e-18,0.0426694011129313,3.62490727627683e-18,0.0426694011129313,9.800991762899908e-18,0.04725733016025433,1.5897570388014397e-17,-0.04725733016025435,0.5970220854583108,0.5358444354008155,0.5970220854583109,100.0,32.142857142857125,[0.27230217]
1.1653532227883867e-17,-0.0642637561436442,4.647867477750746e-18,-0.0642637561436442,-2.6675714486998087e-18,0.060018994089259425,4.647867477750746e-18,0.060018994089259425,1.0130911095855458e-17,0.08793241725994073,1.8039683320826737e-17,-0.08793241725994072,0.6943472863970376,0.18911290740227185,0.6943472863970376,100.0,32.142857142857125,[0.16650309]
9.676186752077907e-18,-0.22441769870733336,6.5670497487850415e-18,-0.22441769870733336,-7.41016185993584e-18,0.09835454834938105,6.5670497487850415e-18,0.09835454834938105,8.992472344966076e-18,0.24502432669860794,1.2996198010086404e-17,-0.24502432669860802,0.6993823174748311,0.14740674342467902,0.699382317474831,100.0,32.142857142857125,[0.27771293]
9.967036690341352e-18,-0.2176212612821594,6.979381086169249e-18,-0.2176212612821594,-7.418843947645196e-18,0.0999266319142926,6.979381086169249e-18,0.0999266319142926,8.718986582121344e-18,0.23946679337180032,2.0228058317249624e-17,-0.2394667933718002,0.663031163371829,0.3475332398427497,0.663031163371829,100.0,45.0,[0.62085494]
1.1894460161818513e-17,-0.05593185179969038,5.740284380899515e-18,-0.05593185179969038,-2.6784240583365045e-18,0.06198783983401958,5.740284380899515e-18,0.06198783983401958,9.914944164085213e-18,0.08349170218069933,1.2009258099083546e-17,-0.08349170218069933,0.7061761142352738,0.051289290959607416,0.7061761142352736,100.0,45.0,[0.13421985]
1.1942211644219974e-17,-0.013167408193508855,5.399919411168645e-18,-0.013167408193508855,-1.7320764980166376e-18,0.04441302787816589,5.399919411168645e-18,0.04441302787816589,9.608900572330393e-18,0.046323834943161,1.8532912870349526e-17,-0.04632383494316103,0.621499020345849,0.47694647018119335,0.6214990203458493,100.0,45.0,[0.28393847]
1.1605780745482406e-17,0.005576843377637545,5.305501707329392e-18,0.005576843377637545,-1.291460546766791e-18,0.0363974065441118,5.305501707329392e-18,0.0363974065441118,8.995728127857085e-18,0.03682217246708907,1.2670462945307862e-17,-0.03682217246708907,0.4185054968446127,0.8060436081389691,0.4185054968446126,100.0,45.0,[0.25905148]
1.114128905303183e-17,0.01581551570684135,5.301974609197466e-18,0.01581551570684135,-1.0331684374134328e-18,0.0320846081169068,5.301974609197466e-18,0.0320846081169068,8.277285369907828e-18,0.03577083469935845,5.847148032528296e-18,-0.035770834699358454,0.22740722360550966,0.9468748118437136,0.2274072236055095,100.0,45.0,[0.274913]
1.060517013697906e-17,0.0219748004480201,5.344435444401038e-18,0.0219748004480201,-8.378214639529099e-19,0.02960396383493747,5.344435444401038e-18,0.02960396383493747,7.508920607629771e-18,0.03686850321711733,2.973626357077168e-18,-0.03686850321711732,0.10346451199807985,0.9892371755620583,0.10346451199807997,100.0,45.0,[0.27592623]
1.002347026045217e-17,0.025747762542586174,5.413112114758253e-18,0.025747762542586174,-6.923964948211871e-19,0.028215816333034785,5.413112114758253e-18,0.028215816333034785,6.706912755477958e-18,0.038197900037684744,1.84246567833321e-18,-0.038197900037684744,0.03230614494532015,0.998955767788316,0.03230614494532057,100.0,45.0,[0.26915692]
9.437429340070601e-18,0.02787308997773861,5.499220789344411e-18,0.02787308997773861,-5.795293545995516e-19,0.027597102792066817,5.499220789344411e-18,0.027597102792066817,5.884284945016421e-18,0.03922383494028872,2.2965247445188295e-18,-0.039223834940288714,0.003518105586716897,0.9999876228564839,0.0035181055867167695,100.0,45.0,[0.26813204]
8.807977981142249e-18,0.028656298871318583,5.596572089226083e-18,0.028656298871318583,-4.905379555786467e-19,0.027621079266838044,5.596572089226083e-18,0.027621079266838044,5.0356108714268155e-18,0.03980084779081076,1.983639911984455e-18,-0.03980084779081076,0.013004994390088643,0.9998308558160364,0.01300499439008872,100.0,45.0,[0.27650426]
8.182867666068575e-18,0.028135330245598406,5.7168325697627175e-18,0.028135330245598406,-4.3193386354048983e-19,0.028287768906339248,5.7168325697627175e-18,0.028287768906339248,4.173913666273175e-18,0.039897301634663734,2.6011632383747594e-18,-0.039897301634663686,0.001910388102642868,0.9999963504106376,0.0019103881026431133,100.0,45.0,[0.26802207]
7.505664824738762e-18,0.02609267324009083,5.852591933436758e-18,0.02609267324009083,-3.9937603463040266e-19,0.029723962696152698,5.852591933436758e-18,0.029723962696152698,3.2861701979914653e-18,0.0395517579277638,1.807958683504598e-18,-0.03955175792776382,0.04590553803820762,0.9978904564905136,0.04590553803820765,100.0,45.0,[0.26915692]
6.82846198340895e-18,0.021923446790398104,6.009140827446094e-18,0.021923446790398104,-4.2325177583113325e-19,0.03225277339571845,6.009140827446094e-18,0.03225277339571845,2.357186813090311e-18,0.03899844754457517,5.92266588549385e-19,-0.038998447544575154,0.1324325358530485,0.9823050681407799,0.1324325358530487,100.0,45.0,[0.28320158]
6.0861434842589615e-18,0.014190796639586565,6.218070520155045e-18,0.014190796639586565,-5.144136967793773e-19,0.036613916408171014,6.218070520155045e-18,0.036613916408171014,1.3630877703689828e-18,0.03926776774927031,-2.4447094847527098e-18,-0.03926776774927034,0.28551559018784706,0.914856106455748,0.2855155901878471,100.0,45.0,[0.26831462]
5.2309578448873385e-18,-0.000913102667707848,6.5151267945544754e-18,-0.000913102667707848,-7.683647622780572e-19,0.04467814330188106,6.5151267945544754e-18,0.04467814330188106,2.344163681526276e-19,0.04468747302528074,1.3877787807814457e-17,-0.04468747302528074,0.5101121509354184,0.6925107847074166,0.5101121509354185,100.0,45.0,[0.27219962]
4.080581223397592e-18,-0.036872972053681896,7.051093095784227e-18,-0.036872972053681896,-1.545411612265471e-18,0.0623020017127188,7.051093095784227e-18,0.0623020017127188,-1.2719258494207387e-18,0.07239582505561507,1.2163236186449647e-17,-0.07239582505561505,0.6849495374230052,0.24837121888017238,0.6849495374230051,100.0,45.0,[0.253694]
1.4282034281891572e-18,-0.17959726767015305,8.494812364313348e-18,-0.17959726767015305,-6.112189747387031e-18,0.10029088639872277,8.494812364313348e-18,0.10029088639872277,-4.666622143779161e-18,0.20570231026710928,6.463459615444828e-18,-0.2057023102671094,0.6803233121335254,0.27261764787947906,0.6803233121335255,100.0,45.0,[0.56584334]
7.8572893769677045e-19,-0.17278429508412385,8.444118807268189e-18,-0.17278429508412385,-6.170793839425188e-18,0.09876331227492459,8.444118807268189e-18,0.09876331227492459,-5.135454880084416e-18,0.19901910581457213,6.197314041474578e-18,-0.19901910581457197,0.6237293717538177,0.47108740337985655,0.6237293717538178,100.0,57.8571428571429,[0.71469627]
1.5671168315388626e-18,-0.02848886907476246,7.042656887511952e-18,-0.02848886907476246,-1.738588063798655e-18,0.060478142293414215,7.042656887511952e-18,0.060478142293414215,-2.088042094100257e-18,0.06685223523878178,5.673073902840889e-18,-0.06685223523878175,0.7019563763590132,0.1204761029326837,0.7019563763590134,100.0,57.8571428571429,[0.13386249]
8.942550340637276e-19,0.006319090614753185,6.53687440683426e-18,0.006319090614753185,-1.1026251390882855e-18,0.043178793241593745,6.53687440683426e-18,0.043178793241593745,-9.44177038392528e-19,0.04363873384961763,-1.579623537215766e-18,-0.043638733849617646,0.5379380212083702,0.6490341829802541,0.5379380212083704,100.0,57.8571428571429,[0.27694968]
-6.077461396549605e-20,0.021410913301863708,6.266525726462635e-18,0.021410913301863708,-9.74564345375276e-19,0.03517888757880539,6.266525726462635e-18,0.03517888757880539,-2.127111488792362e-19,0.04118229400728124,-9.135243492993777e-18,-0.041182294007281225,0.3158541600009044,0.8946911753338389,0.3158541600009045,100.0,57.8571428571429,[0.26949755]
-1.124330358361677e-18,0.02965974197632372,6.089602753580658e-18,0.02965974197632372,-1.020145305849398e-18,0.03076162256530508,6.089602753580658e-18,0.03076162256530508,3.646476837929763e-19,0.0427314605057256,-7.205943020363025e-18,-0.042731460505725585,0.16988973041141514,0.9707084830171587,0.16988973041141478,100.0,57.8571428571429,[0.2696708]
-2.2139323658859275e-18,0.034649519184181556,5.950312052474052e-18,0.034649519184181556,-1.1351829679983726e-18,0.028107378157475948,5.950312052474052e-18,0.028107378157475948,8.70379292862997e-19,0.044616296199733126,-5.0104463936889925e-18,-0.04461629619973314,0.08502058846770032,0.9927451833543248,0.08502058846770026,100.0,57.8571428571429,[0.27349658]
-3.3339216803929265e-18,0.037739720731444715,5.832510366308232e-18,0.037739720731444715,-1.3001426344761476e-18,0.026494098491153008,5.832510366308232e-18,0.026494098491153008,1.3305299414588957e-18,0.04611099408759646,-6.0898660920625905e-18,-0.04611099408759643,0.03610525536225808,0.9986955597530472,0.03610525536225804,100.0,57.8571428571429,[0.27390698]
-4.475616214173316e-18,0.039522260392802905,5.729399976508024e-18,0.039522260392802905,-1.4911485640819924e-18,0.025601617010983534,5.729399976508024e-18,0.025601617010983534,1.7624638049993854e-18,0.04708982756534151,-5.824372165551931e-19,-0.04708982756534152,0.009766464243322321,0.999904611626713,0.009766464243322266,100.0,57.8571428571429,[0.2795041]
-5.639015967227098e-18,0.040243327874583026,5.649156374356385e-18,0.040243327874583026,-1.7103712787432462e-18,0.02529657856035994,5.649156374356385e-18,0.02529657856035994,2.164010361557127e-18,0.04753359154620713,-9.406162193129671e-18,-0.04753359154620717,0.0001262064163691177,0.9999999840719405,0.00012620641636872465,100.0,57.8571428571429,[0.27280708]
-6.80241572028088e-18,0.03993714044346546,5.576358838821447e-18,0.03993714044346546,-1.95346973460523e-18,0.02556247015968501,5.576358838821447e-18,0.02556247015968501,2.5481927426961558e-18,0.047417455303568015,-6.547542866162192e-18,-0.047417455303568036,0.005913088687802532,0.9999650347708865,0.005913088687802328,100.0,57.8571428571429,[0.2728821]
-7.983179648753374e-18,0.038436865722680034,5.524423431645253e-18,0.038436865722680034,-2.2291260193773015e-18,0.02649436244186502,5.524423431645253e-18,0.02649436244186502,2.895476251070419e-18,0.04668344340110572,-4.1182230659494994e-18,-0.04668344340110575,0.03004788785834478,0.9990967164746888,0.030047887858344315,100.0,57.8571428571429,[0.27390698]
-9.181307752644582e-18,0.03527121402745573,5.491058015963373e-18,0.03527121402745573,-2.5590453523328515e-18,0.02835427022153403,5.491058015963373e-18,0.02835427022153403,3.192837755115882e-18,0.04525509008682188,-9.01955505184053e-19,-0.045255090086821846,0.08191874749223894,0.9932666498068912,0.08191874749223903,100.0,57.8571428571429,[0.27349658]
-1.0418505251227894e-17,0.029311618824193284,5.499827009335836e-18,0.029311618824193284,-2.9605919088905933e-18,0.03175300194357379,5.499827009335836e-18,0.03175300194357379,3.4055489039951183e-18,0.04321370304108876,-1.1441850478424045e-17,-0.04321370304108875,0.18476001671463121,0.965260313307876,0.18476001671463077,100.0,57.8571428571429,[0.28610439]
-1.1733841539195416e-17,0.017531349340948396,5.575820712596542e-18,0.017531349340948396,-3.5184160442167534e-18,0.038241833410359034,5.575820712596542e-18,0.038241833410359034,3.444618298687223e-18,0.042068824945558234,-1.8333576557498746e-17,-0.042068824945558254,0.38748324622559766,0.8364887732593583,0.38748324622559743,100.0,57.8571428571429,[0.26618736]
-1.3235842712914105e-17,-0.01111373516019025,5.865648979405908e-18,-0.01111373516019025,-4.605847529813665e-18,0.05265691919558304,5.865648979405908e-18,0.05265691919558304,2.999661303582698e-18,0.05381696989222833,-9.037554127861426e-18,-0.05381696989222832,0.6635083614297893,0.3457069693042251,0.6635083614297893,100.0,57.8571428571429,[0.24063551]
-1.586217424499447e-17,-0.1382892046590503,6.879257283669453e-18,-0.1382892046590503,-9.478669256690045e-18,0.08278194298169304,6.879257283669453e-18,0.08278194298169304,3.0387306982748025e-19,0.16117305670941678,3.0306574065915914e-18,-0.16117305670941712,0.6303066680355243,0.45324056356410974,0.6303066680355239,100.0,57.8571428571429,[0.44843086]
-1.5536595955893597e-17,-0.1328107869770495,6.307307798613031e-18,-0.1328107869770495,-9.417894642724549e-18,0.07846534061748144,6.307307798613031e-18,0.07846534061748144,7.727058061327355e-19,0.1542579489546019,-1.1673136963691417e-17,-0.1542579489546021,0.5405673067526361,0.6446502724271533,0.5405673067526361,100.0,70.71428571428567,[0.46128025]
-1.2706235362643354e-17,-0.0043419029469747425,4.5375863109191045e-18,-0.0043419029469747425,-4.4191826440624984e-18,0.0474256069668959,4.5375863109191045e-18,0.0474256069668959,4.8858448584404145e-18,0.04762394688997787,-7.474741472652506e-18,-0.04762394688997786,0.6859388780539519,0.24284915307278937,0.6859388780539518,100.0,70.71428571428567,[0.21521559]
-1.1000205127754785e-17,0.02341252645053476,3.483568992961426e-18,0.02341252645053476,-3.205860886679917e-18,0.03383610113643453,3.483568992961426e-18,0.03383610113643453,6.717765365114653e-18,0.0411464231120035,-9.221835151130161e-18,-0.04114642311200349,0.4159603957293708,0.8086741608146821,0.4159603957293707,100.0,70.71428571428567,[0.30031855]
-9.446111427779957e-18,0.03521625413588012,2.609755866580568e-18,0.03521625413588012,-2.5264875234227643e-18,0.02744347531672799,2.609755866580568e-18,0.02744347531672799,8.04395426271887e-18,0.04464671200461186,-3.9309014689322305e-18,-0.04464671200461192,0.22604134848451787,0.9475286895659685,0.22604134848451737,100.0,70.71428571428567,[0.31111409]
-7.961474429479982e-18,0.04162309735970619,1.803991994062304e-18,0.04162309735970619,-1.9903686073699956e-18,0.02380276322259539,1.803991994062304e-18,0.02380276322259539,9.18564879649926e-18,0.047948449097405865,3.746410334412911e-18,-0.047948449097405886,0.12859280105417054,0.9833248613932657,0.12859280105417034,100.0,70.71428571428567,[0.31741036]
-6.520247869726791e-18,0.045480306502695134,1.030658771434947e-18,0.045480306502695134,-1.5540936999748277e-18,0.021505784803520722,1.030658771434947e-18,0.021505784803520722,1.0242692975113423e-17,0.05030861814435417,6.967841917634437e-18,-0.050308618144354146,0.07418090941781816,0.9944819683412519,0.07418090941781808,100.0,70.71428571428567,[0.30353247]
-5.092044441537633e-18,0.04785443749794813,2.77097646989445e-19,0.04785443749794813,-1.1460355776350684e-18,0.019991096071584467,2.77097646989445e-19,0.019991096071584467,1.1243303583616769e-17,0.05186223202281543,8.669759994801275e-18,-0.051862232022815466,0.04177481799066112,0.9982533391698193,0.041774817990661045,100.0,70.71428571428567,[0.30492683]
-3.6551589256391195e-18,0.0492064162057807,-4.659669690730653e-19,0.0492064162057807,-7.835584157694313e-19,0.0190048430213768,-4.659669690730653e-19,0.0190048430213768,1.2202674275500671e-17,0.052748985337006206,1.022180935113818e-17,-0.052748985337006137,0.022607818779201993,0.9994887558447536,0.022607818779201858,100.0,70.71428571428567,[0.31328035]
-2.235637585159319e-18,0.049726105132132055,-1.2036561519248997e-18,0.049726105132132055,-4.341043854678289e-19,0.018433480014827957,-1.2036561519248997e-18,0.018433480014827957,1.3138169226183844e-17,0.053032807931212796,1.2090146849277296e-17,-0.05303280793121285,0.013007557853826695,0.9998307891225188,0.013007557853826379,100.0,70.71428571428567,[0.31227417]
-8.2479833238887505e-19,0.049437182637714065,-1.9246085758526425e-18,0.049437182637714065,-1.1937870600365295e-19,0.01824724104338674,-1.9246085758526425e-18,0.01824724104338674,1.403025373832023e-17,0.052697218454584104,1.311135230555323e-17,-0.05269721845458407,0.012012061506437653,0.9998556999671159,0.012012061506437549,100.0,70.71428571428567,[0.31227417]
5.730177888175342e-19,0.04820470249434664,-2.6354036354485403e-18,0.04820470249434664,1.7364175418713157e-19,0.018490663005976647,-2.6354036354485403e-18,0.018490663005976647,1.489629198732855e-17,0.05162942921405449,1.459464578759588e-17,-0.05162942921405448,0.02098231647560145,0.9995596454392482,0.020982316475601347,100.0,70.71428571428567,[0.31328035]
1.9751749538786216e-18,0.04565121534705218,-3.339432771224061e-18,0.04565121534705218,4.102286442670984e-19,0.01931278767698736,-3.339432771224061e-18,0.01931278767698736,1.5692873534662016e-17,0.04956830873168187,1.609304645589551e-17,-0.0495683087316819,0.04495534842646323,0.9979769703233189,0.04495534842646313,100.0,70.71428571428567,[0.30492683]
3.3230690707562308e-18,0.04086996863418248,-4.010514062430675e-18,0.04086996863418248,5.773588326722125e-19,0.021074561779823874,-4.010514062430675e-18,0.021074561779823874,1.6398293161047238e-17,0.04598360023280773,1.7734090685332388e-17,-0.04598360023280769,0.0983141720623707,0.9902871538818329,0.09831417206237097,100.0,70.71428571428567,[0.30705271]
4.653599012215126e-18,0.03139934429309568,-4.6379305570521466e-18,0.03139934429309568,5.751883107448733e-19,0.02470056211108839,-4.6379305570521466e-18,0.02470056211108839,1.689751320433524e-17,0.039950426664055745,1.334889571136436e-17,-0.03995042666405577,0.2291019706732467,0.9460573841301962,0.22910197067324653,100.0,70.71428571428567,[0.31111409]
5.856068159961012e-18,0.007951341718631369,-5.152632526274999e-18,0.007951341718631369,5.86040920381569e-20,0.0330487178418214,-5.152632526274999e-18,0.0330487178418214,1.684759120000644e-17,0.03399178703914774,7.456267853720431e-18,-0.03399178703914772,0.5942790482394201,0.5419085030217723,0.5942790482394197,100.0,70.71428571428567,[0.31344213]
6.1946695806259195e-18,-0.10862798726096866,-5.244201420084619e-18,-0.10862798726096866,-4.252052455657384e-18,0.04933937233284888,-5.244201420084619e-18,0.04933937233284888,1.4273352194182215e-17,0.11930806040904633,9.470243329805667e-18,-0.11930806040904637,0.48864807124892956,0.7228043476137941,0.4886480712489292,100.0,70.71428571428567,[0.43755168]
6.079631918476944e-18,-0.10556334031549433,-4.949756554879018e-18,-0.10556334031549433,-4.100115920743644e-18,0.043084829486714604,-4.949756554879018e-18,0.043084829486714604,1.304483678330826e-17,0.11401719760836143,7.353541420970589e-18,-0.11401719760836145,0.33882215247452174,0.8777238164622535,0.33882215247452174,100.0,83.57142857142856,[0.43751171]
5.2743682834341214e-18,0.011788269436686823,-3.7039108829914636e-18,0.011788269436686823,4.970495213606641e-19,0.02543445620159642,-3.7039108829914636e-18,0.02543445620159642,1.3420337076737933e-17,0.028033459625648273,5.6109192980862916e-18,-0.028033459625648283,0.6042245358526043,0.5194472259502492,0.6042245358526043,100.0,83.57142857142856,[0.32878431]
3.616089530947015e-18,0.03479569761454034,-2.0725771253679657e-18,0.03479569761454034,1.304483678330826e-18,0.01824172467281288,-2.0725771253679657e-18,0.01824172467281288,1.1271520368672178e-17,0.039287416452615416,1.0349380317375245e-17,-0.03928741645261546,0.25613639842603597,0.9320881346754063,0.2561363984260356,100.0,83.57142857142856,[0.31439012]
1.8232384189648815e-18,0.04433278436122559,-3.4577431734666014e-19,0.04433278436122559,1.601845182376289e-18,0.01471717195101028,-3.4577431734666014e-19,0.01471717195101028,8.547515349861552e-18,0.04671178565902331,8.534269125408112e-18,-0.046711785659023286,0.1462438998343708,0.9783789876742394,0.14624389983437078,100.0,83.57142857142856,[0.32896831]
2.387574120073059e-20,0.04941552536972305,1.4129589030901111e-18,0.04941552536972305,1.7277354541619593e-18,0.012568096808486324,1.4129589030901111e-18,0.012568096808486324,5.615140226026367e-18,0.0509887360595772,4.824370611990401e-18,-0.050988736059577176,0.09646911625458914,0.9906499983435709,0.09646911625458916,100.0,83.57142857142856,[0.32051518]
-1.816726853182864e-18,0.05240594123966427,3.1857496444469152e-18,0.05240594123966427,1.7906805900547943e-18,0.0110767126449524,3.1857496444469152e-18,0.0110767126449524,2.595944225097617e-18,0.053563758645505756,1.1287609962825127e-18,-0.05356375864550574,0.06784713595833874,0.9953861222081115,0.06784713595833863,100.0,83.57142857142856,[0.31800644]
-3.6681820572031544e-18,0.05417635311499107,4.971699174988212e-18,0.05417635311499107,1.786339546200116e-18,0.009953431835148996,4.971699174988212e-18,0.009953431835148996,-5.013905652153424e-19,0.05508310123928353,-2.3498080826789857e-18,-0.05508310123928356,0.04910212648541194,0.9975860676398911,0.049102126485411846,100.0,83.57142857142856,[0.31800644]
-5.504443607732071e-18,0.05509843291575855,6.757546962314166e-18,0.05509843291575855,1.7624638049993854e-18,0.009061031783037262,6.757546962314166e-18,0.009061031783037262,-3.62911266251105e-18,0.055838513650934146,-5.837437523744951e-18,-0.05583851365093412,0.03590069016617444,0.9987103087938888,0.035900690166174254,100.0,83.57142857142856,[0.31800644]
-7.362410377534379e-18,0.05531987923150738,8.550431988701413e-18,0.05531987923150738,1.708200756815907e-18,0.008328299682689966,8.550431988701413e-18,0.008328299682689966,-6.80241572028088e-18,0.05594327138980394,-9.335608008670107e-18,-0.05594327138980392,0.026316785598746,0.9993071868006851,0.026316785598745777,100.0,83.57142857142856,[0.32728778]
-9.216036103482008e-18,0.05484911460756908,1.0343130485860531e-17,0.05484911460756908,1.6387440551410544e-18,0.007718136617982675,1.0343130485860531e-17,0.007718136617982675,-9.99959451925144e-18,0.055389484616559584,-1.2820000978345256e-17,-0.055389484616559584,0.01951237398815059,0.9996191947550294,0.019512373988150342,100.0,83.57142857142856,[0.32635996]
-1.1091367048703029e-17,0.05355798389060721,1.2144307584298317e-17,0.05355798389060721,1.5323884807014361e-18,0.007215731882361864,1.2144307584298317e-17,0.007215731882361864,-1.3244524800623462e-17,0.05404187658681622,-1.6426261208324526e-17,-0.05404187658681621,0.015358093776844809,0.9997641011314035,0.015358093776844519,100.0,83.57142857142856,[0.32535378]
-1.2949333818505338e-17,0.051104552959194784,1.3941923670199062e-17,0.051104552959194784,1.380451945787696e-18,0.0068276068114874675,1.3941923670199062e-17,0.0068276068114874675,-1.6556741261742995e-17,0.05155862244020308,-2.016803653508993e-17,-0.05155862244020307,0.014575645156105604,0.999787527996107,0.014575645156105231,100.0,83.57142857142856,[0.32535378]
-1.4852881548781767e-17,0.046673482549829344,1.5747051796832708e-17,0.046673482549829344,1.1482060995624075e-18,0.006593247150247084,1.5747051796832708e-17,0.006593247150247084,-1.9960119643810774e-17,0.04713687390264086,-2.4213375504549006e-17,-0.04713687390264088,0.01989178249403717,0.9996042386756971,0.01989178249403673,100.0,83.57142857142856,[0.32635996]
-1.677596397640425e-17,0.03804034058119155,1.7558810189666272e-17,0.03804034058119155,7.51000586859344e-19,0.0066270668793040576,1.7558810189666272e-17,0.0066270668793040576,-2.3578379696685128e-17,0.03861328174289018,-2.933782509132888e-17,-0.038613281742890214,0.042599159292809885,0.9981836620858368,0.042599159292809385,100.0,83.57142857142856,[0.31800644]
-1.8781526237265618e-17,0.016640888011811968,1.939340993434457e-17,0.016640888011811968,-1.606186226230967e-19,0.0072415067102099264,1.939340993434457e-17,0.0072415067102099264,-2.7793533279577747e-17,0.01814823884721827,-4.03906573636655e-17,-0.018148238847218293,0.2077804187866877,0.9558528103937645,0.20778041878668707,100.0,83.57142857142856,[0.31978733]
-2.1572817435823758e-17,-0.09639646176258483,2.12334020694361e-17,-0.09639646176258483,-4.864139639167023e-18,0.006450732519642625,2.12334020694361e-17,0.006450732519642625,-3.461548369720468e-17,0.09661205820385703,-3.172796031378396e-17,-0.09661205820385704,0.1259104190612241,0.9840188680831552,0.12591041906122444,100.0,83.57142857142856,[0.44097222]
