stress_11,stress_12,stress_13,stress_21,stress_22,stress_23,stress_31,stress_32,stress_33,e1,e2,e3,anev1,anev2,anev3,temp,miss,velo
-3.1255515753683683e-19,-0.10695686457358447,-1.4522572200167398e-17,-0.10695686457358447,-6.691719101986584e-18,-0.04376985021323979,-1.4522572200167398e-17,-0.04376985021323979,1.9274234714771604e-18,0.11556630420283232,1.079567080172359e-17,-0.11556630420283215,0.46892673551093056,0.7484754060395861,0.46892673551093084,500.0,109.28571428571416,[0.35975124]
6.620091878384391e-19,0.00971777185592473,-1.3815202495488084e-17,0.00971777185592473,-2.1509872299930923e-18,-0.02750528404773137,-1.3815202495488084e-17,-0.02750528404773137,4.5939096592132996e-18,0.02917148848430928,-7.800471270787667e-18,-0.02917148848430927,0.5515055122473406,0.6258460992301518,0.5515055122473407,500.0,109.28571428571416,[0.2147258]
7.770468499874139e-19,0.033258005454903296,-1.3511524433490013e-17,0.033258005454903296,-1.39564559927907e-18,-0.019193104714059724,-1.3511524433490013e-17,-0.019193104714059724,4.742590411236031e-18,0.03839883065150863,-8.711106545468097e-18,-0.038398830651508585,0.131327516127666,0.9826017336721299,0.1313275161276659,500.0,109.28571428571416,[0.23214334]
7.423184991499875e-19,0.04281933169640698,-1.333432166676584e-17,0.04281933169640698,-1.1503766214897466e-18,-0.015608339216045533,-1.333432166676584e-17,-0.015608339216045533,4.325850201186915e-18,0.04557538173191824,-4.913636604378167e-18,-0.045575381731918274,0.00915581178015973,0.9999161675967104,0.009155811780159367,500.0,109.28571428571416,[0.2059572]
6.837144071118306e-19,0.04769010566321836,-1.3204404059372803e-17,0.04769010566321836,-1.0939430513789289e-18,-0.013891837888507508,-1.3204404059372803e-17,-0.013891837888507508,3.722445105386633e-18,0.049672218976904034,-3.7995140426088456e-18,-0.04967221897690404,0.03756408713520349,0.998587942404372,0.037564087135203934,500.0,109.28571428571416,[0.21893277]
6.077461396549605e-19,0.050332027389259244,-1.3095827091398173e-17,0.050332027389259244,-1.0917725294515897e-18,-0.01311858299525513,-1.3095827091398173e-17,-0.01311858299525513,3.017025479001411e-18,0.05201355785674095,-3.633248368458862e-18,-0.05201355785674098,0.057657724549538346,0.9966700424912645,0.05765772454953866,500.0,109.28571428571416,[0.21893277]
5.25266306416073e-19,0.051651862226095815,-1.3006106532667303e-17,0.051651862226095815,-1.1438650557077292e-18,-0.012927386055864293,-1.3006106532667303e-17,-0.012927386055864293,2.2475754557596843e-18,0.053245020252235195,-4.046015763736807e-18,-0.05324502025223519,0.06450989884768747,0.9958297775731163,0.06450989884768776,500.0,109.28571428571416,[0.21893277]
4.0805812233975924e-19,0.05202705038941538,-1.2910722268282282e-17,0.05202705038941538,-1.2263448889466167e-18,-0.013169028657859206,-1.2910722268282282e-17,-0.013169028657859206,1.4368855158985137e-18,0.053667842215001385,-4.55584427341152e-18,-0.05366784221500132,0.06262921162957764,0.9960698588459119,0.06262921162957799,500.0,109.28571428571416,[0.21893277]
2.865088944087671e-19,0.05159252202016039,-1.2844771468236159e-17,0.05159252202016039,-1.3305299414588957e-18,-0.013798821094675125,-1.2844771468236159e-17,-0.013798821094675125,6.066608786912909e-19,0.053405952776854296,-5.858509447789023e-18,-0.05340595277685426,0.05316549171793827,0.9971694244113082,0.05316549171793845,500.0,109.28571428571416,[0.21893277]
1.8232384189648815e-19,0.05032458194525639,-1.2782055254577848e-17,0.05032458194525639,-1.4651023009539226e-18,-0.014846385264374375,-1.2782055254577848e-17,-0.014846385264374375,-2.6046263128069735e-19,0.0524688355443787,-6.8172789665604375e-18,-0.05246883554437867,0.035145889228393956,0.9987640026255906,0.03514588922839414,500.0,109.28571428571416,[0.21893277]
4.123991661944375e-20,0.04803335396695316,-1.2728720613234383e-17,0.04803335396695316,-1.632232489359037e-18,-0.016425125597423186,-1.2728720613234383e-17,-0.016425125597423186,-1.1666555359447902e-18,0.05076404085773453,-8.599399100460984e-18,-0.05076404085773452,0.005028594952703402,0.9999747129130833,0.005028594952703554,500.0,109.28571428571416,[0.1993352]
-1.0418505251227895e-19,0.044257906139927375,-1.2697167498575818e-17,0.044257906139927375,-1.8427731163109338e-18,-0.018788756524097592,-1.2697167498575818e-17,-0.018788756524097592,-2.129282010719701e-18,0.04808096949534655,-1.1613594101931067e-17,-0.0480809694953465,0.04583945463252124,0.997896532110412,0.04583945463252092,500.0,109.28571428571416,[0.21893277]
-2.8867941633610623e-19,0.03793169352011451,-1.2692334695846977e-17,0.03793169352011451,-2.129282010719701e-18,-0.02249858711788038,-1.2692334695846977e-17,-0.02249858711788038,-3.177644101624508e-18,0.0441021518251066,-1.344044891468639e-17,-0.04410215182510657,0.13961867172077036,0.9803128342594802,0.13961867172077017,500.0,109.28571428571416,[0.22895122]
-5.057316090700207e-19,0.026207522770415347,-1.276299641872856e-17,0.026207522770415347,-2.5785800496789038e-18,-0.02896268055436213,-1.276299641872856e-17,-0.02896268055436213,-4.409415295389472e-18,0.03905984017703942,-1.2361410602676921e-17,-0.03905984017703944,0.3381960266117002,0.8782066358028254,0.3381960266116995,500.0,109.28571428571416,[0.20859836]
-9.203012971917973e-19,-0.0014681960578726335,-1.3012727260440783e-17,-0.0014681960578726335,-3.546632829272162e-18,-0.042625964036587145,-1.3012727260440783e-17,-0.042625964036587145,-6.1469180982244576e-18,0.04265124159637997,-6.938893903907228e-18,-0.04265124159637997,0.6750700520127249,0.2975917501394721,0.6750700520127247,500.0,109.28571428571416,[0.16020428]
-2.4223024709104854e-18,-0.12985825621263125,-1.396906367289208e-17,-0.12985825621263125,-8.302246372072228e-18,-0.0737420950298838,-1.396906367289208e-17,-0.0737420950298838,-1.0167809968620223e-17,0.14933540533303488,2.0333742647222177e-18,-0.14933540533303474,0.5326589758464222,0.6576844462966117,0.5326589758464224,500.0,109.28571428571416,[0.38134517]
-7.162722360219177e-20,-0.10397377229033683,-1.3676068648505133e-17,-0.10397377229033683,-6.587534049474305e-18,-0.037434238578805,-1.3676068648505133e-17,-0.037434238578805,1.996880173152013e-18,0.11050731895335134,9.738754007955618e-18,-0.11050731895335132,0.31251556338208625,0.8970329120427825,0.31251556338208636,500.0,96.42857142857144,[0.3456873]
1.1330124460710335e-18,0.013276808444706538,-1.1825240860979463e-17,0.013276808444706538,-1.8254089408922206e-18,-0.01974241455061962,-1.1825240860979463e-17,-0.01974241455061962,5.072509744191581e-18,0.023791523170363607,-7.265594073041576e-18,-0.023791523170363597,0.5388928448613851,0.6474480701294941,0.5388928448613852,500.0,96.42857142857144,[0.21197186]
1.4824664763726358e-18,0.03618459895041348,-1.0360240303240884e-17,0.03618459895041348,-8.530151174442839e-19,-0.012505284834247723,-1.0360240303240884e-17,-0.012505284834247723,5.617310747953706e-18,0.038284557591644335,-1.2933471376707206e-18,-0.0382845575916443,0.15468916815614756,0.9757779063446345,0.15468916815614717,500.0,96.42857142857144,[0.21568472]
1.7147123225979244e-18,0.04562182480721973,-8.994235894032039e-18,0.04562182480721973,-3.906939469210461e-19,-0.008938284176974311,-8.994235894032039e-18,-0.008938284176974311,5.593435006752976e-18,0.046489179631060355,2.1024016939452766e-18,-0.046489179631060355,0.05740394462950569,0.9966993399626316,0.05740394462950542,500.0,96.42857142857144,[0.2163864]
1.920911905695143e-18,0.050604127884447674,-7.652497241682744e-18,0.050604127884447674,-1.0852609636695723e-19,-0.0067500023940483475,-7.652497241682744e-18,-0.0067500023940483475,5.361189160527687e-18,0.051052328950452315,3.297317121499258e-18,-0.05105232895045231,0.014428130987435584,0.9997918073641229,0.014428130987435363,500.0,96.42857142857144,[0.21034814]
2.103235747591631e-18,0.0534934668093267,-6.33093766037668e-18,0.0534934668093267,1.0418505251227895e-19,-0.005223105693548886,-6.33093766037668e-18,-0.005223105693548886,5.02475826179012e-18,0.053747854137319015,3.7697495491909014e-18,-0.053747854137318994,0.010513013523168621,0.9998894704382697,0.010513013523168814,500.0,96.42857142857144,[0.20767251]
2.266024892142067e-18,0.0551621785973728,-5.0222825102167486e-18,0.0551621785973728,2.6914471899005393e-19,-0.004068232139626147,-5.0222825102167486e-18,-0.004068232139626147,4.631893792941735e-18,0.055311992012133694,3.877303299609804e-18,-0.055311992012133694,0.027275268346125037,0.9992557828070318,0.02727526834612519,500.0,96.42857142857144,[0.22471995]
2.4223024709104854e-18,0.05598197925557247,-3.7126099279033775e-18,0.05598197925557247,4.0805812233975924e-19,-0.0031482990660989404,-3.7126099279033775e-18,-0.0031482990660989404,4.1956188855465665e-18,0.05607043595675841,3.772661182639368e-18,-0.05607043595675839,0.039592246041847,0.9984312235235453,0.0395922460418471,500.0,96.42857142857144,[0.2163864]
2.595944225097617e-18,0.056100624178475424,-2.412128149376083e-18,0.056100624178475424,5.165842187067164e-19,-0.002392191676553589,-2.412128149376083e-18,-0.002392191676553589,3.7289566711686505e-18,0.05615160384380765,3.5212177901365984e-18,-0.05615160384380767,0.049163949544151236,0.997579977811524,0.04916394954415131,500.0,96.42857142857144,[0.2163864]
2.7500512819386962e-18,0.05552659949170516,-1.1108663395311513e-18,0.05552659949170516,6.034050958002822e-19,-0.001762883688673166,-1.1108663395311513e-18,-0.001762883688673166,3.2167134963166127e-18,0.05555457685926539,3.1458192914113084e-18,-0.05555457685926539,0.05683381522775351,0.996764683811237,0.05683381522775355,500.0,96.42857142857144,[0.2163864]
2.8846236414337232e-18,0.05413181774346612,1.8549483877471018e-19,0.05413181774346612,6.576681439837608e-19,-0.0012456188210378555,1.8549483877471018e-19,-0.0012456188210378555,2.6762535364091653e-18,0.054146147217130416,2.6847604965276856e-18,-0.0541461472171304,0.0629853526532737,0.9960249448192979,0.0629853526532737,500.0,96.42857142857144,[0.2163864]
3.032219132492785e-18,0.0515744152882622,1.4823477759547344e-18,0.0515744152882622,6.685207536204565e-19,-0.0008469580671326302,1.4823477759547344e-18,-0.0008469580671326302,2.0663368748268657e-18,0.051581369216933515,2.1152651966705167e-18,-0.0515813692169335,0.06762258835328984,0.995416682143113,0.0676225883532898,500.0,96.42857142857144,[0.2163864]
3.1537683604237775e-18,0.04703912534936132,2.7707051546535328e-18,0.04703912534936132,5.882114423089082e-19,-0.0006064138564979367,2.7707051546535328e-18,-0.0006064138564979367,1.3587467265143045e-18,0.04704303403691434,1.4304500585381647e-18,-0.04704303403691433,0.07010653115385958,0.9950729363112765,0.07010653115385947,500.0,96.42857142857144,[0.2163864]
3.2492713252267e-18,0.03830158985868439,4.0616908997487184e-18,0.03830158985868439,3.689887276476546e-19,-0.0006384148862481083,4.0616908997487184e-18,-0.0006384148862481083,4.3193386354048983e-19,0.038306910072072625,5.680520571901485e-19,-0.03830691007207262,0.06744945064263931,0.9954401756087667,0.06744945064263914,500.0,96.42857142857144,[0.2163864]
3.2601239348633956e-18,0.016797644976873256,5.32423941615525e-18,0.016797644976873256,-3.8635290306636774e-19,-0.001255405219733652,5.32423941615525e-18,-0.001255405219733652,-1.0830904417422332e-18,0.01684449224627473,-2.6952945328312124e-19,-0.016844492246274725,0.02658197252481326,0.9992931489174637,0.026581972524812814,500.0,96.42857142857144,[0.22041162]
2.4809065629486423e-18,-0.09634421977006431,6.576579696622265e-18,-0.09634421977006431,-4.9314258189145366e-18,-0.00047154311094664466,6.576579696622265e-18,-0.00047154311094664466,-5.207082103686608e-18,0.09634537371357246,-5.271271925936483e-18,-0.09634537371357245,0.08260892366766535,0.993152320372328,0.08260892366766526,500.0,96.42857142857144,[0.34602864]
-2.671912492554487e-18,-0.13527145483956948,-1.382267638251523e-17,-0.13527145483956948,-8.381470422420107e-18,-0.07812051045406933,-1.382267638251523e-17,-0.07812051045406933,-1.0228584582585719e-17,0.1562087726346316,4.690175658883092e-20,-0.15620877263463157,0.6252033684939576,0.46716324346808025,0.6252033684939579,500.0,122.14285714285735,[0.37858916]
-1.172081840763138e-18,-0.008025476201925409,-1.217771751263691e-17,-0.008025476201925409,-3.787560763206807e-18,-0.04805186029045853,-1.217771751263691e-17,-0.04805186029045853,-6.814353590881245e-18,0.04871744600901628,5.2676390010434124e-18,-0.0487174460090163,0.652518493536641,0.3852781218617852,0.6525184935366415,500.0,122.14285714285735,[0.20621203]
-7.878994596241096e-19,0.020687930398166632,-1.1263139271308214e-17,0.020687930398166632,-2.971444518527289e-18,-0.03369450567567409,-1.1263139271308214e-17,-0.03369450567567409,-5.6520390987911326e-18,0.03953871744110349,-1.294776189292141e-17,-0.03953871744110349,0.31338527587321335,0.8964258685087909,0.3133852758732135,500.0,122.14285714285735,[0.21055089]
-6.272808370010128e-19,0.032535205378727,-1.0552115289477792e-17,0.032535205378727,-2.6784240583365045e-18,-0.027265076944701944,-1.0552115289477792e-17,-0.027265076944701944,-4.9694099526429716e-18,0.04244907548859531,-1.1728407508449213e-17,-0.042449075488595306,0.0962190491585742,0.9906986369012727,0.0962190491585742,500.0,122.14285714285735,[0.21159491]
-5.122431748520381e-19,0.038560706076867235,-9.920993646097543e-18,0.038560706076867235,-2.5481927426961558e-18,-0.023927416079914807,-9.920993646097543e-18,-0.023927416079914807,-4.463678343572951e-18,0.04538115570815611,-1.3912663971318935e-17,-0.04538115570815615,0.0039827936941658985,0.999984137228576,0.0039827936941662185,500.0,122.14285714285735,[0.20159454]
-4.167402100491158e-19,0.04179123009464334,-9.322027098066643e-18,0.04179123009464334,-2.4961002164400163e-18,-0.022130169714049897,-9.322027098066643e-18,-0.022130169714049897,-4.037170784850809e-18,0.04728901906781398,-1.083975241850688e-17,-0.047289019067813964,0.052277114860612046,0.9972633586589355,0.052277114860612366,500.0,122.14285714285735,[0.20908617]
-3.7332977150233287e-19,0.04335537220335448,-8.749102573863175e-18,0.04335537220335448,-2.4852476068033206e-18,-0.02126243190134624,-8.749102573863175e-18,-0.02126243190134624,-3.671437840094163e-18,0.04828850079729944,-9.430179743497367e-18,-0.04828850079729949,0.07413990830929967,0.9944880833834949,0.0741399083092998,500.0,122.14285714285735,[0.20769181]
-3.407719425922457e-19,0.04372443738357141,-8.190082955756722e-18,0.04372443738357141,-2.5134643918587295e-18,-0.021062083456937303,-8.190082955756722e-18,-0.021062083456937303,-3.3284953755745787e-18,0.048532852626410154,-9.391907614749051e-18,-0.04853285262641016,0.0790990417636288,0.993723645277776,0.07909904176362903,500.0,122.14285714285735,[0.20769181]
-3.212372452461934e-19,0.04306526836583897,-7.646112854919906e-18,0.04306526836583897,-2.565556918114869e-18,-0.021433947148042705,-7.646112854919906e-18,-0.021433947148042705,-3.0137696961104023e-18,0.04810438056733315,-9.937760229558368e-18,-0.048104380567333155,0.07002016321125713,0.995085098616062,0.0700201632112572,500.0,122.14285714285735,[0.20908617]
-2.9953202597280196e-19,0.04134365656465382,-7.113071671131294e-18,0.04134365656465382,-2.626331532080365e-18,-0.022394429602881395,-7.113071671131294e-18,-0.022394429602881395,-2.7240050188106265e-18,0.04701923452561144,-8.496599303028887e-18,-0.047019234525611485,0.04563102589829692,0.9979156371913098,0.04563102589829715,500.0,122.14285714285735,[0.20908617]
-2.930204601907845e-19,0.038313421415543614,-6.603711220714004e-18,0.038313421415543614,-2.7207492359196178e-18,-0.024076782021601583,-6.603711220714004e-18,-0.024076782021601583,-2.4722244752392857e-18,0.04525052146750089,-4.134897896471779e-18,-0.0452505214675008,3.7891472022298046e-05,0.9999999985642363,3.7891472022503075e-05,500.0,122.14285714285735,[0.2021031]
-3.4294246451958485e-19,0.03338266168036661,-6.110680556359428e-18,0.03338266168036661,-2.877026814688036e-18,-0.026801072414916978,-6.110680556359428e-18,-0.026801072414916978,-2.2595133263600495e-18,0.04281004068504772,-7.402487873099294e-18,-0.04281004068504772,0.08147114002736776,0.9933402773900202,0.08147114002736743,500.0,122.14285714285735,[0.20867577]
-4.1239916619443753e-19,0.025191924410251976,-5.669216744981715e-18,0.025191924410251976,-3.1114431828406642e-18,-0.0312892698418991,-5.669216744981715e-18,-0.0312892698418991,-2.114088357228327e-18,0.04017028083958371,-4.969923745096341e-18,-0.04017028083958371,0.23042806722477782,0.9454130376031985,0.23042806722477782,500.0,122.14285714285735,[0.20855224]
-5.925524861635865e-19,0.010157322437376699,-5.306841326331422e-18,0.010157322437376699,-3.504307651689049e-18,-0.03936093783665589,-5.306841326331422e-18,-0.03936093783665589,-2.1271114887923617e-18,0.04065039515770942,-4.237898592428683e-18,-0.04065039515770943,0.48573044813268257,0.7267268149130363,0.48573044813268257,500.0,122.14285714285735,[0.22303472]
-1.0223158277767371e-18,-0.02459410296578256,-5.185648199654134e-18,-0.02459410296578256,-4.418097383098829e-18,-0.05673293065746415,-5.185648199654134e-18,-0.05673293065746415,-2.5438516988414775e-18,0.06183441858444332,-2.8989541568260347e-18,-0.06183441858444331,0.6989598918151214,0.15136095687986206,0.6989598918151214,500.0,122.14285714285735,[0.10087634]
-2.9453982553992192e-18,-0.1688329306836988,-5.956132612251858e-18,-0.1688329306836988,-9.119447877715416e-18,-0.09509213500567607,-5.956132612251858e-18,-0.09509213500567607,-4.8782480316947275e-18,0.19377067018303978,-3.91748259321143e-19,-0.19377067018303976,0.6216086322880541,0.47666069329235555,0.6216086322880543,500.0,122.14285714285735,[0.65545981]
-3.522757088071432e-18,-0.1756007623284294,-5.455539035556711e-18,-0.1756007623284294,-9.08580478784166e-18,-0.09667701824104745,-5.455539035556711e-18,-0.09667701824104745,-4.987859389025354e-18,0.2004546671601971,4.60709495721514e-18,-0.200454667160197,0.6791505142454014,0.2784046659099196,0.6791505142454013,500.0,135.00000000000023,[0.56378403]
-2.1509872299930923e-18,-0.03282858436981528,-3.5369841810170375e-18,-0.03282858436981528,-4.306315503840863e-18,-0.0587402801964649,-3.5369841810170375e-18,-0.0587402801964649,-3.481517171451988e-18,0.06729142938952391,8.170589061454831e-18,-0.06729142938952389,0.6803902472945216,0.2722833501575135,0.6803902472945218,500.0,135.00000000000023,[0.14864733]
-2.3029237649068324e-18,0.0031774480699015674,-2.5243678731030972e-18,0.0031774480699015674,-3.3143869830468742e-18,-0.041168761648974504,-2.5243678731030972e-18,-0.041168761648974504,-3.8581027258453296e-18,0.04129119896475514,0.0,-0.04129119896475514,0.46004129852830095,0.759423470335747,0.46004129852830095,500.0,135.00000000000023,[0.21798829]
-2.7500512819386962e-18,0.01832640460077988,-1.75836016198051e-18,0.01832640460077988,-2.854236334450975e-18,-0.03315753145996373,-1.75836016198051e-18,-0.03315753145996373,-4.6145296175230215e-18,0.0378850761924794,-4.081890592450065e-18,-0.03788507619247941,0.1957383797228287,0.9609229799557106,0.19573837972282862,500.0,135.00000000000023,[0.19210008]
-3.2861701979914653e-18,0.026103141442311642,-1.0764601755423144e-18,0.026103141442311642,-2.5416811769141383e-18,-0.028850130442675655,-1.0764601755423144e-18,-0.028850130442675655,-5.504443607732071e-18,0.03890634934964636,-4.560708744554365e-18,-0.038906349349646374,0.03530257973675418,0.9987529502974496,0.03530257973675413,500.0,135.00000000000023,[0.20803147]
-3.891745815719086e-18,0.03031550637075651,-4.400054919577822e-19,0.03031550637075651,-2.298582721052154e-18,-0.026375812073461635,-4.400054919577822e-19,-0.026375812073461635,-6.467070082506982e-18,0.04018349647616476,-8.129058482875768e-18,-0.04018349647616473,0.04902129783096361,0.9975940179842376,0.049021297830963574,500.0,135.00000000000023,[0.20803147]
-4.532049784284134e-18,0.03240034346190549,1.7106425939841634e-19,0.03240034346190549,-2.1205999230103443e-18,-0.024994847297676863,1.7106425939841634e-19,-0.024994847297676863,-7.456828081373631e-18,0.04092095609689031,-9.813315902981063e-18,-0.04092095609689034,0.09048537559453046,0.9917786011036098,0.09048537559453046,500.0,135.00000000000023,[0.20800393]
-5.204911581759269e-18,0.03296250964702766,7.569186505518547e-19,0.03296250964702766,-1.9795159977333e-18,-0.024384106299006728,7.569186505518547e-19,-0.024384106299006728,-8.480229170114038e-18,0.04100136195581374,-7.403231859496734e-18,-0.04100136195581376,0.10461119995557606,0.9889959523110845,0.1046111999555759,500.0,135.00000000000023,[0.21561482]
-5.864750247670369e-18,0.03221948347395764,1.332310447727416e-18,0.03221948347395764,-1.8427731163109338e-18,-0.024416782736823833,1.332310447727416e-18,-0.024416782736823833,-9.523164956200497e-18,0.040426159779849105,-8.375954557798989e-18,-0.04042615977984908,0.09650558919800444,0.990642893532827,0.09650558919800431,500.0,135.00000000000023,[0.21054021]
-6.581022483692287e-18,0.030133285803300807,1.8908976571686564e-18,0.030133285803300807,-1.738588063798655e-18,-0.025092842230861234,1.8908976571686564e-18,-0.025092842230861234,-1.0583464917705669e-17,0.03921308001835997,-7.003648198379076e-18,-0.03921308001836,0.06426992689785907,0.995860810049822,0.0642699268978587,500.0,135.00000000000023,[0.20803147]
-7.305976807423561e-18,0.026398358163475043,2.4359021473614697e-18,0.026398358163475043,-1.6734724059784807e-18,-0.026539023512457474,2.4359021473614697e-18,-0.026539023512457474,-1.1660043793665885e-17,0.037432513710968965,-5.532517827139548e-18,-0.03743251371096897,0.0018789193542859525,0.9999964696558283,0.001878919354286096,500.0,135.00000000000023,[0.20101345]
-8.056977394282905e-18,0.02027596807456641,2.9487896959106867e-18,0.02027596807456641,-1.6517671867050892e-18,-0.029078392908656218,2.9487896959106867e-18,-0.029078392908656218,-1.2778947847209215e-17,0.03544951079367701,-7.736576771074457e-18,-0.03544951079367704,0.12415439080840121,0.9844650194323765,0.12415439080840147,500.0,135.00000000000023,[0.21828622]
-8.885031509562788e-18,0.010073008756304935,3.4227095929831434e-18,0.010073008756304935,-1.7038597129612287e-18,-0.033450626109852846,3.4227095929831434e-18,-0.033450626109852846,-1.3945603383154004e-17,0.034934365495107596,-8.541668966224251e-18,-0.034934365495107624,0.3345934157129842,0.8809622536312416,0.33459341571298423,500.0,135.00000000000023,[0.2029964]
-9.843316940483021e-18,-0.008636735623971496,3.805467569107355e-18,-0.008636735623971496,-1.9274234714771604e-18,-0.04152644386131533,3.805467569107355e-18,-0.04152644386131533,-1.522187027642942e-17,0.042415076824230215,-4.520705288218549e-18,-0.042415076824230236,0.5913366571651504,0.548308230638106,0.5913366571651506,500.0,135.00000000000023,[0.19770739]
-1.1185784752542282e-17,-0.051367819936849884,3.935495398317016e-18,-0.051367819936849884,-2.6458662294264173e-18,-0.05916238027751907,3.935495398317016e-18,-0.05916238027751907,-1.679441341278663e-17,0.07835075089089075,-2.0574129049301537e-17,-0.0783507508908907,0.7053550792913937,0.07034503703647298,0.7053550792913938,500.0,135.00000000000023,[0.11617434]
-1.4401412987895225e-17,-0.21302458646014064,3.1681480681923993e-18,-0.21302458646014064,-7.18225705756523e-18,-0.097163871098561,3.1681480681923993e-18,-0.097163871098561,-1.9879810332499226e-17,0.23413733637199283,-2.399754177760258e-17,-0.2341373363719927,0.6624070777543156,0.3499053110228192,0.6624070777543157,500.0,135.00000000000023,[0.71521047]
-1.4505598040407503e-17,-0.21979796945429636,3.3145904694775623e-18,-0.21979796945429636,-7.15404027250982e-18,-0.09563808362856807,3.3145904694775623e-18,-0.09563808362856807,-1.9469039057750292e-17,0.2397035469415852,-2.102089270042817e-17,-0.23970354694158538,0.6991043534588959,0.15002068507255356,0.6991043534588959,500.0,147.8571428571427,[0.30957917]
-1.0879741160787462e-17,-0.059621614518512646,4.246354835598119e-18,-0.059621614518512646,-2.578037419197069e-18,-0.057343881745848396,4.246354835598119e-18,-0.057343881745848396,-1.6180698337831488e-17,0.08272277613496762,-1.9217947564786463e-17,-0.08272277613496759,0.6923109670988409,0.2034970507632372,0.6923109670988409,500.0,147.8571428571427,[0.15066957]
-9.155261489516512e-18,-0.015649522105095178,4.274639449463757e-18,-0.015649522105095178,-1.796106894873142e-18,-0.04003602756571735,4.274639449463757e-18,-0.04003602756571735,-1.4358545179830276e-17,0.042985940089298263,-6.729033793535375e-18,-0.04298594008929831,0.5683589634974511,0.5949253543296051,0.5683589634974511,500.0,147.8571428571427,[0.21648124]
-7.845351506367338e-18,0.0031608189290580468,4.069559041735323e-18,0.0031608189290580468,-1.5242490234739143e-18,-0.03202809947871659,4.069559041735323e-18,-0.03202809947871659,-1.2809877784673798e-17,0.0321836904739164,-1.0639649598945717e-17,-0.03218369047391641,0.31558292831734486,0.8948825792858519,0.31558292831734497,500.0,147.8571428571427,[0.19904738]
-6.685207536204566e-18,0.012935730313076522,3.778234301800272e-18,0.012935730313076522,-1.4298313196346615e-18,-0.02760330519327408,3.778234301800272e-18,-0.02760330519327408,-1.1358341245765744e-17,0.030484021656036107,-2.232074619008913e-18,-0.030484021656036114,0.08658706800116524,0.9924743620416213,0.0865870680011653,500.0,147.8571428571427,[0.20414594]
-5.6064581383170106e-18,0.0183253031505405,3.4446861274974522e-18,0.0183253031505405,-1.3902192944607221e-18,-0.02494205241158617,3.4446861274974522e-18,-0.02494205241158617,-9.949672514922639e-18,0.030950326558237165,-3.93106759383896e-18,-0.03095032655823718,0.0513248030036827,0.9973622858286084,0.05132480300368258,500.0,147.8571428571427,[0.20455634]
-4.5559255254848646e-18,0.021099963237553247,3.0844473163693832e-18,0.021099963237553247,-1.4200639709616354e-18,-0.023322321889403287,3.0844473163693832e-18,-0.023322321889403287,-8.56325163383476e-18,0.03145058261684572,-4.499662997702691e-18,-0.03145058261684571,0.12270438656711019,0.9848285470244953,0.12270438656710997,500.0,147.8571428571427,[0.21253863]
-3.531439175780788e-18,0.02201133257853069,2.7077939331658123e-18,0.02201133257853069,-1.469443344808601e-18,-0.022423990381246685,2.7077939331658123e-18,-0.022423990381246685,-7.197450711056604e-18,0.031421873058443385,-3.2751587840405393e-18,-0.031421873058443406,0.15093750041523513,0.9769522720874351,0.15093750041523535,500.0,147.8571428571427,[0.20951543]
-2.550363264623495e-18,0.02133620524363093,2.3117415102366477e-18,0.02133620524363093,-1.5470395037109755e-18,-0.022113751821176083,2.3117415102366477e-18,-0.022113751821176083,-5.8452155503243165e-18,0.030728678360888096,-4.853946995811689e-18,-0.030728678360888103,0.14498627406464776,0.9787532685338537,0.14498627406464715,500.0,147.8571428571427,[0.2145748]
-1.5714578753935409e-18,0.01904031325540379,1.908431404612943e-18,0.01904031325540379,-1.6485114038140805e-18,-0.0223751475441502,1.908431404612943e-18,-0.0223751475441502,-4.509801934528908e-18,0.029379937993236058,-5.001565778235096e-19,-0.029379937993236075,0.10150777016821892,0.9896425340449714,0.10150777016821903,500.0,147.8571428571427,[0.2086774]
-6.717765365114653e-19,0.01476740542779912,1.48619706093525e-18,0.01476740542779912,-1.7950216339094726e-18,-0.023303307305903867,1.48619706093525e-18,-0.023303307305903867,-3.1846982978883603e-18,0.02758841050989316,4.698732657184936e-19,-0.02758841050989316,0.0027120365854853374,0.9999926448305096,0.002712036585485518,500.0,147.8571428571427,[0.19648154]
2.2573428044327104e-19,0.007645142205837945,1.0428001284660003e-18,0.007645142205837945,-1.9578107784599084e-18,-0.025160309581182257,1.0428001284660003e-18,-0.025160309581182257,-1.8818425110030384e-18,0.026296185608723106,-5.810404836287403e-19,-0.02629618560872312,0.18588486436242255,0.9648282927039026,0.1858848643624224,500.0,147.8571428571427,[0.20876267]
1.027742132595085e-18,-0.004327887866668808,5.668114526815488e-19,-0.004327887866668808,-2.217730779258771e-18,-0.02855703109950293,5.668114526815488e-19,-0.02855703109950293,-6.061182482094561e-19,0.02888312030588864,3.026658296098783e-18,-0.028883120305888643,0.461669887574259,0.7574442750554936,0.4616698875742589,500.0,147.8571428571427,[0.21415442]
1.6365735332137152e-18,-0.026359013257439574,1.041172237020496e-20,-0.026359013257439574,-2.6426104465354086e-18,-0.03504482195098155,1.041172237020496e-20,-0.03504482195098155,5.865835508634038e-19,0.043851306998559034,4.477091659934891e-18,-0.04385130699855899,0.6605451759847618,0.3568755258721453,0.6605451759847615,500.0,147.8571428571427,[0.14560081]
1.765719587890394e-18,-0.0764033876434736,-7.519162757974402e-19,-0.0764033876434736,-3.581361180109589e-18,-0.049459924637909505,-7.519162757974402e-19,-0.049459924637909505,1.5877367898485845e-18,0.09101517339755268,5.571654599250663e-18,-0.09101517339755263,0.7070422216997827,0.013512715036968756,0.7070422216997826,500.0,147.8571428571427,[0.1302404]
-3.4728350837426314e-19,-0.2536082584056921,-2.2409621467623228e-18,-0.2536082584056921,-8.312556351227089e-18,-0.07958616086967953,-2.2409621467623228e-18,-0.07958616086967953,1.4569628437264008e-18,0.265802757197029,3.269422955201723e-18,-0.26580275719702906,0.6838982842793228,0.2540989443496315,0.6838982842793229,500.0,147.8571428571427,[0.57509409]
-5.25266306416073e-19,-0.2590484862430221,-1.788408324912111e-18,-0.2590484862430221,-8.319610547490941e-18,-0.07526009020991299,-1.788408324912111e-18,-0.07526009020991299,1.8943230120852385e-18,0.26975952143197,2.9580280832412916e-18,-0.26975952143197,0.7060815019836173,0.05383145096612246,0.7060815019836173,500.0,160.7142857142859,[0.20409635]
1.693007103324533e-18,-0.08304903446613038,2.180696248873547e-19,-0.08304903446613038,-3.618802683356189e-18,-0.044200109243672125,2.180696248873547e-19,-0.044200109243672125,2.408194078382781e-18,0.09407864679569466,2.467766206748442e-18,-0.09407864679569454,0.6989016018245368,0.1518983276214519,0.6989016018245366,500.0,160.7142857142859,[0.15592444]
1.62463566261335e-18,-0.0320275492876532,1.516584367917998e-18,-0.0320275492876532,-2.7033850605009046e-18,-0.03059156572708381,1.516584367917998e-18,-0.03059156572708381,1.831920506674238e-18,0.04429004184924128,2.750893107053729e-18,-0.04429004184924129,0.6439474958570994,0.41311408249869963,0.6439474958570991,500.0,160.7142857142859,[0.19832589]
1.0678967882508592e-18,-0.009933949684342969,2.6336909579902493e-18,-0.009933949684342969,-2.3056369173160064e-18,-0.02418114693814294,2.6336909579902493e-18,-0.02418114693814294,1.0662688968053548e-18,0.02614213502327454,-4.368862488846102e-18,-0.026142135023274546,0.469644364242956,0.7475749743468278,0.4696443642429557,500.0,160.7142857142859,[0.20888041]
3.1906672331885426e-19,0.0016774055190162719,3.677576347419919e-18,0.0016774055190162719,-2.083701050245579e-18,-0.020523969542209062,3.677576347419919e-18,-0.020523969542209062,2.4581160827115813e-19,0.02059240187653571,0.0,-0.02059240187653571,0.17839958327257308,0.9676503383848655,0.17839958327257247,500.0,160.7142857142859,[0.21347958]
-5.198400015977251e-19,0.00819329386610978,4.694296298352735e-18,0.00819329386610978,-1.923625058104317e-18,-0.018211946704012178,4.694296298352735e-18,-0.018211946704012178,-6.044903567639518e-19,0.019970104334384738,2.171544518678986e-18,-0.01997010433438473,0.060848710775296806,0.9962905544036683,0.06084871077529645,500.0,160.7142857142859,[0.20238617]
-1.4064982089157657e-18,0.011677056253328488,5.6905658630014024e-18,0.011677056253328488,-1.814556331255525e-18,-0.01668372916879908,5.6905658630014024e-18,-0.01668372916879908,-1.4645596704720878e-18,0.020364195582473547,4.257275826794676e-18,-0.020364195582473554,0.1913757693763889,0.9626788819700941,0.19137576937638934,500.0,160.7142857142859,[0.20363002]
-2.3376521157442588e-18,0.013011299148187225,6.671200886892206e-18,0.013011299148187225,-1.733704389462142e-18,-0.015685556737661286,6.671200886892206e-18,-0.015685556737661286,-2.344163681526276e-18,0.020379661324320602,4.631252603533739e-18,-0.020379661324320616,0.24636514169689222,0.9373411512962294,0.24636514169689241,500.0,160.7142857142859,[0.20372466]
-3.3013638514828394e-18,0.012529142074133763,7.654582977597296e-18,0.012529142074133763,-1.6875807985061851e-18,-0.015103975544353995,7.654582977597296e-18,-0.015103975544353995,-3.2275661059533084e-18,0.01962420643894352,4.791467075155168e-18,-0.01962420643894354,0.2463721432295482,0.9373374707547747,0.24637214322954834,500.0,160.7142857142859,[0.20372466]
-4.280269240712793e-18,0.010206856269848014,8.613784097455625e-18,0.010206856269848014,-1.6577361220052719e-18,-0.014909308621044436,8.613784097455625e-18,-0.014909308621044436,-4.121821140017036e-18,0.018068408852770772,4.1409374160309415e-18,-0.018068408852770782,0.1843198374080868,0.9654286069284009,0.18431983740808744,500.0,160.7142857142859,[0.2065925]
-5.343282354627139e-18,0.005656307144643655,9.568271115003014e-18,0.005656307144643655,-1.6645190030282067e-18,-0.01514617868307487,9.568271115003014e-18,-0.01514617868307487,-5.016076174080763e-18,0.016167886046548514,1.850231265894919e-18,-0.016167886046548525,0.014713782493920555,0.9997834811645187,0.01471378249392123,500.0,160.7142857142859,[0.19885333]
-6.4334269926332254e-18,-0.0020886796903473825,1.0513635157574555e-17,-0.0020886796903473825,-1.7149836378388418e-18,-0.015963709810224165,1.0513635157574555e-17,-0.015963709810224165,-5.9314937969360475e-18,0.016099770611841546,-8.659556298241749e-18,-0.016099770611841552,0.3181564268669643,0.8930582153961143,0.3181564268669636,500.0,160.7142857142859,[0.1945927]
-7.609849877251041e-18,-0.015251321110848903,1.1428713636378693e-17,-0.015251321110848903,-1.8454862687201077e-18,-0.017722927652686106,1.1428713636378693e-17,-0.017722927652686106,-6.864275595210046e-18,0.02338172278102218,-1.9548993174960645e-17,-0.023381722781022164,0.6123668037339379,0.500013795179055,0.6123668037339376,500.0,160.7142857142859,[0.19646433]
-8.972937647620024e-18,-0.03960404640388201,1.2303128743450336e-17,-0.03960404640388201,-2.1357935765017183e-18,-0.021348486038947765,1.2303128743450336e-17,-0.021348486038947765,-7.841553092994495e-18,0.044991536400927554,-1.823921046597789e-17,-0.04499153640092757,0.6983216174445904,0.15714272881410238,0.6983216174445904,500.0,160.7142857142859,[0.0907939]
-1.0945942079571306e-17,-0.09485813393293092,1.3051890979572113e-17,-0.09485813393293092,-2.9524524516630715e-18,-0.029698397082213484,1.3051890979572113e-17,-0.029698397082213484,-8.94010850346902e-18,0.0993984927576404,-1.6317057493225185e-17,-0.09939849275764037,0.7067174919132436,0.033177903003486754,0.7067174919132437,500.0,160.7142857142859,[0.12984676]
-1.5391170986761874e-17,-0.28267243369521144,1.3389458010881022e-17,-0.28267243369521144,-7.558842611958571e-18,-0.045993129678884914,1.3389458010881022e-17,-0.045993129678884914,-1.0913384250661219e-17,0.28638972179328015,-1.5265788780645314e-17,-0.28638972179328026,0.696269299493019,0.17440792747751224,0.6962692994930191,500.0,160.7142857142859,[0.35247332]
-1.5721090319717424e-17,-0.2857135355660541,1.3394019498368946e-17,-0.2857135355660541,-7.567524699667928e-18,-0.039731272110332796,1.3394019498368946e-17,-0.039731272110332796,-1.0583193602464752e-17,0.2884628197691344,-1.4259930636074485e-17,-0.2884628197691345,0.7068682707121596,0.025971055442586127,0.7068682707121596,500.0,173.57142857142813,[0.21851547]
-1.1628571225719467e-17,-0.0986127133670476,1.2520723566666087e-17,-0.0986127133670476,-2.976328192863802e-18,-0.022061968869391605,1.2520723566666087e-17,-0.022061968869391605,-8.227905996060862e-18,0.10105047109244715,-1.36039429695923e-17,-0.10105047109244707,0.7029946159195843,0.10769001799680247,0.7029946159195847,500.0,173.57142857142813,[0.15314616]
-1.0052229675989414e-17,-0.04286062381480298,1.1256191057560345e-17,-0.04286062381480298,-2.171607188302814e-18,-0.014852449582728248,1.1256191057560345e-17,-0.014852449582728248,-6.7240056156557534e-18,0.04536108830706713,-1.3916321507031852e-17,-0.0453610883070671,0.689850167514707,0.21957571076934054,0.6898501675147071,500.0,173.57142857142813,[0.11904276]
-9.068440612422946e-18,-0.01851725203501561,9.902463663003013e-18,-0.01851725203501561,-1.8893036801282667e-18,-0.011313265784057707,9.902463663003013e-18,-0.011313265784057707,-5.3378560498087914e-18,0.021699737455301647,-1.525727026918152e-17,-0.021699737455301644,0.6408844804406262,0.4225330347566887,0.6408844804406264,500.0,173.57142857142813,[0.19832589]
-8.280541152798837e-18,-0.005599111860053736,8.515567980243528e-18,-0.005599111860053736,-1.767076164094981e-18,-0.009151774075190872,8.515567980243528e-18,-0.009151774075190872,-3.976938801367148e-18,0.010728700869384433,-1.427775383241513e-17,-0.01072870086938443,0.4342398241557536,0.7892221171725742,0.43423982415575374,500.0,173.57142857142813,[0.20634568]
-7.592485701832328e-18,0.00176582980602897,7.11532697907142e-18,0.00176582980602897,-1.7288207151256289e-18,-0.00765025218213909,7.11532697907142e-18,-0.00765025218213909,-2.6458662294264173e-18,0.00785140199927275,-3.676573413291535e-18,-0.007851401999272756,0.08089029344210208,0.9934352122074701,0.08089029344210374,500.0,173.57142857142813,[0.20099181]
-6.956522777121959e-18,0.0058351766537494305,5.7030463640836025e-18,0.0058351766537494305,-1.7350609656667287e-18,-0.006519175564822758,5.7030463640836025e-18,-0.006519175564822758,-1.314251027003852e-18,0.008749224915696501,1.075785994116826e-18,-0.008749224915696508,0.4096386138925126,0.8151027002877865,0.4096386138925132,500.0,173.57142857142813,[0.1939433]
-6.363970290958373e-18,0.007580819150290879,4.280676213574169e-18,0.007580819150290879,-1.781455871863603e-18,-0.005621382491421489,4.280676213574169e-18,-0.005621382491421489,9.496033432108758e-21,0.009437624706687424,3.3366168459625683e-18,-0.009437624706687419,0.5172587201193753,0.6818261016717764,0.5172587201193753,500.0,173.57142857142813,[0.19113606]
-5.8197119176780815e-18,0.00737807253828334,2.859866125700011e-18,0.00737807253828334,-1.8349049743243294e-18,-0.004885720018050737,2.859866125700011e-18,-0.004885720018050737,1.3237470604359608e-18,0.008849079866005976,2.0866121687633335e-18,-0.008849079866005985,0.5421438952975753,0.6419968797300679,0.5421438952975757,500.0,173.57142857142813,[0.1975554]
-5.296073502707513e-18,0.005218496873202341,1.4346471651609452e-18,0.005218496873202341,-1.9317645153318387e-18,-0.00427515148225258,1.4346471651609452e-18,-0.00427515148225258,2.639219006023941e-18,0.006746082552995404,9.520136876398317e-19,-0.006746082552995413,0.4933774531553066,0.7163500383443595,0.49337745315530734,500.0,173.57142857142813,[0.20888041]
-4.827240766402258e-18,0.0007071996686637068,8.003799607063096e-21,0.0007071996686637068,-2.0579261023584265e-18,-0.0037749383694208197,8.003799607063096e-21,-0.0037749383694208197,3.940039928602382e-18,0.0038406107670894717,-4.795884484430402e-18,-0.0038406107670894704,0.051568967158245486,0.9973370960976352,0.05156896715824597,500.0,173.57142857142813,[0.20238617]
-4.40344636008929e-18,-0.007157477512164004,-1.4250663457160498e-18,-0.007157477512164004,-2.2106765829949188e-18,-0.0033917017951585354,-1.4250663457160498e-18,-0.0033917017951585354,5.237740725910273e-18,0.007920424572231912,4.655607084092265e-18,-0.007920424572231913,0.6688784897625436,0.3243503227468054,0.668878489762544,500.0,173.57142857142813,[0.14256824]
-4.093604354961627e-18,-0.020690141081682194,-2.85815344824172e-18,-0.020690141081682194,-2.454588984579655e-18,-0.003165101700041873,-2.85815344824172e-18,-0.003165101700041873,6.522011418792754e-18,0.020930833876162718,7.133433757926717e-18,-0.02093083387616272,0.7065524320552774,0.03958941163423543,0.7065524320552773,500.0,173.57142857142813,[0.07307078]
-3.999729281604209e-18,-0.0459004070200172,-4.29805734619544e-18,-0.0459004070200172,-2.8763485265857427e-18,-0.0032099515415531703,-4.29805734619544e-18,-0.0032099515415531703,7.771146787976431e-18,0.046012510836753555,8.30864343654e-18,-0.04601251083675356,0.7064718582399655,0.042367759321689645,0.7064718582399654,500.0,173.57142857142813,[0.07255571]
-4.491352498146525e-18,-0.10322341320871625,-5.760073436283927e-18,-0.10322341320871625,-3.7776577569133225e-18,-0.003839968548247174,-5.760073436283927e-18,-0.003839968548247174,8.933054307205167e-18,0.10329481300098718,9.341923523821984e-18,-0.10329481300098718,0.7051181103115478,0.07494598735985784,0.7051181103115479,500.0,173.57142857142813,[0.14426653]
-7.587330712254897e-18,-0.29460089512879395,-7.22924546585161e-18,-0.29460089512879395,-8.493387959298532e-18,-0.0030744239934304344,-7.22924546585161e-18,-0.0030744239934304344,9.318186291687407e-18,0.2946169368749497,9.467297120170972e-18,-0.29461693687494966,0.7034485562250089,0.10158866811756559,0.7034485562250088,500.0,173.57142857142813,[0.23050078]
-7.372991671930157e-18,-0.29464529480341933,-6.9638991602344e-18,-0.29464529480341933,-8.489928689976835e-18,0.003887045198296578,-6.9638991602344e-18,0.003887045198296578,9.448146292086838e-18,0.2946709331952636,9.261309623617315e-18,-0.29467093319526355,0.7036438594173953,0.09884653867681178,0.7036438594173952,500.0,173.57142857142813,[0.23050078]
-3.833413038921847e-18,-0.1033563383802386,-5.57322202130463e-18,-0.1033563383802386,-3.741844145112227e-18,0.00467258931142316,-5.57322202130463e-18,0.00467258931142316,9.314930508796398e-18,0.10346190494207809,8.78651034991036e-18,-0.10346190494207808,0.705519233972766,0.06697179248731007,0.7055192339727658,500.0,173.57142857142813,[0.14395671]
-2.8827244347473014e-18,-0.04612143128455588,-4.1639767455745756e-18,-0.04612143128455588,-2.798141908391304e-18,0.004061932282955753,-4.1639767455745756e-18,0.004061932282955753,8.412129044643772e-18,0.04629995375383572,7.601955775556745e-18,-0.046299953753835735,0.7068970584725698,0.0243535920483361,0.7068970584725698,500.0,173.57142857142813,[0.07307078]
-2.5457509055278992e-18,-0.020998766200984873,-2.7461002537428367e-18,-0.020998766200984873,-2.367496792245172e-18,0.004035913456221672,-2.7461002537428367e-18,0.004035913456221672,7.4142315885496e-18,0.02138309564562007,6.035543553676518e-18,-0.02138309564562007,0.7049743148970296,0.07760432121298169,0.7049743148970296,500.0,173.57142857142813,[0.08550667]
-2.4160622203693854e-18,-0.007553135419878308,-1.3127757503813637e-18,-0.007553135419878308,-2.102828774730255e-18,0.004280832263865299,-1.3127757503813637e-18,0.004280832263865299,6.38920260836369e-18,0.008681899535376486,2.809842741682763e-18,-0.008681899535376486,0.650342479661891,0.39256759710200945,0.6503424796618911,500.0,173.57142857142813,[0.1959901]
-2.3986980449506722e-18,0.00022514478621061098,1.1439328845179586e-19,0.00022514478621061098,-1.915282114446107e-18,0.0046818720206691046,1.1439328845179586e-19,0.0046818720206691046,5.344367615590809e-18,0.00468728234616628,-2.168404344971009e-18,-0.0046872823461662745,0.04532847529240813,0.9979432141436361,0.045328475292407744,500.0,173.57142857142813,[0.20238617]
-2.4174187965739723e-18,0.004650746436700565,1.5507700882735897e-18,0.004650746436700565,-1.754595663012781e-18,0.005199366058888215,1.5507700882735897e-18,0.005199366058888215,4.29098619272903e-18,0.006975876277056657,-5.759043327555388e-19,-0.006975876277056653,0.4094479581312965,0.815294265381662,0.40944795813129703,500.0,173.57142857142813,[0.1939433]
-2.497185477403686e-18,0.006725391392983985,2.991886426210159e-18,0.006725391392983985,-1.6451199633026131e-18,0.005826686862305643,2.991886426210159e-18,0.005826686862305643,3.239164832502527e-18,0.008898380143609746,-1.4560739286499538e-18,-0.008898380143609743,0.47922926095439633,0.7353085276876681,0.47922926095439633,500.0,173.57142857142813,[0.20888041]
-2.582921093533582e-18,0.006844033357222515,4.432527962475123e-18,0.006844033357222515,-1.5545006728362038e-18,0.006578568093951491,4.432527962475123e-18,0.006578568093951491,2.181103221734923e-18,0.009493068564038235,-5.1897182179817415e-18,-0.009493068564038235,0.4517192813732183,0.7693499734654741,0.45171928137321854,500.0,173.57142857142813,[0.20634568]
-2.732687106519983e-18,0.0050151712795994535,5.877256184556405e-18,0.0050151712795994535,-1.4878927811909836e-18,0.00749204363210264,5.877256184556405e-18,0.00749204363210264,1.111103740366954e-18,0.009015689699021867,-7.215714590509921e-18,-0.009015689699021862,0.3250790765622703,0.8880580994297861,0.3250790765622701,500.0,173.57142857142813,[0.19124434]
-2.9185380465483973e-18,0.0008635467432942576,7.323629255285749e-18,0.0008635467432942576,-1.4658484178664454e-18,0.008638266051658672,7.323629255285749e-18,0.008638266051658672,4.001899803531548e-20,0.00868132209730136,-3.6124042164512325e-18,-0.008681322097301356,0.008883263636504735,0.9999210845133374,0.008883263636505623,500.0,173.57142857142813,[0.19617769]
-3.1868688198156995e-18,-0.006582675974132762,8.781872367805228e-18,-0.006582675974132762,-1.4779558604923841e-18,0.010154399606731247,8.781872367805228e-18,0.010154399606731247,-1.047615973992284e-18,0.012101382332345685,5.0844507588725304e-18,-0.01210138233234569,0.44865285036733055,0.7729302942145168,0.44865285036733077,500.0,173.57142857142813,[0.20634568]
-3.521129196625927e-18,-0.01958104762821608,1.025837838747896e-17,-0.01958104762821608,-1.5640306206734273e-18,0.01232997537872254,1.025837838747896e-17,0.01232997537872254,-2.1433904032474053e-18,0.02313970006414021,5.549868860786853e-18,-0.023139700064140234,0.6367846588978994,0.43475348921494894,0.6367846588978994,500.0,173.57142857142813,[0.19832589]
-4.074612288097409e-18,-0.04400354932951168,1.176877337646353e-17,-0.04400354932951168,-1.829003867834376e-18,0.015882729835631066,1.176877337646353e-17,0.015882729835631066,-3.2766063357491272e-18,0.04678219170396373,3.876996359019892e-18,-0.04678219170396374,0.6878046992833625,0.23205471614997575,0.6878046992833629,500.0,173.57142857142813,[0.12043868]
-5.201791456488719e-18,-0.09983361254679252,1.336941459745825e-17,-0.09983361254679252,-2.5993356656090844e-18,0.0231053440743926,1.336941459745825e-17,0.0231053440743926,-4.5280478844806024e-18,0.10247247005385964,1.2035832367005741e-18,-0.10247247005385968,0.7024171445236492,0.11497960757667428,0.7024171445236492,500.0,173.57142857142813,[0.15234466]
-8.860748795500682e-18,-0.28701117823821026,1.5356323935506547e-17,-0.28701117823821026,-7.159500491733283e-18,0.040787399820479485,1.5356323935506547e-17,0.040787399820479485,-6.628231335611914e-18,0.2898948575221735,-2.3419885472933643e-18,-0.2898948575221735,0.7068101630981367,0.028961814210619163,0.7068101630981367,500.0,173.57142857142813,[0.21851547]
-8.963577271808374e-18,-0.28404462490212024,1.6003554921316267e-17,-0.28404462490212024,-7.0811921303235e-18,0.04707832103561522,1.6003554921316267e-17,0.04707832103561522,-7.685072027795388e-18,0.28791963678658433,-2.6351201552543287e-18,-0.2879196367865843,0.6966306573973731,0.17149768029978446,0.6966306573973732,500.0,160.7142857142859,[0.35097512]
-5.806824443734505e-18,-0.0963012248571074,1.47528255750922e-17,-0.0963012248571074,-2.345011541654143e-18,0.030833873566926583,1.47528255750922e-17,0.030833873566926583,-7.426610346416457e-18,0.10111702956535251,1.5697895704434448e-18,-0.1011170295653525,0.7068541544393444,0.02672842501306034,0.7068541544393445,500.0,160.7142857142859,[0.12984676]
-5.150377218334873e-18,-0.04111649984858698,1.3924411119257972e-17,-0.04111649984858698,-1.4186056515417044e-18,0.022533106368407482,1.3924411119257972e-17,0.022533106368407482,-8.030185014242312e-18,0.046886111402086025,4.474195961883395e-18,-0.046886111402086,0.6975343438432734,0.16398682361173877,0.6975343438432737,500.0,160.7142857142859,[0.09272056]
-5.081463147141855e-18,-0.016831509137074086,1.3210105918732707e-17,-0.016831509137074086,-9.871635468753774e-19,0.018955909455737763,1.3210105918732707e-17,0.018955909455737763,-8.76938338812175e-18,0.025350073039846186,6.3237981581307734e-18,-0.025350073039846228,0.6177814007052133,0.48651031015324747,0.6177814007052135,500.0,160.7142857142859,[0.19646433]
-5.197721727874958e-18,-0.0037349505922914354,1.2542081163287053e-17,-0.0037349505922914354,-7.199858633819745e-19,0.01724435562084055,1.2542081163287053e-17,0.01724435562084055,-9.541003933290816e-18,0.017644196119542342,7.035734886696066e-19,-0.017644196119542353,0.36953201247690043,0.8525797226708733,0.3695320124769009,500.0,160.7142857142859,[0.18659554]
-5.410297219133735e-18,0.003945610773706797,1.1896715469758638e-17,0.003945610773706797,-5.482772302863794e-19,0.016473814658412043,1.1896715469758638e-17,0.016473814658412043,-1.0342469154960795e-17,0.01693972885784488,-1.0591643075530012e-17,-0.016939728857844883,0.07166186171301236,0.9948513231391164,0.0716618617130131,500.0,160.7142857142859,[0.20238617]
-5.6761861552327806e-18,0.00843339054381728,1.1263491133261279e-17,0.00843339054381728,-4.074476630476951e-19,0.016283270142613666,1.1263491133261279e-17,0.016283270142613666,-1.1153599982088456e-17,0.018337583335921906,-1.6751402074806035e-17,-0.018337583335921896,0.09956764626333045,0.9900366496424063,0.09956764626332973,500.0,160.7142857142859,[0.20489491]
-5.990640519456039e-18,0.010694557679934156,1.0642624358127579e-17,0.010694557679934156,-3.0309303850984274e-19,0.016523603604155012,1.0642624358127579e-17,0.016523603604155012,-1.1968190078537814e-17,0.019682556745420136,-1.7622341604399356e-17,-0.019682556745420125,0.16658731808495592,0.9718525252868994,0.16658731808495525,500.0,160.7142857142859,[0.20575564]
-6.321509455754801e-18,0.011117238384886628,1.0033958290233883e-17,0.011117238384886628,-2.257681948483857e-19,0.017150197657512866,1.0033958290233883e-17,0.017150197657512866,-1.2796956396325107e-17,0.0204382550379957,-1.6757500291241287e-17,-0.020438255037995696,0.16707082739420295,0.9716865118275714,0.1670708273942023,500.0,160.7142857142859,[0.20575564]
-6.7047422335506185e-18,0.009725150831959078,9.434143882075117e-18,0.009725150831959078,-1.6963985438360002e-19,0.01819273566112949,9.434143882075117e-18,0.01819273566112949,-1.3626468831024922e-17,0.020628964819885832,-1.537818568440174e-17,-0.02062896481988583,0.10868423843917334,0.9881171350754899,0.10868423843917274,500.0,160.7142857142859,[0.20996952]
-7.112189896598313e-18,0.006185163424339107,8.846021465079635e-18,0.006185163424339107,-1.4169438456910853e-19,0.019764679810981237,8.846021465079635e-18,0.019764679810981237,-1.448084052467379e-17,0.0207098723949809,-1.2787747296173039e-17,-0.0207098723949809,0.023551726308954767,0.9994451622654121,0.023551726308955346,500.0,160.7142857142859,[0.1998595]
-7.576206787377284e-18,-0.0003853428902248378,8.274139808833442e-18,-0.0003853428902248378,-1.7233604959021662e-19,0.02211980182683073,8.274139808833442e-18,0.02211980182683073,-1.5340231550279634e-17,0.022123158047650218,-6.938893903907228e-18,-0.022123158047650224,0.24513241787706658,0.9379873109011049,0.24513241787706724,500.0,160.7142857142859,[0.20372466]
-8.131860400776105e-18,-0.012049720238767514,7.739402904789096e-18,-0.012049720238767514,-2.7396056451633766e-19,0.025819468737361705,7.739402904789096e-18,0.025819468737361705,-1.6230077711678454e-17,0.028492818809520433,-5.786491344255951e-18,-0.028492818809520443,0.49388743428788684,0.7156468434256217,0.4938874342878868,500.0,160.7142857142859,[0.20888041]
-8.87445021516701e-18,-0.03419475085812766,7.265858185823221e-18,-0.03419475085812766,-5.339568727267082e-19,0.032271801333100106,7.265858185823221e-18,0.032271801333100106,-1.7181682004791095e-17,0.04701861490444507,-7.827502040803219e-18,-0.0470186149044451,0.6456871489574707,0.4076471652573415,0.6456871489574707,500.0,160.7142857142859,[0.1959901]
-1.0126841367241697e-17,-0.08526605284209121,6.977748955423105e-18,-0.08526605284209121,-1.3221446047942925e-18,0.0459217763572214,6.977748955423105e-18,0.0459217763572214,-1.8301009988398358e-17,0.09684580172146318,-8.268568063634797e-18,-0.0968458017214631,0.6983627031115422,0.15677713419207487,0.6983627031115424,500.0,160.7142857142859,[0.1500857]
-1.3648648851969919e-17,-0.2613135613325934,7.404095420720952e-18,-0.2613135613325934,-5.891839378755715e-18,0.07702305591513058,7.404095420720952e-18,0.07702305591513058,-2.0530695595460052e-17,0.2724285750042172,-1.5727611838120343e-17,-0.2724285750042172,0.7062243976793786,0.04994196877174305,0.7062243976793785,500.0,160.7142857142859,[0.21525863]
-1.3399106659136147e-17,-0.255917801793882,7.190822564507004e-18,-0.255917801793882,-5.916393408058739e-18,0.08140229501443993,7.190822564507004e-18,0.08140229501443993,-2.1132133655763683e-17,0.26855214560422086,-1.6610947377068467e-17,-0.26855214560422075,0.6845898223033038,0.2503468601709659,0.6845898223033041,500.0,147.85714285714295,[0.57509409]
-9.891543224556087e-18,-0.07874968191350311,5.949235270111661e-18,-0.07874968191350311,-1.3764585245854431e-18,0.051350201418199654,5.949235270111661e-18,0.051350201418199654,-1.961849984109066e-17,0.0940125288840142,-3.7743562089380464e-18,-0.09401252888401417,0.7070066468768971,0.01682862275330297,0.7070066468768972,500.0,147.85714285714295,[0.13322346]
-8.631555245735714e-18,-0.02874120731401015,5.429916702492574e-18,-0.02874120731401015,-6.370651428765963e-19,0.0370080201523312,5.429916702492574e-18,0.0370080201523312,-1.923553837853576e-17,0.046857769403400557,-7.04525724044915e-18,-0.04685776940340057,0.6643638711404843,0.3424051597836396,0.6643638711404846,500.0,147.85714285714295,[0.14696141]
-7.853083990733484e-18,-0.006744896448778144,5.1233983090661495e-18,-0.006744896448778144,-4.1858854512786556e-19,0.030592475877175028,5.1233983090661495e-18,0.030592475877175028,-1.906221881119722e-17,0.031327195986878165,-7.320915961697078e-18,-0.0313271959868782,0.49628860518057577,0.7123168120547464,0.4962886051805761,500.0,147.85714285714295,[0.2153117]
-7.250221525415037e-18,0.005194442146323582,4.8906713022182966e-18,0.005194442146323582,-3.553720939941129e-19,0.027267459617763737,4.8906713022182966e-18,0.027267459617763737,-1.8946672432971524e-17,0.027757820217334753,-1.1095238436125569e-17,-0.027757820217334774,0.25751568438203964,0.9313277321085739,0.25751568438204,500.0,147.85714285714295,[0.2005613]
-6.733128590631601e-18,0.01228413128259779,4.696861075239532e-18,0.01228413128259779,-3.7337640380936555e-19,0.02548165865477769,4.696861075239532e-18,0.02548165865477769,-1.8870551550691638e-17,0.028288068318050707,-9.690485362067997e-18,-0.02828806831805072,0.07888412365737871,0.9937578125829325,0.07888412365737876,500.0,147.85714285714295,[0.20316198]
-6.262871449311529e-18,0.016525567345112836,4.5205591599012184e-18,0.016525567345112836,-4.293690866536926e-19,0.02462420731724433,4.5205591599012184e-18,0.02462420731724433,-1.8813405778073412e-17,0.029655454170868626,-1.506881819827954e-17,-0.029655454170868626,0.021262465298138397,0.9995478053294354,0.021262465298138106,500.0,147.85714285714295,[0.20202967]
-5.8116063748556744e-18,0.01879107353037675,4.361303472433668e-18,0.01879107353037675,-5.354109528459999e-19,0.024433028024006164,4.361303472433668e-18,0.024433028024006164,-1.8771996289428395e-17,0.0308233240070875,-1.3968727850222826e-17,-0.030823324007087496,0.06679630871832865,0.995528254889439,0.06679630871832823,500.0,147.85714285714295,[0.20455634]
-5.402598649172704e-18,0.019436886160085525,4.217353779924433e-18,0.019436886160085525,-6.566379939284026e-19,0.024812986834298667,4.217353779924433e-18,0.024812986834298667,-1.873968433995539e-17,0.031519467940293706,-1.8664806590112087e-17,-0.03151946794029371,0.07305346125912286,0.9946488745261434,0.07305346125912279,500.0,147.85714285714295,[0.20419388]
-5.026996612527688e-18,0.01849726120038029,4.086687935968553e-18,0.01849726120038029,-8.059292052431982e-19,0.025780535299452477,4.086687935968553e-18,0.025780535299452477,-1.8726644251188797e-17,0.0317298703470627,-1.584685234748763e-17,-0.03172987034706272,0.043367170891526696,0.9981175166170216,0.04336717089152608,500.0,147.85714285714295,[0.20455634]
-4.6772712669851686e-18,0.015695396535908145,3.972665586322699e-18,0.015695396535908145,-9.856077235407417e-19,0.027468970909828676,3.972665586322699e-18,0.027468970909828676,-1.8731689018949605e-17,0.03163684300407377,-1.46703146702813e-17,-0.031636843004073774,0.029608057374491226,0.999122978355026,0.029608057374492066,500.0,147.85714285714295,[0.20455634]
-4.353727842191177e-18,0.010279667673892535,3.885385804934925e-18,0.010279667673892535,-1.2012397505604792e-18,0.030198408870733693,3.885385804934925e-18,0.030198408870733693,-1.8757752239280232e-17,0.03190008567088305,-1.0300429276096768e-17,-0.03190008567088306,0.16319889354348377,0.973001666130313,0.16319889354348466,500.0,147.85714285714295,[0.20585737]
-4.122906400980705e-18,0.00047965553515934035,3.842006101317777e-18,0.00047965553515934035,-1.4981815638426479e-18,0.03469086545977622,3.842006101317777e-18,0.03469086545977622,-1.883119388355606e-17,0.034694181295726,-6.938893903907228e-18,-0.034694181295726004,0.36789002265117926,0.8539987485163134,0.36789002265117937,500.0,147.85714285714295,[0.18824548]
-4.029879187751154e-18,-0.018354703771438087,3.88204417620597e-18,-0.018354703771438087,-1.966600968335568e-18,0.04276594923646168,3.88204417620597e-18,0.04276594923646168,-1.9002427714980048e-17,0.04653838807514567,-4.6114658631779594e-18,-0.04653838807514568,0.5818445774359572,0.5682550267412905,0.5818445774359573,500.0,147.85714285714295,[0.19637965]
-4.358747174148149e-18,-0.06234963585722197,4.158650064321252e-18,-0.06234963585722197,-2.947329256840436e-18,0.060140548767363494,4.158650064321252e-18,0.060140548767363494,-1.9436744065479844e-17,0.08662772476273287,-7.506521590354528e-18,-0.08662772476273288,0.6921032983935915,0.20490497481862627,0.6921032983935917,500.0,147.85714285714295,[0.13355889]
-6.591417248859935e-18,-0.22254726758458765,5.333815996299506e-18,-0.22254726758458765,-7.714393150667344e-18,0.09850153696276318,5.333815996299506e-18,0.09850153696276318,-2.1349601299960252e-17,0.24337181244629097,-1.4229934295232664e-17,-0.243371812446291,0.6997569051515516,0.14380732730095788,0.6997569051515515,500.0,147.85714285714295,[0.30957917]
-5.572018059923059e-18,-0.21579276004898112,5.921910857840832e-18,-0.21579276004898112,-7.733921489062437e-18,0.10010301517987716,5.921910857840832e-18,0.10010301517987716,-2.0921139423643377e-17,0.23788049297422426,-1.238155756666797e-17,-0.23788049297422398,0.663979991127492,0.34389117866655305,0.6639799911274922,500.0,134.9999999999996,[0.64068782]
-1.911551529883493e-18,-0.05414357291637612,5.787553112940672e-18,-0.05414357291637612,-3.016497686071814e-18,0.06219756587481784,5.787553112940672e-18,0.06219756587481784,-1.7555147433913887e-17,0.08246249868214786,3.869956207671352e-18,-0.08246249868214789,0.7054184668817248,0.0690620964384523,0.7054184668817247,500.0,134.9999999999996,[0.14048755]
-1.4293226035579414e-19,-0.01141979021337684,6.5478181614347016e-18,-0.01141979021337684,-2.0835102817168088e-18,0.04465640078199572,6.5478181614347016e-18,0.04465640078199572,-1.568952872645758e-17,0.046093445730599966,7.623630778226046e-18,-0.04609344573059999,0.6082881210825337,0.5098736348349083,0.6082881210825338,500.0,134.9999999999996,[0.20337413]
1.2680596072376659e-18,0.007283449236884911,7.556611150084542e-18,0.007283449236884911,-1.658556426678983e-18,0.0366746552949222,7.556611150084542e-18,0.0366746552949222,-1.412902520391608e-17,0.03739089426301066,8.265647618864124e-19,-0.03739089426301067,0.3930262519438207,0.8313006258664699,0.39302625194382107,500.0,134.9999999999996,[0.19794695]
2.5266570954483377e-18,0.017480844175313627,8.65450787922223e-18,0.017480844175313627,-1.4106347065145961e-18,0.03239588792862393,8.65450787922223e-18,0.03239588792862393,-1.2671612994321911e-17,0.03681132254844363,-5.273041746231875e-18,-0.03681132254844368,0.20258771922256388,0.9580795541291962,0.2025877192225638,500.0,134.9999999999996,[0.21124131]
3.734213403961425e-18,0.0235986705325538,9.798920334625013e-18,0.0235986705325538,-1.2339289977903857e-18,0.029949357807992075,9.798920334625013e-18,0.029949357807992075,-1.1273237285431108e-17,0.03812953296350694,-1.1605348970107412e-17,-0.03812953296350689,0.08327780045872513,0.9930405912657918,0.08327780045872592,500.0,134.9999999999996,[0.20762107]
4.887489707088476e-18,0.02733007558570863,1.0970720791808215e-17,0.02733007558570863,-1.0995474068241288e-18,0.028595337407968355,1.0970720791808215e-17,0.028595337407968355,-9.902934225373979e-18,0.03955535808201088,-1.1656712544814478e-17,-0.039555358082010855,0.015993557935145127,0.9997441733809457,0.015993557935145238,500.0,134.9999999999996,[0.2055048]
6.035950164689244e-18,0.02941382749357323,1.2162711978111407e-17,0.02941382749357323,-1.004238390025456e-18,0.028010695967980174,1.2162711978111407e-17,0.028010695967980174,-8.548931276275089e-18,0.04061738958170881,-1.1115915157549303e-17,-0.040617389581708796,0.017272546808677024,0.9997016146098217,0.01727254680867677,500.0,134.9999999999996,[0.2055048]
7.156159922829488e-18,0.030155520172826477,1.3365810662002235e-17,0.030155520172826477,-9.220881624112767e-19,0.0280686240573127,1.3365810662002235e-17,0.0280686240573127,-7.218536992436652e-18,0.04119712433367769,-1.2905793789758384e-17,-0.041197124333677664,0.025328177018018098,0.9993582775450894,0.02532817701801741,500.0,134.9999999999996,[0.2055048]
8.245999331189541e-18,0.029593169897560098,1.45840802131435e-17,0.029593169897560098,-8.909483795650469e-19,0.028769082001719702,1.45840802131435e-17,0.028769082001719702,-5.9151470536707745e-18,0.04127245793271261,-1.348424125992091e-17,-0.04127245793271259,0.009983508823045644,0.9999003245839859,0.009983508823045153,500.0,134.9999999999996,[0.20182299]
9.315761411721707e-18,0.027509338361511027,1.5818757977409307e-17,0.027509338361511027,-8.613008305438628e-19,0.03023880080282657,1.5818757977409307e-17,0.03023880080282657,-4.630753421069754e-18,0.04087968653354779,-8.047476276828683e-18,-0.04087968653354777,0.033384092109855205,0.9988848806484166,0.03338409210985545,500.0,134.9999999999996,[0.20803147]
1.0363284121099926e-17,0.023299214229675912,1.708257086523152e-17,0.023299214229675912,-8.973168689504868e-19,0.03280083622360361,1.708257086523152e-17,0.03280083622360361,-3.385302004141658e-18,0.040233670484906045,-1.2127016914650402e-17,-0.04023367048490603,0.11808047686691543,0.9859584179699283,0.11808047686691563,500.0,134.9999999999996,[0.21561482]
1.1338102824513562e-17,0.015526010053565542,1.8388566914065428e-17,0.015526010053565542,-1.0061852888440702e-18,0.03719484977639542,1.8388566914065428e-17,0.03719484977639542,-2.207280903182812e-18,0.040305258193839205,-5.0987846529178554e-18,-0.04030525819383917,0.2688090920869273,0.9249234260320163,0.26880909208692866,500.0,134.9999999999996,[0.20476062]
1.2226075215029796e-17,0.00038196417947414463,1.9794662919333037e-17,0.00038196417947414463,-1.271064741478374e-18,0.045291542337446186,1.9794662919333037e-17,0.045291542337446186,-1.1672320808317397e-18,0.045293152947648505,1.3877787807814457e-17,-0.04529315294764852,0.49576564265553,0.7130447777837648,0.49576564265553025,500.0,134.9999999999996,[0.21914557]
1.2805825013262595e-17,-0.035617583576980756,2.1435569017800152e-17,-0.035617583576980756,-2.0484650431565922e-18,0.06294741411428444,2.1435569017800152e-17,0.06294741411428444,-5.034974976330915e-19,0.07232557779609108,2.4644821603756593e-17,-0.07232557779609106,0.6813979279166742,0.26719604724195617,0.6813979279166743,500.0,134.9999999999996,[0.20395637]
1.1891178943123668e-17,-0.1783810317330098,2.397897426529305e-17,-0.1783810317330098,-6.64748464937803e-18,0.10096781574101753,2.397897426529305e-17,0.10096781574101753,-1.7193056048406431e-18,0.20497388198901134,1.9817608632153345e-17,-0.20497388198901137,0.6814254693410224,0.2670555362967299,0.6814254693410227,500.0,134.9999999999996,[0.5793404]
1.2211508978033044e-17,-0.17160438846023843,2.392211067112363e-17,-0.17160438846023843,-6.713559978880434e-18,0.09947341417001657,2.392211067112363e-17,0.09947341417001657,-1.5332448194305816e-18,0.19835076572943208,2.046949526384769e-17,-0.19835076572943203,0.6257365921377919,0.46573322247780996,0.6257365921377919,500.0,122.14285714285755,[0.65732137]
1.3174245674624579e-17,-0.027342580059052022,2.138616526797451e-17,-0.027342580059052022,-2.2614755926434814e-18,0.06122287421642093,2.138616526797451e-17,0.06122287421642093,6.632555422264034e-19,0.06705115220192241,4.711263953660968e-17,-0.06705115220192241,0.7000924297624682,0.1405033080698346,0.7000924297624684,500.0,122.14285714285755,[0.1037719]
1.2685988462789894e-17,0.007432223516081496,1.9745660843242972e-17,0.007432223516081496,-1.623813768201899e-18,0.043957326378574205,1.9745660843242972e-17,0.043957326378574205,9.454869822900822e-19,0.044581212284386024,1.108926315344865e-17,-0.04458121228438601,0.5276280130518817,0.6657457169864829,0.5276280130518821,500.0,122.14285714285755,[0.20619185]
1.1904193596086424e-17,0.02249139504350688,1.83422684519581e-17,0.02249139504350688,-1.4932427785978235e-18,0.035990356878113354,1.83422684519581e-17,0.035990356878113354,8.249530668622108e-19,0.042440177181734845,-7.045467806185901e-18,-0.04244017718173484,0.3083626232632656,0.8999027642742272,0.3083626232632655,500.0,122.14285714285755,[0.21216491]
1.1030668742149041e-17,0.030708117750482822,1.7027587400895644e-17,0.030708117750482822,-1.5318386963997724e-18,0.031605131667124954,1.7027587400895644e-17,0.031605131667124954,5.463674253483593e-19,0.044066686322820105,-1.0200192131501723e-17,-0.04406668632282012,0.1672524938138468,0.9716240047601225,0.16725249381384683,500.0,122.14285714285755,[0.21245564]
1.0119693906363779e-17,0.035666371268048426,1.5757935406355328e-17,0.035666371268048426,-1.6214463837511208e-18,0.028982004197454073,1.5757935406355328e-17,0.028982004197454073,1.9872993537071178e-19,0.045957008243917664,-1.425367065878825e-17,-0.04595700824391764,0.08561089108745018,0.9926437178839272,0.08561089108745056,500.0,122.14285714285755,[0.20867577]
9.182672807450447e-18,0.03872566541770951,1.4513660660310937e-17,0.03872566541770951,-1.799235233788681e-18,0.027398896752791117,1.4513660660310937e-17,0.027398896752791117,-1.988316785860558e-19,0.047438135559004564,-9.779350457541955e-18,-0.04743813555900455,0.038695833659080664,0.9985015097208705,0.03869583365908037,500.0,122.14285714285755,[0.20908617]
8.228296011719681e-18,0.04047794501999258,1.3283070111774029e-17,0.04047794501999258,-1.9614271668615505e-18,0.026535625403544687,1.3283070111774029e-17,0.026535625403544687,-6.180985118162148e-19,0.048400448847079766,-8.395773638043393e-18,-0.04840044884707978,0.013627618701687778,0.9998142707608464,0.013627618701687732,500.0,122.14285714285755,[0.20555332]
7.263596518932136e-18,0.04116942795625515,1.2068885656711341e-17,0.04116942795625515,-2.1867049276172233e-18,0.026258821905226052,1.2068885656711341e-17,0.026258821905226052,-1.0669418857818491e-18,0.048830805093666683,-9.917598249875349e-18,-0.048830805093666725,0.00478623183279453,0.9999770917224481,0.0047862318327943415,500.0,122.14285714285755,[0.20159454]
6.2717655020528525e-18,0.040834356908692034,1.0864571088405895e-17,0.040834356908692034,-2.4273178285231078e-18,0.02655196426864786,1.0864571088405895e-17,0.02655196426864786,-1.5459054907899534e-18,0.04870781775721427,-8.974132130803193e-18,-0.04870781775721425,0.010989651518348888,0.9998792202656334,0.010989651518348905,500.0,122.14285714285755,[0.20287769]
5.276123353898806e-18,0.03930592225905914,9.678579837288811e-18,0.03930592225905914,-2.70035819984442e-18,0.027510117977316766,9.678579837288811e-18,0.027510117977316766,-2.0490193317151852e-18,0.04797668304250609,-1.0108261124780762e-17,-0.04797668304250606,0.03509943395599274,0.9987672699242491,0.035099433955992985,500.0,122.14285714285755,[0.20908617]
4.247914898233394e-18,0.03611285453392865,8.520798084929162e-18,0.03611285453392865,-3.0094901221149944e-18,0.029395296328432477,8.520798084929162e-18,0.029395296328432477,-2.6118204059919238e-18,0.04656416764879458,-9.330879275397115e-18,-0.046564167648794584,0.0862014755202744,0.9925414909394242,0.08620147552027443,500.0,122.14285714285755,[0.20867577]
3.197984266092034e-18,0.030126604980130128,7.393676412052774e-18,0.030126604980130128,-3.4101978270587282e-18,0.03281830964609123,7.393676412052774e-18,0.03281830964609123,-3.2497821609537397e-18,0.044549453146537354,-8.755333866269807e-18,-0.04454945314653735,0.18665525641716008,0.9645307825589022,0.1866552564171603,500.0,122.14285714285755,[0.2132925]
2.083489085213612e-18,0.01832045827102982,6.340057985789628e-18,0.01832045827102982,-3.961627374804887e-18,0.03933043877256468,6.340057985789628e-18,0.03933043877256468,-4.0706114481190375e-18,0.043388046802120585,-1.468577101243349e-18,-0.043388046802120564,0.3838816256332804,0.8398034264054294,0.38388162563328104,500.0,122.14285714285755,[0.20353047]
7.643967768796403e-19,-0.0103497131121175,5.491555868832205e-18,-0.0103497131121175,-5.038466835276277e-18,0.053767846242623395,5.491555868832205e-18,0.053767846242623395,-5.364616635094589e-18,0.05475488883262869,3.8104015805559305e-19,-0.05475488883262873,0.6590410769653864,0.36239442289390583,0.6590410769653865,500.0,122.14285714285755,[0.20316317]
-1.6920405427787648e-18,-0.13754946806417886,5.3788386938706856e-18,-0.13754946806417886,-9.902331979726903e-18,0.08391422638468722,5.3788386938706856e-18,0.08391422638468722,-8.9192193495687e-18,0.16112558317808848,-5.202383724654856e-19,-0.1611255831780885,0.6329726451824963,0.4457479791332179,0.6329726451824962,500.0,122.14285714285755,[0.37858916]
-2.3860818862480134e-18,-0.13209268079882683,4.840598405282365e-18,-0.13209268079882683,-9.962330139284676e-18,0.07961850457769759,4.840598405282365e-18,0.07961850457769759,-9.29759176918152e-18,0.15423223590355437,1.5984235792072765e-18,-0.15423223590355434,0.5445602673168453,0.6378935887117945,0.5445602673168454,500.0,109.28571428571402,[0.380296]
-1.7860046414496086e-18,-0.003643020234566872,4.2664114968353894e-18,-0.003643020234566872,-5.207332487380619e-18,0.04859906177735514,4.2664114968353894e-18,0.04859906177735514,-6.03686585362734e-18,0.04873541219758631,-3.469446951953614e-18,-0.04873541219758632,0.6830165364945165,0.25879880554219986,0.6830165364945164,500.0,109.28571428571402,[0.14656198]
-2.3189398427222373e-18,0.024092668982901723,4.40497462796977e-18,0.024092668982901723,-4.254277028667875e-18,0.03502876370838147,4.40497462796977e-18,0.03502876370838147,-5.037009840637796e-18,0.04251436211043623,-4.37057449088073e-18,-0.042514362110436237,0.4175637055301688,0.8070198904908285,0.41756370553016897,500.0,109.28571428571402,[0.20708011]
-2.9940484695362193e-18,0.035878144761866106,4.7236871047289495e-18,0.035878144761866106,-3.8083126697489285e-18,0.028654292687613627,4.7236871047289495e-18,0.028654292687613627,-4.5640512049853085e-18,0.04591633435914554,-1.1495597434809094e-17,-0.04591633435914553,0.23402466387689916,0.9436444846416516,0.23402466387689888,500.0,109.28571428571402,[0.21455227]
-3.762498017827063e-18,0.04226722841619142,5.112115344175489e-18,0.04226722841619142,-3.529752331560768e-18,0.025030714546946782,5.112115344175489e-18,0.025030714546946782,-4.2617487960447016e-18,0.04912285892247351,-9.529603861922067e-18,-0.04912285892247346,0.1391401176586983,0.9804489050000752,0.13914011765869838,500.0,109.28571428571402,[0.22895122]
-4.5477563931528674e-18,0.04610717354743086,5.533776388680784e-18,0.04610717354743086,-3.3361169757333768e-18,0.02274988303563634,5.533776388680784e-18,0.02274988303563634,-4.045997008781903e-18,0.051414284305706735,-7.972396379061342e-18,-0.05141428430570676,0.08588824783301621,0.9925957977789087,0.08588824783301618,500.0,109.28571428571402,[0.21852237]
-5.343345944136729e-18,0.0484645385374291,5.9713059965870504e-18,0.0484645385374291,-3.1769415700216834e-18,0.02125038935525815,5.9713059965870504e-18,0.02125038935525815,-3.8937319280686144e-18,0.05291871638084221,-8.029145193799734e-18,-0.05291871638084224,0.05413087087724959,0.9970655433000083,0.05413087087724951,500.0,109.28571428571402,[0.21893277]
-6.147611223878989e-18,0.049800250990771865,6.4244416624500115e-18,0.049800250990771865,-3.0614516274857494e-18,0.02027841580208994,6.4244416624500115e-18,0.02027841580208994,-3.771586018572636e-18,0.05377061601085043,-7.845402062775847e-18,-0.053770616010850404,0.035407252460561166,0.9987455396377938,0.03540725246056114,500.0,109.28571428571402,[0.21893277]
-6.973594440796558e-18,0.05030417450654105,6.893166892740616e-18,0.05030417450654105,-2.9538334038463346e-18,0.01972045389236238,6.893166892740616e-18,0.01972045389236238,-3.685522916468351e-18,0.05403153037352657,-8.794344455025937e-18,-0.0540315303735266,0.026165902043551244,0.9993151110337991,0.026165902043550984,500.0,109.28571428571402,[0.21869632]
-7.803382430037929e-18,0.049999987936189344,7.366772816609471e-18,0.049999987936189344,-2.8893581453789897e-18,0.019546775382514717,7.366772816609471e-18,0.019546775382514717,-3.6301210861506314e-18,0.05368496271278918,-9.384520830188859e-18,-0.05368496271278914,0.025498884002347906,0.9993495954015638,0.025498884002347674,500.0,109.28571428571402,[0.21869632]
-8.645108289879666e-18,0.0487527449820417,7.843089375802746e-18,0.0487527449820417,-2.8398092657455233e-18,0.019801955323851348,7.843089375802746e-18,0.019801955323851348,-3.610803652962345e-18,0.05262079035829658,-1.0287051866867862e-17,-0.05262079035829657,0.034786721129197215,0.9987891509553749,0.03478672112919695,500.0,109.28571428571402,[0.21893277]
-9.493356313755018e-18,0.04618499568873146,8.341108902140948e-18,0.04618499568873146,-2.8567368594374575e-18,0.020635073827286056,8.341108902140948e-18,0.020635073827286056,-3.658771339696412e-18,0.05058517666891847,-1.0869784873179313e-17,-0.05058517666891848,0.05903367180363309,0.996508931814844,0.05903367180363283,500.0,109.28571428571402,[0.21893277]
-1.0357887491386053e-17,0.04138998639480423,8.858389690933965e-18,0.04138998639480423,-2.933357979192785e-18,0.022407115952787885,8.858389690933965e-18,0.022407115952787885,-3.791392561072186e-18,0.04706601554289209,-1.454600754126629e-17,-0.04706601554289212,0.11236929552829755,0.987292399871967,0.11236929552829723,500.0,109.28571428571402,[0.22651612]
-1.1279945978692855e-17,0.03190609745485861,9.426676022803569e-18,0.03190609745485861,-3.1857962105148754e-18,0.0260426966706971,9.426676022803569e-18,0.0260426966706971,-4.1388949233419544e-18,0.041185204924594834,-1.8276362237713043e-17,-0.04118520492459486,0.24110961621227353,0.9400703728657445,0.24110961621227334,500.0,109.28571428571402,[0.2225502]
-1.2304025355535555e-17,0.008445326221080074,1.010999802964997e-17,0.008445326221080074,-3.945055749888512e-18,0.034399783020338075,1.010999802964997e-17,0.034399783020338075,-5.032011175271441e-18,0.03542130159701648,-2.0448601442141468e-17,-0.03542130159701648,0.5924959257221653,0.5457995566187902,0.5924959257221657,500.0,109.28571428571402,[0.21252971]
-1.4197405123228542e-17,-0.10814627797234443,1.1210058855524965e-17,-0.10814627797234443,-8.50029172662876e-18,0.050698755805890554,1.1210058855524965e-17,0.050698755805890554,-8.446461550784001e-18,0.11944028331989547,-1.9568039209695116e-18,-0.1194402833198955,0.4947614039809903,0.7144384551950705,0.4947614039809903,500.0,109.28571428571402,[0.35975124]
-1.3650208914605194e-17,-0.10509242326295039,1.0530373704953606e-17,-0.10509242326295039,-8.4678835980225e-18,0.04445156418781028,1.0530373704953606e-17,0.04445156418781028,-7.925788526610647e-18,0.11410678764220024,3.031515060712635e-19,-0.11410678764220007,0.3466456370744877,0.8715925680009238,0.34664563707448787,500.0,96.42857142857196,[0.34592545]
-1.0913666164153735e-17,0.012249618749658957,8.628936417765765e-18,0.012249618749658957,-3.859766187672761e-18,0.026807587809305485,8.628936417765765e-18,0.026807587809305485,-3.2122394444043753e-18,0.02947371581028799,-1.901341197516468e-17,-0.029473715810287994,0.6061951730185012,0.5148347544777245,0.6061951730185012,500.0,96.42857142857196,[0.21369992]
-9.019290160810505e-18,0.03524762929723828,7.11463868886918e-18,0.03524762929723828,-3.05141945500091e-18,0.019620725562267887,7.11463868886918e-18,0.019620725562267887,-1.028703923927634e-18,0.04034065248189919,-8.072329336838951e-18,-0.0403406524818992,0.2725817882598514,0.9227124890333518,0.27258178825985135,500.0,96.42857142857196,[0.20878233]
-7.24918077710808e-18,0.044775453128078346,5.697758763883048e-18,0.044775453128078346,-2.740665602801355e-18,0.01610155806289603,5.697758763883048e-18,0.01610155806289603,5.899527350465147e-19,0.047582574277539376,-3.835430496173612e-18,-0.04758257427753941,0.16327449695804097,0.972976298419544,0.16327449695804072,500.0,96.42857142857196,[0.21456077]
-5.501315003860242e-18,0.04984909072289452,4.307331147539346e-18,0.04984909072289452,-2.607624624423215e-18,0.013957426986412377,4.307331147539346e-18,0.013957426986412377,1.9967127207767593e-18,0.05176622078132033,-8.69341163671971e-19,-0.051766220781320364,0.1132155316692799,0.9870990258214648,0.11321553166927975,500.0,96.42857142857196,[0.22396976]
-3.797947049773176e-18,0.05283056768132845,2.9357586818970255e-18,0.05283056768132845,-2.5464827148007643e-18,0.012470588256635202,2.9357586818970255e-18,0.012470588256635202,3.304441053834416e-18,0.05428245069078916,1.6088296611935653e-18,-0.05428245069078915,0.08437259293152832,0.9928557453749368,0.08437259293152824,500.0,96.42857142857196,[0.215976]
-2.0799407905784893e-18,0.05459221040185393,1.5762413300133772e-18,0.05459221040185393,-2.5368922244512854e-18,0.01135149693637655,1.5762413300133772e-18,0.01135149693637655,4.555737936431574e-18,0.05575989525866112,3.5790830010835824e-18,-0.05575989525866107,0.06553346160848697,0.9956961036477032,0.06553346160848698,500.0,96.42857142857196,[0.2163864]
-3.6843549891422146e-19,0.055505696419767735,2.1375567281332467e-19,0.055505696419767735,-2.5530777418141186e-18,0.010462974280302424,2.1375567281332467e-19,0.010462974280302424,5.75629780915202e-18,0.05648323791917108,5.485419959238624e-18,-0.05648323791917113,0.052360447248445866,0.9972546149945287,0.052360447248445824,500.0,96.42857142857196,[0.2163864]
1.3126740071660197e-18,0.0557187304792268,-1.1369288974710535e-18,0.0557187304792268,-2.5993807081783773e-18,0.009733854360664698,-1.1369288974710535e-18,0.009733854360664698,6.925657488992126e-18,0.05656257461370858,7.15151737048447e-18,-0.05656257461370857,0.042931172416115625,0.998155212815099,0.04293117241611561,500.0,96.42857142857196,[0.2163864]
3.0225429287835046e-18,0.055239742222138705,-2.4946597815696575e-18,0.055239742222138705,-2.658979313650893e-18,0.009127091799287956,-2.4946597815696575e-18,0.009127091799287956,8.066256163557248e-18,0.055988685691673125,8.685996819635175e-18,-0.055988685691673104,0.03643363564678128,0.9986717080137575,0.036433635646781336,500.0,96.42857142857196,[0.2163864]
4.704733456526776e-18,0.05394058536237265,-3.831254440027556e-18,0.05394058536237265,-2.7590055459969126e-18,0.008627943677206564,-3.831254440027556e-18,0.008627943677206564,9.156120477808557e-18,0.05462625889929184,1.0219250199327322e-17,-0.05462625889929182,0.032804643979283836,0.9989232756657465,0.03280464397928392,500.0,96.42857142857196,[0.2163864]
6.386377114487574e-18,0.051479338366757464,-5.1831622803831355e-18,0.051479338366757464,-2.9075989286830302e-18,0.008243030863954502,-5.1831622803831355e-18,0.008243030863954502,1.0188465960985379e-17,0.05213511135984284,1.1682143480961477e-17,-0.05213511135984282,0.032921975970632664,0.9989155554882398,0.03292197597063279,500.0,96.42857142857196,[0.2163864]
8.045775042343464e-18,0.04704068347208326,-6.524760638376898e-18,0.04704068347208326,-3.131347957884716e-18,0.00801201665104754,-6.524760638376898e-18,0.00801201665104754,1.1116083231255508e-17,0.04771811304250611,1.3186286571204063e-17,-0.04771811304250611,0.0399319714164159,0.9984041643130286,0.039931971416416016,500.0,96.42857142857196,[0.2163864]
9.689430327275187e-18,0.0384002357761,-7.857287588512746e-18,0.0384002357761,-3.514360954438013e-18,0.008049719547120655,-7.857287588512746e-18,0.008049719547120655,1.1839942225684094e-17,0.03923488361709983,1.4890620820681766e-17,-0.0392348836170998,0.06667643511969187,0.9955443264864999,0.06667643511969217,500.0,96.42857142857196,[0.2163864]
1.1227815298730961e-17,0.016993901581415824,-9.173111959085909e-18,0.016993901581415824,-4.422642178340485e-18,0.008669855331040699,-9.173111959085909e-18,0.008669855331040699,1.1960397714050138e-17,0.01907771166623561,1.9860670302221562e-17,-0.019077711666235606,0.24880052331003485,0.9360537373470101,0.24880052331003524,500.0,96.42857142857196,[0.21114564]
1.2004344954040376e-17,-0.09604933380238014,-1.0478372257422138e-17,-0.09604933380238014,-9.11712917898292e-18,0.00789165026672312,-1.0478372257422138e-17,0.00789165026672312,9.47812503647047e-18,0.09637298723093166,7.792555938482212e-18,-0.09637298723093163,0.13644340483575637,0.9812066013606167,0.1364434048357562,500.0,96.42857142857196,[0.35090221]
1.205201800938001e-17,-0.0960083308619687,-1.0883556862558226e-17,-0.0960083308619687,-9.083136611762707e-18,0.0009301984443495446,-1.0883556862558226e-17,0.0009301984443495446,9.117787661602537e-18,0.09601283697530824,8.907206577296122e-18,-0.09601283697530823,0.07235955746344644,0.994750314846589,0.07235955746344658,500.0,83.57142857142804,[0.34888246]
1.1375718139086375e-17,0.017128250285752714,-9.764725108962519e-18,0.017128250285752714,-4.310352510352814e-18,0.00015759491080466465,-9.764725108962519e-18,0.00015759491080466465,1.0892405011622314e-17,0.017128975276043207,1.1072118722188852e-17,-0.017128975276043203,0.08563230932737925,0.9926400229683064,0.08563230932738003,500.0,83.57142857142804,[0.21315136]
9.9104377875056e-18,0.03862606810929101,-8.669566736201087e-18,0.03862606810929101,-3.3400511129657515e-18,0.0007787454958435665,-8.669566736201087e-18,0.0007787454958435665,1.004747583023498e-17,0.03863391750950045,1.0396855559465494e-17,-0.03863391750950045,0.09331831490249734,0.9912534409562052,0.09331831490249763,500.0,83.57142857142804,[0.2160705]
8.350733373134614e-18,0.0473572088552556,-7.587669392632537e-18,0.0473572088552556,-2.871275872175417e-18,0.000812861138757968,-7.587669392632537e-18,0.000812861138757968,8.614877837020573e-18,0.04736418450465712,8.87519691449185e-18,-0.04736418450465709,0.09121819776878308,0.9916443318002833,0.09121819776878327,500.0,83.57142857142804,[0.21427754]
6.7834384909689e-18,0.05188598517078141,-6.512301135080678e-18,0.05188598517078141,-2.5917426144905293e-18,0.0005736480608575502,-6.512301135080678e-18,0.0005736480608575502,6.973637893628111e-18,0.051889156181617324,7.117587469287131e-18,-0.051889156181617324,0.08693409746411787,0.9924136866227704,0.08693409746411807,500.0,83.57142857142804,[0.21315136]
5.206376260130159e-18,0.05443680531467998,-5.444106436601296e-18,0.05443680531467998,-2.373390678676224e-18,0.0001759210077136014,-5.444106436601296e-18,0.0001759210077136014,5.229571063665696e-18,0.05443708957199427,5.264757901276339e-18,-0.054437089571994265,0.08144117224802902,0.9933451922296365,0.08144117224802916,500.0,83.57142857142804,[0.21315136]
3.597296711212846e-18,0.05582496006532878,-4.374148884566213e-18,0.05582496006532878,-2.2033328557452145e-18,-0.0003406546997412207,-4.374148884566213e-18,-0.0003406546997412207,3.4193027850068584e-18,0.05582599942607395,3.365927267770148e-18,-0.05582599942607395,0.07488167504829774,0.9943769252571795,0.07488167504829783,500.0,83.57142857142804,[0.2121674]
1.991472945186542e-18,0.05639232752153927,-3.3070748849542837e-18,0.05639232752153927,-2.0553868937536102e-18,-0.0009694504114646693,-3.3070748849542837e-18,-0.0009694504114646693,1.5764782671756725e-18,0.05640065990213981,1.4629523811903587e-18,-0.05640065990213983,0.06708136597186698,0.9954899199282214,0.06708136597186706,500.0,83.57142857142804,[0.21356176]
3.7317079772835784e-19,0.05626700501871054,-2.2474117458920262e-18,0.05626700501871054,-1.95410748439516e-18,-0.001725195616171277,-2.2474117458920262e-18,-0.001725195616171277,-3.180323339628567e-19,0.05629344680946136,-4.550182390277647e-19,-0.05629344680946135,0.05759958206531782,0.9966767662044709,0.057599582065317866,500.0,83.57142857142804,[0.21356176]
-1.2304803267202873e-18,0.05544051328077557,-1.189156717032753e-18,0.05544051328077557,-1.863544497140367e-18,-0.0026449168188873696,-1.189156717032753e-18,-0.0026449168188873696,-2.2303151432066348e-18,0.05550356833406918,-2.343559320569061e-18,-0.055503568334069185,0.04559694356405536,0.9979187529429601,0.04559694356405539,500.0,83.57142857142804,[0.21356176]
-2.845533050238422e-18,0.05376510071349903,-1.3990609520957061e-19,0.05376510071349903,-1.80771012567929e-18,-0.0037997560530402363,-1.3990609520957061e-19,-0.0037997560530402363,-4.200251911232779e-18,0.053899204083133825,-4.214094448340503e-18,-0.053899204083133825,0.029438081716593824,0.9991330235207393,0.029438081716593817,500.0,83.57142857142804,[0.22189531]
-4.483372014692978e-18,0.05086905046323132,9.096149807465867e-19,0.05086905046323132,-1.7996272366196743e-18,-0.005326864083912374,9.096149807465867e-19,-0.005326864083912374,-6.2191600204193536e-18,0.0511471971470505,-6.012795538810063e-18,-0.051147197147050495,0.005559791124769115,0.9999690882448806,0.005559791124769101,500.0,83.57142857142804,[0.19822586]
-6.136945143470424e-18,0.04588001501453248,1.9392958316348335e-18,0.04588001501453248,-1.863307096304564e-18,-0.007515756177178327,1.9392958316348335e-18,-0.007515756177178327,-8.345371717651016e-18,0.046491530074289,-7.595023947294e-18,-0.046491530074288995,0.0354616575809486,0.9987416791559384,0.03546165758094873,500.0,83.57142857142804,[0.21356176]
-7.833932950095291e-18,0.03643599888754778,2.9311277758611328e-18,0.03643599888754778,-2.0930324133434785e-18,-0.01108415260695746,2.9311277758611328e-18,-0.01108415260695746,-1.0671544867089117e-17,0.0380846485338608,-8.69654070279642e-18,-0.038084648533860774,0.12875868173012403,0.9832814468697358,0.12875868173012417,500.0,83.57142857142804,[0.22381651]
-9.633477917786934e-18,0.013521224550528985,3.835680402373166e-18,0.013521224550528985,-2.8413768133959896e-18,-0.018324726142736253,3.835680402373166e-18,-0.018324726142736253,-1.3568428565971797e-17,0.02277321017230792,-8.253835666742725e-18,-0.02277321017230794,0.5183975838270417,0.6800940303844536,0.518397583827042,500.0,83.57142857142804,[0.21523359]
-1.228603800292286e-17,-0.10373709645337241,4.34903003469207e-18,-0.10373709645337241,-7.378231712476664e-18,-0.03602709514183814,4.34903003469207e-18,-0.03602709514183814,-1.900183845219118e-17,0.10981501156460964,-2.0509215954246092e-17,-0.10981501156460965,0.30531139984352357,0.9019810963934756,0.3053113998435236,500.0,83.57142857142804,[0.34719457]
-1.3054610490932246e-17,-0.10672277537657791,4.297306923743205e-18,-0.10672277537657791,-7.283849512780266e-18,-0.04232375319339996,4.297306923743205e-18,-0.04232375319339996,-1.943696079972503e-17,0.1148087578038162,-2.1137313061820112e-17,-0.11480875780381633,0.46313798530878003,0.7556496629578079,0.4631379853087801,500.0,70.71428571428592,[0.35163683]
-1.1692843262712414e-17,0.009943001098452807,4.234095970452469e-18,0.009943001098452807,-2.5296051316085598e-18,-0.02607034094645634,4.234095970452469e-18,-0.02607034094645634,-1.515501332587164e-17,0.02790207784213052,-3.6024712057173405e-18,-0.02790207784213055,0.5403868987879565,0.6449527108530281,0.5403868987879565,500.0,70.71428571428592,[0.21041915]
-1.1191134749949122e-17,0.03347488950121195,3.7566371846931836e-18,0.03347488950121195,-1.5637350619319787e-18,-0.0177627802151234,3.7566371846931836e-18,-0.0177627802151234,-1.3379205792197372e-17,0.03789570672370591,-1.1398667511535951e-17,-0.03789570672370598,0.10654334095445879,0.9885833465098045,0.10654334095445867,500.0,70.71428571428592,[0.21653113]
-1.082346868410094e-17,0.04302784536578387,3.1553054381008986e-18,0.04302784536578387,-1.1278786529967997e-18,-0.014180905578378991,3.1553054381008986e-18,-0.014180905578378991,-1.2164883559863906e-17,0.0453044540839497,-1.0365159920144465e-17,-0.04530445408394975,0.012893300851213253,0.9998337489734582,0.012893300851213178,500.0,70.71428571428592,[0.20329237]
-1.049323140359744e-17,0.04789008887185961,2.510935715266439e-18,0.04789008887185961,-8.500627095052776e-19,-0.012466779567795088,2.510935715266439e-18,-0.012466779567795088,-1.1150656847619598e-17,0.049486171855848776,-9.809371959116671e-18,-0.04948617185584884,0.05786904610140236,0.996645547326946,0.05786904610140233,500.0,70.71428571428592,[0.20933063]
-1.019718832205081e-17,0.05052327822612856,1.8385183819677094e-18,0.05052327822612856,-6.549976495372702e-19,-0.011695769876626102,1.8385183819677094e-18,-0.011695769876626102,-1.0234645722674807e-17,0.05185935475612661,-9.463321479979355e-18,-0.051859354756126616,0.07700195117661757,0.9940530162068761,0.07700195117661751,500.0,70.71428571428592,[0.20793627]
-9.89083102204868e-18,0.051834161127317105,1.1582154195672382e-18,0.051834161127317105,-5.010355237867982e-19,-0.011506857966306436,1.1582154195672382e-18,-0.011506857966306436,-9.379817244382048e-18,0.05309602659361074,-9.091647465392232e-18,-0.05309602659361078,0.08334904736299238,0.9930286363480982,0.08334904736299246,500.0,70.71428571428592,[0.20892023]
-9.590976809227288e-18,0.05220016835495381,4.616500362407732e-19,0.05220016835495381,-3.679646715869654e-19,-0.011750921370022632,4.616500362407732e-19,-0.011750921370022632,-8.562970780167404e-18,0.05350646436955047,-8.402934288802355e-18,-0.053506464369550484,0.08126283838287125,0.9933744018223536,0.0812628383828712,500.0,70.71428571428592,[0.20793627]
-9.336177883600741e-18,0.05175622385404865,-2.3898580432925004e-19,0.05175622385404865,-2.7124979671377335e-19,-0.012383336271604274,-2.3898580432925004e-19,-0.012383336271604274,-7.773391497664959e-18,0.05321704355604527,-7.868450270283034e-18,-0.05321704355604531,0.07182505140932167,0.9948277860916916,0.07182505140932172,500.0,70.71428571428592,[0.20933063]
-9.06236993390742e-18,0.05047862760564911,-9.487448848314106e-19,0.05047862760564911,-1.9881631112123822e-19,-0.013433777017529602,-9.487448848314106e-19,-0.013433777017529602,-7.021798468541268e-18,0.05223560289597992,-7.600927574869821e-18,-0.05223560289597994,0.054040766154605235,0.9970753187131083,0.05404076615460529,500.0,70.71428571428592,[0.20933063]
-8.814616725943446e-18,0.04817749908118289,-1.6694929612205231e-18,0.04817749908118289,-1.581261788034581e-19,-0.015015694248859424,-1.6694929612205231e-18,-0.015015694248859424,-6.3041198445322516e-18,0.050463278643907095,-7.686070014293964e-18,-0.0504632786439071,0.024366775352780506,0.9994060838907347,0.024366775352780534,500.0,70.71428571428592,[0.20429855]
-8.557634560487642e-18,0.044391902114968976,-2.4191195509992152e-18,0.044391902114968976,-1.6573042432526395e-19,-0.017382845813299,-2.4191195509992152e-18,-0.017382845813299,-5.64002068147862e-18,0.04767393734477904,-7.70563279230762e-18,-0.047673937344779004,0.02589192200635206,0.9993293835115796,0.02589192200635211,500.0,70.71428571428592,[0.21335585]
-8.351117029842474e-18,0.038055287433095185,-3.1917238126338246e-18,0.038055287433095185,-2.484876667997379e-19,-0.021096583174517267,-3.1917238126338246e-18,-0.021096583174517267,-5.063423863096328e-18,0.04351173086944273,-8.382036393500376e-18,-0.043511730869442745,0.11934448493038347,0.9856539899140079,0.11934448493038316,500.0,70.71428571428592,[0.21653113]
-8.196696264754084e-18,0.02632045713821941,-4.037889015113814e-18,0.02632045713821941,-4.873187366556522e-19,-0.027565011814207705,-4.037889015113814e-18,-0.027565011814207705,-4.672000756465316e-18,0.03811294190012438,-1.0508758297252047e-17,-0.03811294190012438,0.3214306289298836,0.8907102231205609,0.32143062892988317,500.0,70.71428571428592,[0.20062788]
-8.219435873383473e-18,-0.0013661835771122412,-5.065920877411968e-18,-0.0013661835771122412,-1.2537222924754374e-18,-0.04123310166647045,-5.065920877411968e-18,-0.04123310166647045,-4.787663715458593e-18,0.04125572845804397,-6.938893903907228e-18,-0.04125572845804399,0.6747940148928712,0.2988412202650752,0.6747940148928714,500.0,70.71428571428592,[0.15814253]
-9.323917826151786e-18,-0.12976743315740985,-6.798440117389127e-18,-0.12976743315740985,-5.80564962754483e-18,-0.07235455361638748,-6.798440117389127e-18,-0.07235455361638748,-7.190379557590194e-18,0.14857579929884124,-2.777672595106721e-18,-0.1485757992988411,0.529006417918819,0.6635543833035839,0.5290064179188192,500.0,70.71428571428592,[0.37398795]
-9.564650752257022e-18,-0.13519348802294032,-6.787417670770568e-18,-0.13519348802294032,-5.821085980997806e-18,-0.07673899736646314,-6.787417670770568e-18,-0.07673899736646314,-7.115381030154572e-18,0.15545466516196582,-6.742649612363456e-18,-0.15545466516196602,0.6227267205125537,0.4737329027198344,0.6227267205125534,500.0,57.857142857142705,[0.36675223]
-8.416936411568777e-18,-0.007962291841902131,-4.638750729247713e-18,-0.007962291841902131,-1.290805574818014e-18,-0.04667707833454967,-4.638750729247713e-18,-0.04667707833454967,-5.06175569829475e-18,0.0473513224020756,-9.163234527955137e-18,-0.0473513224020756,0.6534590207623056,0.3820767152925402,0.6534590207623059,500.0,57.857142857142705,[0.20389018]
-8.402768668832122e-18,0.020735704989665486,-3.2191926923217534e-18,0.020735704989665486,-5.491017742607299e-19,-0.03232703063344328,-3.2191926923217534e-18,-0.03232703063344328,-5.258691349669863e-18,0.03840581168253081,-1.2343427610944595e-17,-0.03840581168253079,0.30084348417703016,0.9049786716030658,0.30084348417703066,500.0,57.857142857142705,[0.19438458]
-8.587220639649556e-18,0.03256693200058271,-2.0056477092648812e-18,0.03256693200058271,-3.283221764396808e-19,-0.025905521663716322,-2.0056477092648812e-18,-0.025905521663716322,-5.942505380346718e-18,0.04161371303548692,-1.1507754908167824e-17,-0.0416137130354869,0.07830291570752122,0.9938497405460252,0.07830291570752144,500.0,57.857142857142705,[0.19367496]
-8.826741125771942e-18,0.03857573598960216,-8.64323716855998e-19,0.03857573598960216,-2.767775797911753e-19,-0.022576430906882973,-8.64323716855998e-19,-0.022576430906882973,-6.798867425645757e-18,0.0446965618323462,-7.68782195940584e-18,-0.04469656183234623,0.022267169193725754,0.9995040501929925,0.022267169193725685,500.0,57.857142857142705,[0.19003724]
-9.116446452862767e-18,0.04178890441887708,2.441543066774684e-19,0.04178890441887708,-2.8939691796931356e-19,-0.02078844281427616,2.441543066774684e-19,-0.02078844281427616,-7.736089891339456e-18,0.046674102960554825,-6.5138362156136036e-18,-0.04667410296055484,0.0701584606964303,0.9950656163215645,0.07015846069643021,500.0,57.857142857142705,[0.19506932]
-9.412137672456333e-18,0.04333502235431338,1.3195147811383105e-18,0.04333502235431338,-3.6163778033904897e-19,-0.019930689444089645,1.3195147811383105e-18,-0.019930689444089645,-8.72709636424439e-18,0.04769860107136879,-7.514216060597484e-18,-0.04769860107136885,0.0916126673223048,0.9915716002247066,0.09161266732230484,500.0,57.857142857142705,[0.19497106]
-9.733866676576689e-18,0.04368538557540428,2.3845480542854443e-18,0.04368538557540428,-4.642670095166922e-19,-0.019741089640784353,2.3845480542854443e-18,-0.019741089640784353,-9.74347717112606e-18,0.04793874772120383,-8.317019824029554e-18,-0.04793874772120387,0.09627122505597897,0.9906884992026717,0.09627122505597893,500.0,57.857142857142705,[0.19676402]
-1.0081624986622557e-17,0.043006828174021794,3.4298598359021055e-18,0.043006828174021794,-5.7998507941828e-19,-0.02012450404889814,3.4298598359021055e-18,-0.02012450404889814,-1.0794715627514655e-17,0.047482448681633496,-8.548172171482878e-18,-0.04748244868163347,0.0869855463058661,0.9924046702166108,0.08698554630586616,500.0,57.857142857142705,[0.19465892]
-1.0420709687560348e-17,0.04126513357223927,4.4678968451435234e-18,0.04126513357223927,-7.216805238125484e-19,-0.021097376822485456,4.4678968451435234e-18,-0.021097376822485456,-1.1863318259321963e-17,0.04634555596305534,-7.283472269344039e-18,-0.04634555596305535,0.062413157036520575,0.9960969810502737,0.06241315703652016,500.0,57.857142857142705,[0.19506932]
-1.0783678608300148e-17,0.03821411394962552,5.4897729779570746e-18,0.03821411394962552,-9.04549115841191e-19,-0.022792996117965113,5.4897729779570746e-18,-0.022792996117965113,-1.2975199911356236e-17,0.04449538377167388,-7.853769083664112e-18,-0.04449538377167386,0.016396297517088827,0.9997311252809239,0.01639629751708864,500.0,57.857142857142705,[0.19003724]
-1.1179714074026755e-17,0.033261861647676895,6.482398068837365e-18,0.033261861647676895,-1.1232970288308392e-18,-0.02553146609693071,6.482398068837365e-18,-0.02553146609693071,-1.4124593015097656e-17,0.04193098140191714,-8.261888227007483e-18,-0.041930981401917186,0.06613448600617972,0.9956166227626959,0.06613448600618003,500.0,57.857142857142705,[0.19506932]
-1.1620567426112404e-17,0.025048918250602997,7.434409997202107e-18,0.025048918250602997,-1.420218705434971e-18,-0.03003479090928884,7.434409997202107e-18,-0.03003479090928884,-1.533922895567843e-17,0.039109295192960074,-7.299877649542071e-18,-0.03910929519296013,0.21885008084542748,0.9508991977217668,0.21885008084542698,500.0,57.857142857142705,[0.20407066]
-1.2141984447547962e-17,0.00999139219558914,8.297871016378e-18,0.00999139219558914,-1.90163580568809e-18,-0.038122567850526146,8.297871016378e-18,-0.038122567850526146,-1.671156899969276e-17,0.0394101268397356,-7.517821081918953e-18,-0.03941012683973564,0.483787223387454,0.7293146405867057,0.4837872233874537,500.0,57.857142857142705,[0.20102823]
-1.2941465676518734e-17,-0.024783678420991915,8.925744958034085e-18,-0.024783678420991915,-2.872463207549793e-18,-0.05551168332340857,8.925744958034085e-18,-0.05551168332340857,-1.8490345633552305e-17,0.060792908315637766,-2.350944736154871e-17,-0.06079290831563775,0.7000801252253728,0.14062587432209192,0.7000801252253728,500.0,57.857142857142705,[0.11037154]
-1.5214324321291406e-17,-0.16904687429642948,8.658634573438332e-18,-0.16904687429642948,-7.649305048301325e-18,-0.09388905425720415,8.658634573438332e-18,-0.09388905425720415,-2.2189627200245616e-17,0.1933701120098582,-2.3845532112621796e-17,-0.19337011200985815,0.619587445708566,0.48189500333648366,0.6195874457085659,500.0,57.857142857142705,[0.64426307]
-1.5343996049247363e-17,-0.1758419801801721,8.882673928494739e-18,-0.1758419801801721,-7.702120375316471e-18,-0.09549229497229164,8.882673928494739e-18,-0.09549229497229164,-2.1948368600861102e-17,0.20009792700765097,-2.730105417937915e-17,-0.20009792700765103,0.6780037135069594,0.28394000940611774,0.6780037135069592,500.0,45.00000000000011,[0.54138611]
-1.2674627137076478e-17,-0.03310020323516276,9.735847224844128e-18,-0.03310020323516276,-3.0276746022074187e-18,-0.057573976112524065,9.735847224844128e-18,-0.057573976112524065,-1.8372365896759632e-17,0.06641073843599825,-2.6913007079514735e-17,-0.06641073843599823,0.6826770902048619,0.26058392317801593,0.6826770902048618,500.0,45.00000000000011,[0.15095752]
-1.154214036428472e-17,0.002874415872191278,9.689933479269818e-18,0.002874415872191278,-2.153823322120807e-18,-0.040021783122818094,9.689933479269818e-18,-0.040021783122818094,-1.6678540608411708e-17,0.04012487247252248,-1.3877787807814457e-17,-0.0401248724725225,0.4628970132685831,0.7559449121556743,0.4628970132685832,500.0,45.00000000000011,[0.19812693]
-1.0700062642489919e-17,0.017990955364528965,9.390425829275692e-18,0.017990955364528965,-1.781392282354013e-18,-0.03203079615658028,9.390425829275692e-18,-0.03203079615658028,-1.536202579486645e-17,0.03673753363187124,-6.291016662317093e-18,-0.036737533631871266,0.19108306143708143,0.9627951637101555,0.19108306143708143,500.0,45.00000000000011,[0.20350265]
-9.942957462709933e-18,0.025734282796230516,9.010135656036152e-18,0.025734282796230516,-1.5868719725181603e-18,-0.02774456479057393,9.010135656036152e-18,-0.02774456479057393,-1.418594629360042e-17,0.0378419633007422,-2.838322313446144e-18,-0.037841963300742236,0.026561544631909666,0.9992942352948575,0.02656154463190952,500.0,45.00000000000011,[0.19481579]
-9.274945425166197e-18,0.029912260144042954,8.575057821159016e-18,0.029912260144042954,-1.4597183891419681e-18,-0.025292348508335692,8.575057821159016e-18,-0.025292348508335692,-1.307502060386032e-17,0.039172007862656344,-3.990148339378387e-18,-0.03917200786265639,0.05896955361473087,0.9965165244455101,0.05896955361473109,500.0,45.00000000000011,[0.19079057]
-8.613071894948217e-18,0.0319617487125404,8.124397112000557e-18,0.0319617487125404,-1.3846149390155222e-18,-0.02393442127474443,8.124397112000557e-18,-0.02393442127474443,-1.1997729525392695e-17,0.0399300626410793,-4.6234953928021684e-18,-0.039930062641079324,0.10051734090616637,0.9898446991090609,0.10051734090616593,500.0,45.00000000000011,[0.19248527]
-7.99498186173328e-18,0.03248762583743997,7.650269489196774e-18,0.03248762583743997,-1.3236580351225348e-18,-0.023347653078491234,7.650269489196774e-18,-0.023347653078491234,-1.0953004754436437e-17,0.040006983600704996,-2.8416023278834953e-18,-0.040006983600705044,0.11422971611870748,0.9868653119402256,0.1142297161187076,500.0,45.00000000000011,[0.19755988]
-7.381097214752564e-18,0.031707393816246064,7.165475785984425e-18,0.031707393816246064,-1.3169726580143047e-18,-0.023405233942454206,7.165475785984425e-18,-0.023405233942454206,-9.924092574864896e-18,0.03941019916873713,-1.6790874832322127e-18,-0.039410199168737135,0.10533009283010171,0.9888433359682433,0.10533009283010139,500.0,45.00000000000011,[0.19755988]
-6.775792912265861e-18,0.029583100759569193,6.665066618867089e-18,0.029583100759569193,-1.3124535635327743e-18,-0.0241071221899858,6.665066618867089e-18,-0.0241071221899858,-8.918971350481299e-18,0.03816167175103481,-3.3128454082923987e-18,-0.038161671751034805,0.07174710014420173,0.9948390358453953,0.07174710014420149,500.0,45.00000000000011,[0.19079057]
-6.227295238346236e-18,0.025809219105775365,6.141517759122526e-18,0.025809219105775365,-1.3491489498668518e-18,-0.025580045385286687,6.141517759122526e-18,-0.025580045385286687,-7.931231258718972e-18,0.036338058736856686,1.4464681307253817e-19,-0.03633805873685671,0.003153356679674867,0.9999900562922119,0.003153356679674749,500.0,45.00000000000011,[0.17545467]
-5.691108493483237e-18,0.019647051091780676,5.590815648870447e-18,0.019647051091780676,-1.4390221234207382e-18,-0.02814705461964235,5.590815648870447e-18,-0.02814705461964235,-6.977168171235516e-18,0.0343258401261232,-1.1875831323732305e-18,-0.034325840126123185,0.12381348128159793,0.9845508842644257,0.12381348128159798,500.0,45.00000000000011,[0.19983233]
-5.240284306293874e-18,0.009403528617613968,4.993386907146466e-18,0.009403528617613968,-1.5934937601168004e-18,-0.03254780609288954,4.993386907146466e-18,-0.03254780609288954,-6.080021934135763e-18,0.03387899101098825,-7.492962794270807e-18,-0.03387899101098825,0.3415727089949207,0.8755890411258825,0.34157270899492065,500.0,45.00000000000011,[0.18974155]
-4.904192551607453e-18,-0.009347521389613223,4.31913514897421e-18,-0.009347521389613223,-1.9205218900363242e-18,-0.04065299664178504,4.31913514897421e-18,-0.04065299664178504,-5.28284688471279e-18,0.04171381416373074,-6.547008709456234e-19,-0.04171381416373073,0.5993280527541964,0.5306710566478317,0.5993280527541964,500.0,45.00000000000011,[0.19339067]
-4.954555443202744e-18,-0.052120606825122776,3.386937314363281e-18,-0.052120606825122776,-2.7532901076271476e-18,-0.05831913190636417,3.386937314363281e-18,-0.05831913190636417,-4.7916136838292925e-18,0.07821559180963177,-7.863613446167644e-18,-0.0782155918096318,0.7059956728339103,0.056037664829901385,0.7059956728339103,500.0,45.00000000000011,[0.10581669]
-6.8897792278562806e-18,-0.21382001868746492,1.5539575124417891e-18,-0.21382001868746492,-7.393136828568273e-18,-0.09635161446802644,1.5539575124417891e-18,-0.09635161446802644,-5.803560182242218e-18,0.2345264036352901,-8.556515148966747e-18,-0.23452640363528998,0.661272309530308,0.35417208429929214,0.661272309530308,500.0,45.00000000000011,[0.67431934]
-6.9374628814475124e-18,-0.22063891783603753,1.43703654098379e-18,-0.22063891783603753,-7.373831053456745e-18,-0.09485496521491132,1.43703654098379e-18,-0.09485496521491132,-5.851167528421942e-18,0.24016451963139723,-6.619158379622186e-18,-0.24016451963139704,0.698632245591487,0.15435663523021018,0.6986322455914873,500.0,32.14285714285738,[0.30437811]
-4.440955692146119e-18,-0.060511016087515565,2.8997643036671055e-18,-0.060511016087515565,-2.721410566819354e-18,-0.05658784410070584,2.8997643036671055e-18,-0.05658784410070584,-5.5330504084462984e-18,0.08284785554200746,-7.18121486437498e-18,-0.08284785554200755,0.6942601858802596,0.18975138630063798,0.6942601858802597,500.0,32.14285714285738,[0.12816865]
-3.849081494084826e-18,-0.016588010313195126,3.46348530618258e-18,-0.016588010313195126,-1.8587468011199453e-18,-0.03930752943713285,3.46348530618258e-18,-0.03930752943713285,-6.6816973952751974e-18,0.0426643171350689,-8.01645577851935e-18,-0.0426643171350689,0.5793899513034677,0.5732491331499161,0.5793899513034677,500.0,32.14285714285738,[0.14939722]
-3.6728622451089794e-18,0.002172677747499877,3.791345398852573e-18,0.002172677747499877,-1.5191957771118279e-18,-0.031327559546442604,3.791345398852573e-18,-0.031327559546442604,-8.106814612598918e-18,0.03140281063424718,-6.938893903907228e-18,-0.03140281063424719,0.3338778206189648,0.8815050775789443,0.3338778206189649,500.0,32.14285714285738,[0.14956999]
-3.6442384871921945e-18,0.011897440771550123,4.0322267004801854e-18,0.011897440771550123,-1.3315473736123359e-18,-0.02693109898821791,4.0322267004801854e-18,-0.02693109898821791,-9.623924653796194e-18,0.02944203100374929,-2.568638488090388e-18,-0.029442031003749276,0.10217654626750385,0.989504879616917,0.10217654626750411,500.0,32.14285714285738,[0.15994936]
-3.6970093015506274e-18,0.017236444577897855,4.2314833689553344e-18,0.017236444577897855,-1.2264296749594034e-18,-0.024298509275031157,4.2314833689553344e-18,-0.024298509275031157,-1.1190176668004632e-17,0.029791149267453902,8.656729174620812e-19,-0.029791149267453923,0.039565320410318426,0.9984333582376228,0.039565320410318475,500.0,32.14285714285738,[0.15318005]
-3.789866942754605e-18,0.019960193379653025,4.403602154387785e-18,0.019960193379653025,-1.172878829283333e-18,-0.022707721992363896,4.403602154387785e-18,-0.022707721992363896,-1.2775132476633815e-17,0.030233259133537534,-3.038596172950283e-18,-0.03023325913353756,0.11272125863763077,0.9872121533400493,0.11272125863763055,500.0,32.14285714285738,[0.15994936]
-3.918606024569908e-18,0.020820391205238414,4.551960719561927e-18,0.020820391205238414,-1.1551585526109157e-18,-0.02183856182909343,4.551960719561927e-18,-0.02183856182909343,-1.4387779397039126e-17,0.030173025580844646,-4.504170825709392e-18,-0.03017302558084466,0.14085208471162114,0.9799598871712968,0.14085208471162083,500.0,32.14285714285738,[0.16434628]
-4.058062058401448e-18,0.020093917615219076,4.697136629781089e-18,0.020093917615219076,-1.1531745599117073e-18,-0.021557667871969804,4.697136629781089e-18,-0.021557667871969804,-1.6005428692198852e-17,0.02947029978139636,-4.716382754397141e-18,-0.02947029978139635,0.13303730840482886,0.9821416135898106,0.1330373084048289,500.0,32.14285714285738,[0.16421412]
-4.248525357525458e-18,0.017746593437864527,4.8250384497201235e-18,0.017746593437864527,-1.1707591789636658e-18,-0.021848523964624,4.8250384497201235e-18,-0.021848523964624,-1.764549540913938e-17,0.02814781657751814,-5.6094142777712e-18,-0.02814781657751816,0.08547121100657791,0.9926677914479436,0.08547121100657785,500.0,32.14285714285738,[0.15276965]
-4.4544536253817595e-18,0.013422259423435078,4.9368457647819254e-18,0.013422259423435078,-1.2311607344729004e-18,-0.022806199892871734,4.9368457647819254e-18,-0.022806199892871734,-1.9292684151153987e-17,0.026462800335255793,-5.155181906526124e-18,-0.026462800335255787,0.02053967972534115,0.9995780325285069,0.020539679725341778,500.0,32.14285714285738,[0.14965111]
-4.713424022837411e-18,0.0062486708568749005,5.026089402190871e-18,0.0062486708568749005,-1.3399242316756604e-18,-0.024692711877520344,5.026089402190871e-18,-0.024692711877520344,-2.0964121692825587e-17,0.02547107982288523,-1.2260840442329957e-18,-0.02547107982288525,0.21782557115082574,0.9513695607415832,0.2178255711508256,500.0,32.14285714285738,[0.15987352]
-5.060300558350298e-18,-0.005775486228946762,5.0798034609415556e-18,-0.005775486228946762,-1.5100049733257512e-18,-0.02811887233172978,5.0798034609415556e-18,-0.02811887233172978,-2.2666150027910623e-17,0.028705874353324824,-7.916772272672045e-18,-0.02870587435332484,0.4889710854550807,0.7223673270419699,0.48897108545508056,500.0,32.14285714285738,[0.15307223]
-5.573086363684171e-18,-0.027857440448983316,5.0557263529604566e-18,-0.027857440448983316,-1.8608155798319404e-18,-0.03463596521553181,5.0557263529604566e-18,-0.03463596521553181,-2.4445265805821314e-17,0.04444870160961037,-1.4483248291571466e-17,-0.04444870160961041,0.6683907481663333,0.32635504520582853,0.6683907481663333,500.0,32.14285714285738,[0.12507114]
-6.567863694507794e-18,-0.07795224359659923,4.828991597566303e-18,-0.07795224359659923,-2.711863661779573e-18,-0.0490801653650703,4.828991597566303e-18,-0.0490801653650703,-2.6411148212698518e-17,0.09211631187800669,-3.165672670408631e-17,-0.0921163118780067,0.7071064853003025,0.0009148182909676893,0.7071064853003026,500.0,32.14285714285738,[0.08674057]
-9.831650385123573e-18,-0.2552070394923047,3.870740081051185e-18,-0.2552070394923047,-7.357085815931375e-18,-0.07923522558922912,3.870740081051185e-18,-0.07923522558922912,-2.951346842056333e-17,0.2672243513989748,-3.064455886277624e-17,-0.26722435139897494,0.6833481112574973,0.2570422488261841,0.6833481112574971,500.0,32.14285714285738,[0.55573238]
-1.0206472390450951e-17,-0.2606985189508572,3.983577546168345e-18,-0.2606985189508572,-7.421285784813453e-18,-0.07493389175199762,3.983577546168345e-18,-0.07493389175199762,-2.9336028253003356e-17,0.2712541352980089,-2.8232637326855543e-17,-0.2712541352980088,0.7059700743849682,0.056678992102581136,0.7059700743849683,500.0,19.285714285714306,[0.18051833]
-7.228380648521186e-18,-0.08475169381478306,4.768140676189299e-18,-0.08475169381478306,-2.8687856142451704e-18,-0.04389454458279897,4.768140676189299e-18,-0.04389454458279897,-2.6363837617563547e-17,0.09544412317479825,-2.6353843582266417e-17,-0.09544412317479824,0.7000614810127833,0.14081138307813568,0.7000614810127831,500.0,19.285714285714306,[0.13204858]
-6.517534717317617e-18,-0.03378223273942733,4.845554545164182e-18,-0.03378223273942733,-2.0892630126843854e-18,-0.030306243641001207,4.845554545164182e-18,-0.030306243641001207,-2.4492372914525596e-17,0.045384002164733775,-1.785030738561717e-17,-0.04538400216473381,0.6527619241484998,0.3844525208187566,0.6527619241484999,500.0,19.285714285714306,[0.17531874]
-6.328427994398194e-18,-0.011739962838683457,4.744341242400076e-18,-0.011739962838683457,-1.853150924276024e-18,-0.023915630030012975,4.744341242400076e-18,-0.023915630030012975,-2.2791158525163312e-17,0.026641773349124608,-9.756833202561748e-18,-0.026641773349124626,0.5037531620423443,0.701758864186751,0.5037531620423441,500.0,19.285714285714306,[0.15943215]
-6.29559885024719e-18,-0.00017915107192866987,4.571462562328025e-18,-0.00017915107192866987,-1.7653804438392474e-18,-0.02027777445598048,4.571462562328025e-18,-0.02027777445598048,-2.1151532695489276e-17,0.02027856582685736,-3.469446951953614e-18,-0.020278565826857383,0.23942983077717261,0.9409286435580698,0.23942983077717236,500.0,19.285714285714306,[0.17088049]
-6.3685826500539685e-18,0.006287071658244293,4.367425022556866e-18,0.006287071658244293,-1.751272051311543e-18,-0.017984544542378206,4.367425022556866e-18,-0.017984544542378206,-1.9544532523535557e-17,0.019051800766139774,-6.150105962255383e-18,-0.01905180076613981,0.00020993580300318848,0.9999999559269578,0.00020993580300283658,500.0,19.285714285714306,[0.14702977]
-6.489860562744043e-18,0.009722137157457513,4.149376594172708e-18,0.009722137157457513,-1.7919015086389226e-18,-0.016474546121211246,4.149376594172708e-18,-0.016474546121211246,-1.7948045817167387e-17,0.01912931312954891,-4.280535865541253e-18,-0.019129313129548926,0.13807617131793018,0.9807496835729101,0.13807617131792965,500.0,19.285714285714306,[0.17035338]
-6.670556513195027e-18,0.011008741812349721,3.910267320212338e-18,0.011008741812349721,-1.868548064198086e-18,-0.015493974923990395,3.910267320212338e-18,-0.015493974923990395,-1.636682059310082e-17,0.01900672657866735,-5.17674969742781e-18,-0.01900672657866739,0.1961948156773638,0.9607367946543166,0.19619481567736397,500.0,19.285714285714306,[0.14597471]
-6.8572213989461934e-18,0.010480093727353708,3.662166489595939e-18,0.010480093727353708,-1.9599134715770182e-18,-0.014929334077538377,3.662166489595939e-18,-0.014929334077538377,-1.4789800755268473e-17,0.018240542221460054,-6.391270249859409e-18,-0.018240542221460078,0.19232187339360163,0.962301716733765,0.19232187339360185,500.0,19.285714285714306,[0.15507789]
-7.084854886075885e-18,0.008112551017084926,3.4092074204468638e-18,0.008112551017084926,-2.091704849852642e-18,-0.0147509048921271,3.4092074204468638e-18,-0.0147509048921271,-1.3217528934152181e-17,0.016834567982023912,-5.236610112674128e-18,-0.016834567982023922,0.11699532675005926,0.986217109483147,0.11699532675005934,500.0,19.285714285714306,[0.16595646]
-7.366751421389057e-18,0.003518063898734746,3.1466293781471386e-18,0.003518063898734746,-2.2375367918457407e-18,-0.015003269868337728,3.1466293781471386e-18,-0.015003269868337728,-1.1658822875081757e-17,0.01541021999640989,-4.442232060073362e-18,-0.015410219996409904,0.07500566092814323,0.9943582360786603,0.07500566092814287,500.0,19.285714285714306,[0.15779279]
-7.692058395249011e-18,-0.004269459652588711,2.8733004694260614e-18,-0.004269459652588711,-2.448348734038555e-18,-0.015835514600062568,2.8733004694260614e-18,-0.015835514600062568,-1.0115988757605001e-17,0.01640096973882573,-8.287269389219028e-18,-0.016400969738825745,0.399233488406736,0.8253637037507632,0.39923348840673584,500.0,19.285714285714306,[0.15075472]
-8.103643615720696e-18,-0.017473156957242237,2.5670491519399146e-18,-0.017473156957242237,-2.714780300619435e-18,-0.017608628197890212,2.5670491519399146e-18,-0.017608628197890212,-8.590111842685582e-18,0.02480675313425677,-1.0260252059952954e-17,-0.024806753134256756,0.6358917129548323,0.4373596446755681,0.6358917129548323,500.0,19.285714285714306,[0.16600483]
-8.730381822239874e-18,-0.04186538093017181,2.2205541534845676e-18,-0.04186538093017181,-3.1666558343673537e-18,-0.02124723011031431,2.2205541534845676e-18,-0.02124723011031431,-7.11035851872212e-18,0.04694842817165489,-1.0596572313478939e-17,-0.04694842817165492,0.7008581613244913,0.13264869169994328,0.7008581613244911,500.0,19.285714285714306,[0.08334926]
-9.921998360349065e-18,-0.09715733710209327,1.75288298555449e-18,-0.09715733710209327,-4.121956797637494e-18,-0.029609300434866426,1.75288298555449e-18,-0.029609300434866426,-5.749305612660018e-18,0.10156898554682905,-6.948036934855114e-18,-0.10156898554682903,0.7065187658221023,0.04077336241257676,0.7065187658221023,500.0,19.285714285714306,[0.10517478]
-1.3610257745380108e-17,-0.28500780653216773,8.656906263558934e-19,-0.28500780653216773,-8.863868920771232e-18,-0.04591527861265515,8.656906263558934e-19,-0.04591527861265515,-5.2613451518700866e-18,0.2886826329974758,-5.974719200949573e-18,-0.2886826329974759,0.6960753981310821,0.17594908420708089,0.6960753981310821,500.0,19.285714285714306,[0.3326021]
-1.3624366137907812e-17,-0.28808550717011383,5.5365266349705525e-19,-0.28808550717011383,-8.797125371505553e-18,-0.03966067341431682,5.5365266349705525e-19,-0.03966067341431682,-4.068100722315392e-18,0.29080273117207606,-4.338113134168938e-18,-0.29080273117207606,0.7068926604603858,0.0246075836781019,0.7068926604603858,500.0,6.428571428571418,[0.19370731]
-9.687039361714602e-18,-0.10102189848427691,2.5752055663699937e-19,-0.10102189848427691,-3.903548028698993e-18,-0.021994892858241268,2.5752055663699937e-19,-0.021994892858241268,-2.452825435513692e-18,0.10338858392111318,-2.9754834859065616e-18,-0.10338858392111319,0.7034187281935702,0.10200091006006004,0.7034187281935703,500.0,6.428571428571418,[0.12942453]
-8.27294432605315e-18,-0.04530547156448323,-4.280337069523023e-19,-0.04530547156448323,-2.8053995910858444e-18,-0.014788303052875974,-4.280337069523023e-19,-0.014788303052875974,-1.6869025104038917e-18,0.047657944362549894,-1.8893846195288942e-18,-0.047657944362549866,0.6925429655821753,0.20191206414004148,0.6925429655821752,500.0,6.428571428571418,[0.08464001]
-7.425898143909049e-18,-0.020996159931368417,-1.2026132839676235e-18,-0.020996159931368417,-2.2348236394365668e-18,-0.011251446880811415,-1.2026132839676235e-18,-0.011251446880811415,-1.0423931556046242e-18,0.023820868766174782,-1.4449707471734402e-18,-0.02382086876617481,0.65673346669671,0.3706781723288315,0.6567334666967101,500.0,6.428571428571418,[0.17475931]
-6.81489622136308e-18,-0.008110428779481628,-2.009776125696868e-18,-0.008110428779481628,-1.8012618844505726e-18,-0.009091673851727934,-2.009776125696868e-18,-0.009091673851727934,-4.250153248970963e-19,0.012183496559413363,-1.1981749912827688e-18,-0.012183496559413367,0.5268335343410714,0.667002889189687,0.5268335343410715,500.0,6.428571428571418,[0.15964091]
-6.277692044346642e-18,-0.0007761995305927018,-2.8344048860601695e-18,-0.0007761995305927018,-1.4569628437264008e-18,-0.007591256203263557,-2.8344048860601695e-18,-0.007591256203263557,1.728278084643794e-19,0.007630835894899048,-6.020222645481837e-18,-0.00763083589489905,0.1502339991297369,0.9771691209872384,0.1502339991297372,500.0,6.428571428571418,[0.16184052]
-5.798549328886525e-18,0.003264173671761666,-3.673718583838125e-18,0.003264173671761666,-1.1693686883539642e-18,-0.006460665548095549,-3.673718583838125e-18,-0.006460665548095549,7.61310566014205e-19,0.007238441067230622,-7.121240067258748e-18,-0.007238441067230624,0.24620080918123177,0.9374275028592948,0.24620080918123222,500.0,6.428571428571418,[0.16645063]
-5.364987573900531e-18,0.004982619988322745,-4.513956449155455e-18,0.004982619988322745,-9.07006850386845e-19,-0.0055627379785417866,-4.513956449155455e-18,-0.0055627379785417866,1.3430104425410957e-18,0.007467968650573224,-7.608286382390088e-18,-0.007467968650573226,0.4098416133897793,0.8148985850203229,0.4098416133897799,500.0,6.428571428571418,[0.15096347]
-4.97266573553398e-18,0.004754489739784117,-5.3554237116581926e-18,0.004754489739784117,-6.67435492656787e-19,-0.004826320068646951,-5.3554237116581926e-18,-0.004826320068646951,1.9165708618404647e-18,0.006774845982805571,-6.64897771196225e-18,-0.0067748459828055685,0.43671679117297263,0.7864838768946028,0.4367167911729729,500.0,6.428571428571418,[0.16146456]
-4.600963855477152e-18,0.0025713743155948206,-6.200045013836595e-18,0.0025713743155948206,-4.558096047412204e-19,-0.004214376381785004,-6.200045013836595e-18,-0.004214376381785004,2.4914878573444206e-18,0.004936895194172954,-7.970532044201517e-18,-0.004936895194172951,0.29839560095808143,0.9065981086775613,0.2983956009580813,500.0,6.428571428571418,[0.15640331]
-4.285695545531141e-18,-0.0019615912875984185,-7.053060131280878e-18,-0.0019615912875984185,-2.7565628477207137e-19,-0.0037121713423109545,-7.053060131280878e-18,-0.0037121713423109545,3.0539243517661765e-18,0.0041985779085610304,3.5422883609450056e-18,-0.004198577908561036,0.39828455128148477,0.826280117406325,0.3982845512814872,500.0,6.428571428571418,[0.15096347]
-4.0154655655774175e-18,-0.009846041971841772,-7.906160034737949e-18,-0.009846041971841772,-1.3240183756768782e-19,-0.0033263307143913106,-7.906160034737949e-18,-0.0033263307143913106,3.611477171851419e-18,0.010392738740715689,7.704607503224637e-18,-0.010392738740715706,0.6910377285205282,0.2119757427687829,0.6910377285205284,500.0,6.428571428571418,[0.10625658]
-3.868955335482025e-18,-0.023396564634838708,-8.761905261793964e-18,-0.023396564634838708,-8.410772468439185e-20,-0.003096520783738157,-8.761905261793964e-18,-0.003096520783738157,4.1513945012770315e-18,0.023600586384162316,6.295551547179919e-18,-0.023600586384162327,0.7069739290206374,0.019383688251868973,0.7069739290206375,500.0,6.428571428571418,[0.0584776]
-3.93298573233853e-18,-0.04862275981274958,-9.620719742512857e-18,-0.04862275981274958,-1.8937803816034037e-19,-0.0031375630270185023,-9.620719742512857e-18,-0.0031375630270185023,4.670691872392922e-18,0.048723886067891256,5.870345130148432e-18,-0.04872388606789126,0.7063004598440424,0.04774223338081658,0.7063004598440425,500.0,6.428571428571418,[0.05953432]
-4.572204439939908e-18,-0.10595975405733656,-1.0504257824560348e-17,-0.10595975405733656,-8.101473093793358e-19,-0.0037631843344144854,-1.0504257824560348e-17,-0.0037631843344144854,5.084176299551029e-18,0.1060265581645751,5.816730855008698e-18,-0.1060265581645751,0.7050279155468661,0.07662425594602365,0.7050279155468661,500.0,6.428571428571418,[0.11776233]
-7.83992520154899e-18,-0.2973492756383513,-1.1397902399332011e-17,-0.2973492756383513,-5.217392082841469e-18,-0.0029926672415791127,-1.1397902399332011e-17,-0.0029926672415791127,4.729295964431079e-18,0.2973643350838682,4.957477403992195e-18,-0.2973643350838683,0.7034218306244883,0.10195811101519724,0.7034218306244883,500.0,6.428571428571418,[0.20536589]
-8.07000052584694e-18,-0.29740668856834557,-1.1066609532969317e-17,-0.29740668856834557,-5.174524274776521e-18,0.00397529729615913,-1.1066609532969317e-17,0.00397529729615913,4.447399429117907e-18,0.2974332553595542,4.1492519331192095e-18,-0.2974332553595544,0.7036560257779978,0.09867317149370892,0.7036560257779981,500.0,6.428571428571418,[0.20536589]
-5.280879849216139e-18,-0.10613186455711845,-1.0130877181450343e-17,-0.10613186455711845,-6.696060145841261e-19,0.0047684797922386115,-1.0130877181450343e-17,0.0047684797922386115,4.221936463915554e-18,0.10623893388913275,3.2926540822056726e-18,-0.10623893388913278,0.7055060316592284,0.06724937609298676,0.7055060316592284,500.0,6.428571428571418,[0.1174525]
-5.113749660811025e-18,-0.04890931721304903,-9.182749114861955e-18,-0.04890931721304903,4.7208851919626395e-20,0.004165508118084694,-9.182749114861955e-18,0.004165508118084694,3.232178465048904e-18,0.049086380678641205,1.6132396811635302e-18,-0.049086380678641184,0.7068445165238163,0.027233415511545317,0.7068445165238162,500.0,6.428571428571418,[0.06201016]
-5.543513002424175e-18,-0.023797223270004424,-8.213051486620635e-18,-0.023797223270004424,2.4201319489831463e-19,0.004147205745070371,-8.213051486620635e-18,0.004147205745070371,2.148816708065753e-18,0.024155892673515186,-8.350739908987022e-19,-0.02415589267351519,0.7058199081606978,0.06030351969867279,0.7058199081606978,500.0,6.428571428571418,[0.07579337]
-6.176220144243536e-18,-0.010360361933587787,-7.241386822882664e-18,-0.010360361933587787,2.778268066994105e-19,0.004399855962282385,-7.241386822882664e-18,0.004399855962282385,1.0293700240405893e-18,0.011255924301618538,-5.211605110795833e-18,-0.011255924301618538,0.6777016847880073,0.28537843799241697,0.677701684788008,500.0,6.428571428571418,[0.1254901]
-6.917453382429855e-18,-0.0025890393218846817,-6.26229490442458e-18,-0.0025890393218846817,2.230211280340971e-19,0.0048086257353776645,-6.26229490442458e-18,0.0048086257353776645,-1.0581294395778331e-19,0.005461319078135012,-1.075207307110924e-17,-0.005461319078135012,0.40281824614308964,0.8218728132432721,0.40281824614308964,500.0,6.428571428571418,[0.15096347]
-7.706438103017633e-18,0.0018314237727745227,-5.281202036064728e-18,0.0018314237727745227,1.372855119042009e-19,0.005333831908435396,-5.281202036064728e-18,0.005333831908435396,-1.2442516948471647e-18,0.005639492518208286,-3.791348129309777e-18,-0.005639492518208288,0.15330908716076055,0.9762134231754183,0.15330908716076208,500.0,6.428571428571418,[0.16184052]
-8.55185639371623e-18,0.0039027533986117683,-4.294784606101874e-18,0.0039027533986117683,1.6278914455043585e-20,0.005968830405630515,-4.294784606101874e-18,0.005968830405630515,-2.3886593810367287e-18,0.007131508991900309,-2.2800139928985026e-18,-0.007131508991900319,0.3182711951989484,0.892976423324415,0.31827119519894964,500.0,6.428571428571418,[0.15363936]
-9.416809381760879e-18,0.004019904425557607,-3.3136408661343514e-18,0.004019904425557607,-1.4379707768621833e-19,0.0067283383267908595,-3.3136408661343514e-18,0.0067283383267908595,-3.5384933720446405e-18,0.00783773999507386,-5.2586234663029436e-18,-0.007837739995073872,0.2924236358123954,0.9104816496978502,0.2924236358123961,500.0,6.428571428571418,[0.15640331]
-1.0342536983771024e-17,0.0021913739429561046,-2.3237472096472424e-18,0.0021913739429561046,-3.1526830994601076e-19,0.007649373051458971,-2.3237472096472424e-18,0.007649373051458971,-4.6932110373890655e-18,0.007957074075202119,-8.715210694459364e-18,-0.007957074075202126,0.11740307063387119,0.986120194505455,0.11740307063387193,500.0,6.428571428571418,[0.16616522]
-1.1281287717345204e-17,-0.0019581013420700783,-1.329342937279882e-18,-0.0019581013420700783,-5.214678930432295e-19,0.008803070787742038,-1.329342937279882e-18,0.008803070787742038,-5.853897638033673e-18,0.0090182157969198,-1.122177804802359e-17,-0.009018215796919806,0.2298489307247182,0.9456949498064415,0.2298489307247178,500.0,6.428571428571418,[0.16608938]
-1.230577406704928e-17,-0.009400365024866214,-3.292410448532565e-19,-0.009400365024866214,-7.667368708325528e-19,0.01032657962205169,-3.292410448532565e-19,0.01032657962205169,-7.03032052265149e-18,0.01396442298454544,-9.813576939603438e-18,-0.013964422984545454,0.531552969951446,0.6594716675275698,0.5315529699514463,500.0,6.428571428571418,[0.15964091]
-1.3413825510955915e-17,-0.022392978699943892,6.968053674860948e-19,-0.022392978699943892,-1.103710400051955e-18,0.012509414733452193,6.968053674860948e-19,0.012509414733452193,-8.217596016906002e-18,0.025650164756384146,-7.577535414693984e-18,-0.025650164756384153,0.6520443758653635,0.3868801672413518,0.6520443758653639,500.0,6.428571428571418,[0.16487039]
-1.474652597434215e-17,-0.04680793722954088,1.752832113946818e-18,-0.04680793722954088,-1.6007599214126193e-18,0.016069297017701097,1.752832113946818e-18,0.016069297017701097,-9.440142492479775e-18,0.04948944629239386,-8.857548992219252e-18,-0.049489446292393866,0.6902949525482832,0.2167619823048481,0.6902949525482831,500.0,6.428571428571418,[0.10870426]
-1.6626197963417848e-17,-0.10262868869715873,2.8925935266356716e-18,-0.10262868869715873,-2.5948589641339474e-18,0.023298892393335657,2.8925935266356716e-18,0.023298892393335657,-1.0778269260684357e-17,0.1052401355493927,-1.0000770062500661e-17,-0.10524013554939277,0.7027521658651654,0.11080968704783208,0.7027521658651653,500.0,6.428571428571418,[0.12737925]
-2.105840373904438e-17,-0.2897951934585104,4.4228114854097686e-18,-0.2897951934585104,-7.402565033190153e-18,0.040987767862598855,4.4228114854097686e-18,0.040987767862598855,-1.2972666929224234e-17,0.29267943430656984,-1.1692792849195291e-17,-0.29267943430656973,0.7068235362879011,0.028301538808562825,0.7068235362879011,500.0,6.428571428571418,[0.19370731]
-2.1103984699518503e-17,-0.2868188904745496,5.1490545565354005e-18,-0.2868188904745496,-7.426440774390883e-18,0.04728389102422211,5.1490545565354005e-18,0.04728389102422211,-1.3935836034480978e-17,0.2906902858429263,-1.2520615461072087e-17,-0.29069028584292633,0.6965257625427492,0.17234768414017992,0.6965257625427496,500.0,19.28571428571425,[0.32748333]
-1.702340347612091e-17,-0.09906699282913285,4.5137699199273246e-18,-0.09906699282913285,-2.646951490390087e-18,0.03104264129904253,4.5137699199273246e-18,0.03104264129904253,-1.3397003966019037e-17,0.10381673587157554,-1.1043994601154598e-17,-0.10381673587157561,0.7067231912304772,0.03293420644284613,0.7067231912304772,500.0,19.28571428571425,[0.10517478]
-1.5473650820000762e-17,-0.043871965555509866,4.295361150988823e-18,-0.043871965555509866,-1.685410276578846e-18,0.022744373049223818,4.295361150988823e-18,0.022744373049223818,-1.3729636451383761e-17,0.04941716166582317,-1.0361833939079611e-17,-0.049417161665823175,0.700021649154525,0.14120687458462589,0.700021649154525,500.0,19.28571428571425,[0.08334926]
-1.4475210733424755e-17,-0.019574877600036778,4.1910743552612e-18,-0.019574877600036778,-1.2198333231645993e-18,0.01916896557712439,4.1910743552612e-18,0.01916896557712439,-1.4182732903715806e-17,0.027397537742530825,-1.2135052823968785e-17,-0.02739753774253084,0.6402603672173821,0.42442116387066037,0.6402603672173822,500.0,19.28571428571425,[0.16600483]
-1.3682970229945969e-17,-0.006464440251006123,4.132775492869075e-18,-0.006464440251006123,-9.268128629738148e-19,0.01745848281744734,4.132775492869075e-18,0.01745848281744734,-1.4686293990858487e-17,0.018616863593149405,-1.199326778872754e-17,-0.018616863593149412,0.4507653110627096,0.7704682139355764,0.45076531106270984,500.0,19.28571428571425,[0.1612558]
-1.2977550603560747e-17,0.0012317643495489143,4.0949948455713284e-18,0.0012317643495489143,-7.043343654215524e-19,0.016688287604143454,4.0949948455713284e-18,0.016688287604143454,-1.5209932405829056e-17,0.016733684190023055,-1.214306433183765e-17,-0.01673368419002307,0.18377982522275693,0.9656344814070101,0.1837798252227573,500.0,19.28571428571425,[0.16903166]
-1.2345928722705055e-17,0.005736930989290972,4.079021160762317e-18,0.005736930989290972,-5.285220893070817e-19,0.0164973584760973,4.079021160762317e-18,0.0164973584760973,-1.5737369234172468e-17,0.017466402430516316,-1.711152391914805e-17,-0.01746640243051633,0.001365865731622784,0.9999981344090629,0.0013658657316236434,500.0,19.28571428571425,[0.14699482]
-1.1751205714614129e-17,0.008017204220127024,4.066913718136378e-18,0.008017204220127024,-3.906939469210461e-19,0.01673657387372694,4.066913718136378e-18,0.01673657387372694,-1.6275658672152576e-17,0.018557706446054742,-1.598661806155129e-17,-0.018557706446054745,0.07771383816759997,0.9939422109531921,0.07771383816759952,500.0,19.28571428571425,[0.15779279]
-1.1180358447723934e-17,0.008460682304490392,4.0716617348524326e-18,0.008460682304490392,-2.7240050188106265e-19,0.017361315273524452,4.0716617348524326e-18,0.017361315273524452,-1.6829141763624058e-17,0.019313166832092294,-1.8197444980183838e-17,-0.01931316683209231,0.08244509247484867,0.9931795474402537,0.08244509247484821,500.0,19.28571428571425,[0.15877675]
-1.0642069009743826e-17,0.007091052033386893,4.0790550751674315e-18,0.007091052033386893,-1.80153319969149e-19,0.018401266846310542,4.0790550751674315e-18,0.018401266846310542,-1.7391306942804896e-17,0.01972028500020545,-1.1132391905209247e-17,-0.019720285000205458,0.022072480153258314,0.9995126868828469,0.02207248015325826,500.0,19.28571428571425,[0.15565821]
-1.0147190010310501e-17,0.0035751470981502075,4.0987254301339425e-18,0.0035751470981502075,-1.2480501082200082e-19,0.01996989353797657,4.0987254301339425e-18,0.01996989353797657,-1.7952386861022065e-17,0.020287393245351396,-1.4453108246353685e-17,-0.02028739324535142,0.11227035961369333,0.9873149106057417,0.11227035961369344,500.0,19.28571428571425,[0.16595646]
-9.697891971351298e-18,-0.0029696894773378695,4.137726996015818e-18,-0.0029696894773378695,-1.063555744396181e-19,0.022320971734064016,4.137726996015818e-18,0.022320971734064016,-1.8541683564294643e-17,0.022517656066844423,-6.807824314161949e-18,-0.022517656066844444,0.31952463558275956,0.8920807219705005,0.31952463558275956,500.0,19.28571428571425,[0.1534306]
-9.344096897195018e-18,-0.014606850814833205,4.2197659419882145e-18,-0.014606850814833205,-1.7147123225979242e-19,0.02601587501301137,4.2197659419882145e-18,0.02601587501301137,-1.9152685486840612e-17,0.02983598236055623,-1.0318801178491853e-17,-0.02983598236055624,0.5303934832606125,0.6613361519147037,0.5303934832606125,500.0,19.28571428571425,[0.15943215]
-9.176966708789903e-18,-0.03672316306988664,4.35186254990987e-18,-0.03672316306988664,-3.982907736667331e-19,0.032462732559040836,4.35186254990987e-18,0.032462732559040836,-1.9826632545279417e-17,0.049014484706638474,-1.0252607483791662e-17,-0.04901448470663847,0.6547336972331075,0.37768713429892076,0.6547336972331076,500.0,19.28571428571425,[0.17531874]
-9.509056563672793e-18,-0.08776429102470854,4.678831329620444e-18,-0.08776429102470854,-1.1514618824534162e-18,0.046106531305161604,4.678831329620444e-18,0.046106531305161604,-2.0668795053087005e-17,0.09913820155754077,-1.2940702608152656e-17,-0.0991382015575408,0.6994683462640328,0.14658807983365674,0.6994683462640325,500.0,19.28571428571425,[0.12893612]
-1.2122364964189123e-17,-0.2637802191085696,5.716103410052752e-18,-0.2637802191085696,-5.681341144810211e-18,0.07720094528671449,5.716103410052752e-18,0.07720094528671449,-2.2619009004801226e-17,0.2748453928049863,-1.9160983739629306e-17,-0.2748453928049865,0.7061554182651933,0.05185605566778136,0.7061554182651932,500.0,19.28571428571425,[0.18247753]
-1.111307226797642e-17,-0.2583540018595198,5.725599443484861e-18,-0.2583540018595198,-5.660721186500489e-18,0.08156936411296475,5.725599443484861e-18,0.08156936411296475,-2.225219079908091e-17,0.2709249922739175,-1.7388474434532046e-17,-0.2709249922739173,0.6842097827117969,0.25241621675904974,0.684209782711797,500.0,32.142857142857125,[0.55573238]
-6.991251127959385e-18,-0.08115642184332875,4.321610900547581e-18,-0.08115642184332875,-1.0744083540328766e-18,0.051502221921915114,4.321610900547581e-18,0.051502221921915114,-1.9065864609747046e-17,0.09611890380828593,-1.147895791491133e-17,-0.09611890380828594,0.7070996935851642,0.004477350057055721,0.7070996935851642,500.0,32.142857142857125,[0.0848672]
-5.098556007319651e-18,-0.031117005677139056,3.6455950633967814e-18,-0.031117005677139056,-2.973615040454628e-19,0.03714397501374032,3.6455950633967814e-18,0.03714397501374032,-1.7010380344556876e-17,0.0484555767908346,-8.466300084589302e-18,-0.048455576790834586,0.6728679427779551,0.30740439678626097,0.6728679427779551,500.0,32.142857142857125,[0.12147705]
-3.694228320331224e-18,-0.009088333634131937,3.1698777028532477e-18,-0.009088333634131937,-2.821678505540888e-20,0.030711381752956995,3.1698777028532477e-18,0.030711381752956995,-1.5158925140536586e-17,0.03202790622911765,3.949362167681832e-18,-0.032027906229117664,0.5306352579251717,0.6609481417580148,0.530635257925172,500.0,32.142857142857125,[0.15342505]
-2.476565519093964e-18,0.002884720637863007,2.7751140273184404e-18,0.002884720637863007,9.333244287558322e-20,0.027368369662785674,2.7751140273184404e-18,0.027368369662785674,-1.3373670855300141e-17,0.027519979490497438,-4.328827476716714e-18,-0.02751997949049745,0.3113709972715088,0.8978286050891294,0.31137099727150913,500.0,32.142857142857125,[0.15132203]
-1.3327004633862348e-18,0.01000941185008557,2.4155195898875506e-18,0.01000941185008557,1.0852609636695723e-19,0.025563665099206295,2.4155195898875506e-18,0.025563665099206295,-1.1625315442828459e-17,0.02745340231900248,-3.1262378671518907e-18,-0.0274534023190025,0.13201499134843306,0.9824174693675527,0.1320149913484332,500.0,32.142857142857125,[0.16421412]
-2.387574120073059e-19,0.014287065621044233,2.0777999437556255e-18,0.014287065621044233,1.0201453058493981e-19,0.02468644381522649,2.0777999437556255e-18,0.02468644381522649,-9.89649472770283e-18,0.028522635788130777,-2.0133014683959764e-18,-0.028522635788130773,0.025702785016440452,0.9993391484800332,0.025702785016440226,500.0,32.142857142857125,[0.15870841]
8.139457227521793e-19,0.01658993202305011,1.7591062788930327e-18,0.01658993202305011,3.689887276476546e-20,0.024474671768625337,1.7591062788930327e-18,0.024474671768625337,-8.182867666068575e-18,0.029567472037889345,-6.6402006560052074e-18,-0.029567472037889356,0.0245317071435791,0.9993980141511406,0.024531707143578586,500.0,32.142857142857125,[0.14965111]
1.8492846820929512e-18,0.017274172216922103,1.4457371756334437e-18,0.017274172216922103,-2.387574120073059e-20,0.024833260431909466,1.4457371756334437e-18,0.024833260431909466,-6.483348996962026e-18,0.03025041899641927,-4.13841236978135e-18,-0.030250418996419264,0.03306101558992512,0.9989063712362264,0.033061015589924664,500.0,32.142857142857125,[0.15318005]
2.854236334450975e-18,0.01637396529681585,1.1573290745382548e-18,0.01637396529681585,-1.3240183756768782e-19,0.025778708399268015,1.1573290745382548e-18,0.025778708399268015,-4.791427154601162e-18,0.03053929511753377,-4.161138619865287e-19,-0.030539295117533758,0.0034530227583277687,0.9999880765627465,0.0034530227583276056,500.0,32.142857142857125,[0.13934729]
3.843994333317625e-18,0.013612430867192693,8.818762761968715e-19,0.013612430867192693,-2.6046263128069735e-19,0.0274443615905875,8.818762761968715e-19,0.0274443615905875,-3.1266368363320382e-18,0.030634804670978667,5.1940670921145775e-18,-0.030634804670978642,0.07098363422514598,0.9949485651752967,0.07098363422514632,500.0,32.142857142857125,[0.15318005]
4.7642956305094224e-18,0.008237865066754791,6.322662545528699e-19,0.008237865066754791,-4.384454293225072e-19,0.030150384782109307,6.322662545528699e-19,0.030150384782109307,-1.4813812154089662e-18,0.031255529484673715,4.4472054481268505e-18,-0.031255529484673715,0.2050987153121629,0.9570104670036795,0.2050987153121632,500.0,32.142857142857125,[0.15910883]
5.615140226026367e-18,-0.0015202313431976783,4.2050470901684464e-19,-0.0015202313431976783,-6.880554509665088e-19,0.034618844723644356,4.2050470901684464e-19,0.034618844723644356,1.1829344503998338e-19,0.03465220791431102,6.938893903907228e-18,-0.03465220791431101,0.40210799388112445,0.8225681263663184,0.4021079938811242,500.0,32.142857142857125,[0.14474762]
6.3292419401209465e-18,-0.02031200291795666,3.028895520791547e-19,-0.02031200291795666,-1.1134777487249812e-18,0.04266940111293132,3.028895520791547e-19,0.04266940111293132,1.6181240968313325e-18,0.04725733016025456,2.5535915685603376e-18,-0.04725733016025457,0.5970220854583144,0.5358444354008081,0.5970220854583143,500.0,32.142857142857125,[0.15488544]
6.635285531875766e-18,-0.0642637561436447,4.131113687018457e-19,-0.0642637561436447,-2.042461133626135e-18,0.06001899408925946,4.131113687018457e-19,0.06001899408925946,2.8564068563783143e-18,0.08793241725994118,-2.8268665891201615e-18,-0.08793241725994112,0.6943472863970381,0.1891129074022681,0.6943472863970381,500.0,32.142857142857125,[0.11215308]
5.0204172179354415e-18,-0.22441769870733388,1.4243032716009696e-18,-0.22441769870733388,-6.767687369443454e-18,0.09835454834938107,1.4243032716009696e-18,0.09835454834938107,2.6176494443710084e-18,0.2450243266986085,1.90968080369479e-18,-0.24502432669860863,0.6993823174748311,0.1474067434246798,0.6993823174748311,500.0,32.142857142857125,[0.28099366]
5.0963854853923116e-18,-0.21762126128215997,1.7563931264838588e-18,-0.21762126128215997,-6.791563110644184e-18,0.09992663191429263,1.7563931264838588e-18,0.09992663191429263,2.5536190475145036e-18,0.2394667933718008,3.2183819839058532e-18,-0.23946679337180066,0.6630311633718287,0.3475332398427505,0.6630311633718289,500.0,45.0,[0.61866945]
6.235909497245363e-18,-0.05593185179969088,1.2553756197247778e-18,-0.05593185179969088,-2.0945536598822746e-18,0.06198783983401959,1.2553756197247778e-18,0.06198783983401959,3.2709765445000913e-18,0.08349170218069964,1.2008676863248875e-17,-0.08349170218069966,0.7061761142352739,0.05128929095960314,0.7061761142352739,500.0,45.0,[0.12347663]
5.497932041950053e-18,-0.013167408193509336,1.6561421449648822e-18,-0.013167408193509336,-1.1937870600365295e-18,0.0444130278781659,1.6561421449648822e-18,0.0444130278781659,2.484162345839651e-18,0.046323834943161155,6.9341552707696795e-18,-0.04632383494316114,0.6214990203458524,0.4769464701811848,0.6214990203458525,500.0,45.0,[0.19633832]
4.3887953370797504e-18,0.0055768433776370654,2.2979383473549753e-18,0.0055768433776370654,-8.0526363504282275e-19,0.03639740654411182,2.2979383473549753e-18,0.03639740654411182,1.3967308602427396e-18,0.03682217246708902,4.0428404309686866e-18,-0.036822172467089014,0.41850549684462013,0.8060436081389614,0.41850549684462013,500.0,45.0,[0.18253335]
3.132063141150386e-18,0.015815515706840907,3.0398837880487014e-18,0.015815515706840907,-5.882114423089082e-19,0.03208460811690682,3.0398837880487014e-18,0.03208460811690682,1.9860275635153176e-19,0.03577083469935827,-7.037205314050825e-18,-0.03577083469935828,0.22740722360551724,0.94687481184371,0.22740722360551716,500.0,45.0,[0.19979191]
1.8210678970375423e-18,0.02197480044801969,3.815811462667331e-18,0.02197480044801969,-4.558096047412204e-19,0.029603963834937495,3.815811462667331e-18,0.029603963834937495,-1.0527031347594851e-18,0.03686850321711709,-2.1386299215615333e-18,-0.036868503217117085,0.10346451199808655,0.9892371755620568,0.10346451199808661,500.0,45.0,[0.19755988]
4.601506485958987e-19,0.025747762542585786,4.623449106068181e-18,0.025747762542585786,-3.559655960836197e-19,0.028215816333034813,4.623449106068181e-18,0.028215816333034813,-2.3278847670712326e-18,0.03819790003768454,-4.264009825941412e-18,-0.038197900037684515,0.03230614494532593,0.9989557677883156,0.03230614494532604,500.0,45.0,[0.19079057]
-9.116192094824407e-19,0.027873089977738262,5.45063840401764e-18,0.027873089977738262,-2.973615040454628e-19,0.027597102792066844,5.45063840401764e-18,0.027597102792066844,-3.6323684454020585e-18,0.03922383494028852,-7.968075567515753e-18,-0.0392238349402885,0.0035181055867123997,0.999987622856484,0.0035181055867124066,500.0,45.0,[0.17545467]
-2.313776374543528e-18,0.028656298871318254,6.2942761884477174e-18,0.028656298871318254,-2.582921093533582e-19,0.02762107926683808,6.2942761884477174e-18,0.02762107926683808,-4.957472082042606e-18,0.039800847790810515,-1.1615645649086396e-17,-0.039800847790810535,0.013004994390084335,0.9998308558160365,0.013004994390083893,500.0,45.0,[0.18475231]
-3.7289566711686505e-18,0.02813533024559811,7.149987501098617e-18,0.02813533024559811,-2.4092793393464505e-19,0.028287768906339286,7.149987501098617e-18,0.028287768906339286,-6.2988546331381985e-18,0.03989730163466354,-1.4360457910877988e-17,-0.039897301634663505,0.0019103881026469075,0.9999963504106376,0.0019103881026474208,500.0,45.0,[0.1770951]
-5.178865318631199e-18,0.026092673240090562,8.021842070584102e-18,0.026092673240090562,-2.5612158742601907e-19,0.02972396269615273,8.021842070584102e-18,0.02972396269615273,-7.670624491216537e-18,0.039551757927763664,-1.3338984227793498e-17,-0.03955175792776368,0.04590553803821142,0.9978904564905132,0.04590553803821143,500.0,45.0,[0.19079057]
-6.6461381415124616e-18,0.021923446790397885,8.92055684892041e-18,0.021923446790397885,-3.2774881102821084e-19,0.03225277339571848,8.92055684892041e-18,0.03225277339571848,-9.079293222059642e-18,0.038998447544575036,-1.5989948954004936e-17,-0.038998447544575064,0.1324325358530516,0.9823050681407789,0.13243253585305195,500.0,45.0,[0.20182464]
-8.174185578359219e-18,0.01419079663958637,9.863428182716023e-18,0.01419079663958637,-4.623211705232378e-19,0.03661391640817104,9.863428182716023e-18,0.03661391640817104,-1.0546566044940904e-17,0.039267767749270294,-1.7816367052291154e-17,-0.0392677677492703,0.2855155901878496,0.9148561064557461,0.28551559018785033,500.0,45.0,[0.19119403]
-9.802077023863577e-18,-0.0009131026677080436,1.0899920231830694e-17,-0.0009131026677080436,-7.6619424035071805e-19,0.04467814330188109,1.0899920231830694e-17,0.04467814330188109,-1.2157093315026549e-17,0.044687473025280776,-1.3877787807814457e-17,-0.04468747302528079,0.5101121509354205,0.6925107847074135,0.5101121509354208,500.0,45.0,[0.1935797]
-1.1751205714614129e-17,-0.03687297205368204,1.2182088231596064e-17,-0.03687297205368204,-1.5909925727395932e-18,0.06230200171271884,1.2182088231596064e-17,0.06230200171271884,-1.4143120878541866e-17,0.07239582505561515,1.9586428975299605e-18,-0.07239582505561522,0.6849495374230054,0.24837121888017108,0.6849495374230056,500.0,45.0,[0.19338832]
-1.5189312447519334e-17,-0.17959726767015322,1.43606817873525e-17,-0.17959726767015322,-6.196840102553259e-18,0.1002908863987228,1.43606817873525e-17,0.1002908863987228,-1.801316147498756e-17,0.20570231026710936,-7.27412770618669e-18,-0.20570231026710944,0.6803233121335253,0.27261764787947934,0.6803233121335254,500.0,45.0,[0.56322496]
-1.596201825365207e-17,-0.17278429508412402,1.4656067777300034e-17,-0.17278429508412402,-6.207692712189954e-18,0.09876331227492463,1.4656067777300034e-17,0.09876331227492463,-1.8868347114359184e-17,0.19901910581457208,-9.634852087863665e-18,-0.1990191058145722,0.6237293717538176,0.4710874033798566,0.6237293717538176,500.0,57.8571428571429,[0.6464277]
-1.466404614110326e-17,-0.02848886907476255,1.319881666113016e-17,-0.02848886907476255,-1.5953336165942715e-18,0.06047814229341426,1.319881666113016e-17,0.06047814229341426,-1.6103102178929114e-17,0.06685223523878184,-2.1849448414877794e-18,-0.06685223523878188,0.7019563763590132,0.12047610293268249,0.7019563763590135,500.0,57.8571428571429,[0.10596614]
-1.4837687895290393e-17,0.006319090614753097,1.2629283577438159e-17,0.006319090614753097,-7.94411025406127e-19,0.04317879324159378,1.2629283577438159e-17,0.04317879324159378,-1.5245746017630152e-17,0.043638733849617646,-1.7266594845834036e-17,-0.04363873384961766,0.5379380212083709,0.6490341829802527,0.5379380212083715,500.0,57.8571428571429,[0.19785845]
-1.5289156456176935e-17,0.021410913301863645,1.2303620502324499e-17,0.021410913301863645,-4.970495213606641e-19,0.03517888757880543,1.2303620502324499e-17,0.03517888757880543,-1.4798618500598288e-17,0.04118229400728123,-1.9120976960258382e-17,-0.041182294007281246,0.31585416000090555,0.8946911753338384,0.3158541600009056,500.0,57.8571428571429,[0.19390515]
-1.5840469025721077e-17,0.029659741976323636,1.206131055638143e-17,0.029659741976323636,-3.6247716186563715e-19,0.030761622565305114,1.206131055638143e-17,0.030761622565305114,-1.4507768562334843e-17,0.042731460505725544,-2.604693318981801e-17,-0.04273146050572557,0.16988973041141633,0.9707084830171584,0.1698897304114161,500.0,57.8571428571429,[0.20343851]
-1.6426509946102646e-17,0.03464951918418149,1.1861762435987327e-17,0.03464951918418149,-3.060435917548194e-19,0.02810737815747599,1.1861762435987327e-17,0.02810737815747599,-1.4290716369600928e-17,0.044616296199733105,-2.3410008471523922e-17,-0.04461629619973311,0.08502058846770151,0.9927451833543246,0.08502058846770175,500.0,57.8571428571429,[0.19465892]
-1.7042938173466964e-17,0.03773972073144466,1.1695378364494736e-17,0.03773972073144466,-3.0387306982748025e-19,0.02649409849115304,1.1695378364494736e-17,0.02649409849115304,-1.41062220057771e-17,0.04611099408759644,-2.6846736355719684e-17,-0.04611099408759641,0.03610525536225867,0.9986955597530472,0.03610525536225856,500.0,57.8571428571429,[0.19506932]
-1.766370744468596e-17,0.039522260392802856,1.1537850192037714e-17,0.039522260392802856,-3.212372452461934e-19,0.02560161701098357,1.1537850192037714e-17,0.02560161701098357,-1.3960797036645378e-17,0.047089827565341504,-2.7504485524607838e-17,-0.04708982756534146,0.009766464243323163,0.9999046116267132,0.009766464243323107,500.0,57.8571428571429,[0.18635542]
-1.831920506674238e-17,0.04024332787458298,1.1394581967106253e-17,0.04024332787458298,-3.7332977150233287e-19,0.02529657856035998,1.1394581967106253e-17,0.02529657856035998,-1.3843588852569066e-17,0.04753359154620708,-2.6070977428718655e-17,-0.04753359154620715,0.0001262064163701388,0.9999999840719404,0.00012620641636971577,500.0,57.8571428571429,[0.1814088]
-1.8974702688798802e-17,0.039937140443465434,1.1268655131352568e-17,0.039937140443465434,-4.384454293225072e-19,0.025562470159685047,1.1268655131352568e-17,0.025562470159685047,-1.3754597453548161e-17,0.04741745530356799,-2.862986280209335e-17,-0.04741745530356802,0.005913088687803122,0.9999650347708867,0.005913088687802823,500.0,57.8571428571429,[0.17973342]
-1.964322344241926e-17,0.03843686572268001,1.1155196078779165e-17,0.03843686572268001,-5.491420476168036e-19,0.026494362441865066,1.1155196078779165e-17,0.026494362441865066,-1.3687311273800648e-17,0.046683443401105716,-2.8508728362411456e-17,-0.04668344340110574,0.03004788785834555,0.9990967164746888,0.03004788785834511,500.0,57.8571428571429,[0.19506932]
-2.035081359073182e-17,0.03527121402745573,1.105907841538354e-17,0.03527121402745573,-6.989080606032046e-19,0.028354270221534066,1.105907841538354e-17,0.028354270221534066,-1.3678629186091291e-17,0.045255090086821895,-2.52453627163015e-17,-0.04525509008682187,0.08191874749223957,0.9932666498068913,0.08191874749223975,500.0,57.8571428571429,[0.19465892]
-2.108445000217245e-17,0.029311618824193267,1.1012473663805018e-17,0.029311618824193267,-9.203012971917973e-19,0.03175300194357384,1.1012473663805018e-17,0.03175300194357384,-1.3752426931620822e-17,0.04321370304108877,-2.919964252047726e-17,-0.04321370304108876,0.18476001671463171,0.9652603133078757,0.18476001671463177,500.0,57.8571428571429,[0.20843226]
-2.1865837896014543e-17,0.01753134934094838,1.1030249051385747e-17,0.01753134934094838,-1.3196773318222e-18,0.03824183341035906,1.1030249051385747e-17,0.03824183341035906,-1.3993354865555465e-17,0.04206882494555827,-2.817478466601019e-17,-0.042068824945558275,0.38748324622559743,0.8364887732593581,0.3874832462255979,500.0,57.8571428571429,[0.18919792]
-2.2872960070299906e-17,-0.011113735160190269,1.126099842448535e-17,-0.011113735160190269,-2.2291260193773015e-18,0.05265691919558305,1.126099842448535e-17,0.05265691919558305,-1.4729161798923435e-17,0.05381696989222833,-2.0601986922202963e-17,-0.053816969892228346,0.6635083614297892,0.3457069693042248,0.6635083614297895,500.0,57.8571428571429,[0.16152442]
-2.500007155909227e-17,-0.1382892046590503,1.2219165154987681e-17,-0.1382892046590503,-6.9304765139938895e-18,0.08278194298169309,1.2219165154987681e-17,0.08278194298169309,-1.770928840516008e-17,0.16117305670941706,-1.3451028639092521e-17,-0.16117305670941723,0.6303066680355242,0.4532405635641095,0.6303066680355239,500.0,57.8571428571429,[0.36891687]
-2.4144885919720645e-17,-0.13281078697704946,1.1549474354390769e-17,-0.13281078697704946,-6.919623904357194e-18,0.07846534061748145,1.1549474354390769e-17,0.07846534061748145,-1.7138441138269886e-17,0.15425794895460182,-6.909667559614372e-18,-0.15425794895460204,0.5405673067526361,0.6446502724271532,0.540567306752636,500.0,70.71428571428567,[0.37293879]
-2.0750189625362223e-17,-0.004341902946974778,9.645400950835061e-18,-0.004341902946974778,-2.1965681904672144e-18,0.04742560696689592,9.645400950835061e-18,0.04742560696689592,-1.2523911520746866e-17,0.04762394688997788,-1.3144456190476633e-17,-0.04762394688997791,0.6859388780539522,0.24284915307278848,0.6859388780539524,500.0,70.71428571428567,[0.13793736]
-1.8484164733220156e-17,0.023412526450534748,8.446704780658183e-18,0.023412526450534748,-1.2589027178567039e-18,0.03383610113643456,8.446704780658183e-18,0.03383610113643456,-1.0188429926929945e-17,0.041146423112003526,-2.4021585340778563e-17,-0.04114642311200351,0.41596039572937105,0.8086741608146817,0.4159603957293712,500.0,70.71428571428567,[0.20657057]
-1.6383099507555864e-17,0.035216254135880094,7.435199169511748e-18,0.035216254135880094,-8.421625078075882e-19,0.027443475316728,7.435199169511748e-18,0.027443475316728,-8.363020986037724e-18,0.04464671200461185,-2.2331485406562278e-17,-0.04464671200461184,0.22604134848451832,0.9475286895659684,0.22604134848451823,500.0,70.71428571428567,[0.21876315]
-1.4342808895857068e-17,0.041623097359706165,6.48472253036917e-18,0.041623097359706165,-5.838703984542299e-19,0.02380276322259542,6.48472253036917e-18,0.02380276322259542,-6.7199358870419925e-18,0.047948449097405844,-1.4059744287838383e-17,-0.04794844909740588,0.12859280105417112,0.9833248613932655,0.1285928010541707,500.0,70.71428571428567,[0.21880358]
-1.2337246634995698e-17,0.04548030650269507,5.5777835087925536e-18,0.04548030650269507,-4.1239916619443753e-19,0.021505784803520746,5.5777835087925536e-18,0.021505784803520746,-5.165842187067164e-18,0.050308618144354104,-1.1747719322623823e-17,-0.050308618144354146,0.07418090941781902,0.9944819683412519,0.07418090941781846,500.0,70.71428571428567,[0.20793627]
-1.0340366461843685e-17,0.04785443749794807,4.678492185569297e-18,0.04785443749794807,-2.8433837248142795e-19,0.019991096071584502,4.678492185569297e-18,0.019991096071584502,-3.6681820572031544e-18,0.05186223202281541,-8.313422532913052e-18,-0.051862232022815445,0.04177481799066191,0.9982533391698192,0.04177481799066175,500.0,70.71428571428567,[0.20933063]
-8.356509420255707e-18,0.04920641620578064,3.807400690198892e-18,0.04920641620578064,-1.9751749538786218e-19,0.01900484302137683,3.807400690198892e-18,0.01900484302137683,-2.2009092343218926e-18,0.05274898533700613,-5.3891118342755144e-18,-0.05274898533700612,0.022607818779202753,0.9994887558447535,0.02260781877920265,500.0,70.71428571428567,[0.20429855]
-6.381334466377086e-18,0.04972610513213196,2.9288480257032583e-18,0.04972610513213196,-1.1937870600365295e-19,0.018433480014827978,2.9288480257032583e-18,0.018433480014827978,-7.748763280600747e-19,0.05303280793121273,-3.580239945077781e-18,-0.05303280793121276,0.013007557853827355,0.9998307891225188,0.013007557853827144,500.0,70.71428571428567,[0.20329237]
-4.410500556353142e-18,0.04943718263771398,2.0717970940503282e-18,0.04943718263771398,-7.379774552953092e-20,0.018247241043386764,2.0717970940503282e-18,0.018247241043386764,6.185987492916562e-19,0.052697218454584034,-1.331709814092844e-18,-0.052697218454583986,0.012012061506438366,0.9998556999671157,0.012012061506438233,500.0,70.71428571428567,[0.20329237]
-2.444007690183877e-18,0.04820470249434652,1.2153227072843476e-18,0.04820470249434652,-5.2092526256139477e-20,0.018490663005976668,1.2153227072843476e-18,0.018490663005976668,1.981686519660639e-18,0.051629429214054376,5.490797165779689e-19,-0.051629429214054404,0.020982316475602215,0.999559645439248,0.020982316475602246,500.0,70.71428571428567,[0.20429855]
-5.10072652924699e-19,0.04565121534705206,3.7175275166450053e-19,0.04565121534705206,-8.682087709356578e-20,0.019312787676987384,3.7175275166450053e-19,0.019312787676987384,3.279658632209448e-18,0.049568308731681804,2.4342271617301547e-18,-0.04956830873168177,0.044955348426464155,0.9979769703233188,0.044955348426464446,500.0,70.71428571428567,[0.20933063]
1.410839252770444e-18,0.04086996863418233,-4.415655545930572e-19,0.04086996863418233,-1.9100592960584473e-19,0.02107456177982388,-4.415655545930572e-19,0.02107456177982388,4.486468823810012e-18,0.04598360023280757,2.126154588300842e-18,-0.04598360023280758,0.09831417206237199,0.9902871538818325,0.09831417206237204,500.0,70.71428571428567,[0.21145651]
3.2991933295555002e-18,0.03139934429309553,-1.2101168460992451e-18,0.03139934429309553,-4.666622143779161e-19,0.02470056211108843,-1.2101168460992451e-18,0.02470056211108843,5.4870794323133576e-18,0.03995042666405566,6.146347741236912e-18,-0.03995042666405567,0.2291019706732485,0.9460573841301951,0.22910197067324864,500.0,70.71428571428567,[0.21876315]
5.061657134554885e-18,0.00795134171863119,-1.858882458740404e-18,0.00795134171863119,-1.2523911520746864e-18,0.0330487178418214,-1.858882458740404e-18,0.0330487178418214,5.9363774712725605e-18,0.033991787039147695,3.452000905138317e-18,-0.033991787039147674,0.5942790482394221,0.541908503021768,0.5942790482394221,500.0,70.71428571428567,[0.21046796]
5.960253212473291e-18,-0.10862798726096887,-2.0920439939037887e-18,-0.10862798726096887,-5.83653346261496e-18,0.049339372332848956,-2.0920439939037887e-18,0.049339372332848956,3.867870074518356e-18,0.11930806040904653,4.548281481272849e-18,-0.11930806040904657,0.4886480712489294,0.7228043476137942,0.4886480712489292,500.0,70.71428571428567,[0.35025938]
6.90443025086582e-18,-0.10556334031549447,-2.4218446264414373e-18,-0.10556334031549447,-5.775758848649464e-18,0.04308482948671468,-2.4218446264414373e-18,0.04308482948671468,4.169572622418497e-18,0.11401719760836157,2.483011974952732e-18,-0.11401719760836156,0.33882215247452185,0.8777238164622536,0.3388221524745219,500.0,83.57142857142856,[0.34615648]
7.655430837725163e-18,0.011788269436686661,-2.281422032064129e-18,0.011788269436686661,-1.0548736566868243e-18,0.02543445620159646,-2.281422032064129e-18,0.02543445620159646,7.095436180471664e-18,0.028033459625648235,4.353189384454893e-18,-0.028033459625648238,0.6042245358526065,0.5194472259502446,0.6042245358526065,500.0,83.57142857142856,[0.21696165]
7.56209839484958e-18,0.034795697614540204,-1.7590384500828033e-18,0.034795697614540204,-1.4325444720438354e-19,0.0182417246728129,-1.7590384500828033e-18,0.0182417246728129,7.499153258956745e-18,0.0392874164526153,9.072222330006449e-18,-0.0392874164526153,0.2561363984260373,0.9320881346754055,0.2561363984260372,500.0,83.57142857142856,[0.2131907]
7.336364114406309e-18,0.04433278436122546,-1.13832005047148e-18,0.04433278436122546,2.626331532080365e-19,0.014717171951010315,-1.13832005047148e-18,0.014717171951010315,7.336364114406309e-18,0.046711785659023175,8.108665079773905e-18,-0.04671178565902314,0.14624389983437178,0.9783789876742389,0.14624389983437192,500.0,83.57142857142856,[0.22690449]
7.086754092762307e-18,0.04941552536972293,-4.924710766701831e-19,0.04941552536972293,4.927084775059858e-19,0.012568096808486333,-4.924710766701831e-19,0.012568096808486333,6.963034342903976e-18,0.05098873605957707,7.132793819895202e-18,-0.05098873605957709,0.0964691162545896,0.9906499983435708,0.09646911625458955,500.0,83.57142857142856,[0.2160705]
6.821950417626932e-18,0.05240594123966417,1.7728755273695904e-19,0.05240594123966417,6.598386659111e-19,0.011076712644952427,1.7728755273695904e-19,0.011076712644952427,6.4963721285260606e-18,0.053563758645505645,6.397027423206328e-18,-0.05356375864550566,0.06784713595833929,0.9953861222081114,0.06784713595833934,500.0,83.57142857142856,[0.21356176]
6.531100479363487e-18,0.054176353114991,8.540495068002815e-19,0.054176353114991,7.683647622780572e-19,0.009953431835149018,8.540495068002815e-19,0.009953431835149018,5.958082690545952e-18,0.05508310123928348,5.702767143214386e-18,-0.05508310123928344,0.04910212648541242,0.997586067639891,0.04910212648541235,500.0,83.57142857142856,[0.21356176]
6.2532736726640764e-18,0.055098432915758444,1.5287935537592806e-18,0.055098432915758444,8.573561612989622e-19,0.00906103178303731,1.5287935537592806e-18,0.00906103178303731,5.385064901728418e-18,0.05583851365093405,4.8952602015506286e-18,-0.05583851365093402,0.03590069016617511,0.9987103087938888,0.03590069016617508,500.0,83.57142857142856,[0.21356176]
5.9667647782553086e-18,0.05531987923150733,2.2147971832163517e-18,0.05531987923150733,9.072781656277625e-19,0.008328299682690004,2.2147971832163517e-18,0.008328299682690004,4.772977718218779e-18,0.05594327138980387,4.1289458426413095e-18,-0.05594327138980387,0.02631678559874644,0.9993071868006851,0.026316785598746385,500.0,83.57142857142856,[0.21758698]
5.675914839991863e-18,0.05484911460756903,2.9050061989076424e-18,0.05484911460756903,9.44177038392528e-19,0.007718136617982692,2.9050061989076424e-18,0.007718136617982692,4.128332705799053e-18,0.05538948461655955,3.3777798426173656e-18,-0.05538948461655957,0.01951237398815081,0.9996191947550291,0.01951237398815074,500.0,83.57142857142856,[0.20852968]
5.352507072818331e-18,0.05355798389060718,3.597233121703256e-18,0.05355798389060718,9.485180822472062e-19,0.007215731882361899,3.597233121703256e-18,0.007215731882361899,3.4402772548325446e-18,0.05404187658681619,2.506648390992497e-18,-0.05404187658681618,0.015358093776845166,0.9997641011314033,0.01535809377684507,500.0,83.57142857142856,[0.2075235]
5.057316090700207e-18,0.05110455295919478,4.28895132842215e-18,0.05110455295919478,9.029371217730842e-19,0.006827606811487486,4.28895132842215e-18,0.006827606811487486,2.6957882337552176e-18,0.05155862244020308,1.6082405373190166e-18,-0.05155862244020311,0.014575645156105729,0.9997875279961072,0.014575645156105646,500.0,83.57142857142856,[0.2075235]
4.7187146700353004e-18,0.04667348254982935,4.9870624005051595e-18,0.04667348254982935,7.748763280600747e-19,0.0065932471502471385,4.9870624005051595e-18,0.0065932471502471385,1.8406025943835946e-18,0.04713687390264089,5.085218221008864e-19,-0.047136873902640895,0.019891782494037818,0.9996042386756971,0.019891782494037665,500.0,83.57142857142856,[0.20852968]
4.369260639733698e-18,0.038040340581191545,5.690243676152813e-18,0.038040340581191545,4.927084775059858e-19,0.006627066879304094,5.690243676152813e-18,0.006627066879304094,7.835584157694313e-19,0.03861328174289018,-1.1044254269876955e-18,-0.03861328174289017,0.04259915929281046,0.9981836620858365,0.04259915929281034,500.0,83.57142857142856,[0.21356176]
3.922133122701834e-18,0.016640888011812002,6.410755212814066e-18,0.016640888011812002,-3.1472567946417597e-19,0.00724150671020993,6.410755212814066e-18,0.00724150671020993,-8.70379292862997e-19,0.018148238847218313,-4.927057826930517e-18,-0.018148238847218313,0.20778041878668702,0.9558528103937645,0.20778041878668696,500.0,83.57142857142856,[0.21858791]
2.6979587556825568e-18,-0.09639646176258486,7.147630449943147e-18,-0.09639646176258486,-4.905379555786467e-18,0.006450732519642698,7.147630449943147e-18,0.006450732519642698,-5.1419664458664336e-18,0.09661205820385707,-4.153912933602688e-18,-0.09661205820385704,0.12591041906122477,0.9840188680831552,0.12591041906122485,500.0,83.57142857142856,[0.34110974]
