stress_11,stress_12,stress_13,stress_21,stress_22,stress_23,stress_31,stress_32,stress_33,e1,e2,e3,anev1,anev2,anev3,temp,miss,velo
1.6046668608818296e-17,0.04310313542640631,-5.854982898997343e-19,0.04310313542640631,-5.671573796137185e-18,-0.043769850213241084,-5.854982898997343e-19,-0.043769850213241084,-5.5022730858047316e-18,0.06143028627050895,9.07851001420877e-19,-0.061430286270509005,0.31168229410261045,0.8976125528789513,0.3116822941026104,500.0,109.28571428571416,[0.21095377]
1.6578446481016387e-17,0.15977777185591635,2.545276103856294e-19,0.15977777185591635,-1.1959575819638687e-18,-0.0275052840477325,2.545276103856294e-19,-0.0275052840477325,-1.7364175418713157e-18,0.16212796498379828,-1.2108421469321622e-18,-0.16212796498379822,0.11692714773212166,0.9862332808450855,0.11692714773212164,500.0,109.28571428571416,[0.39150876]
1.6235504016496802e-17,0.1833180054548957,6.797718575172497e-19,0.1833180054548957,-5.079021309973598e-19,-0.019193104714060664,6.797718575172497e-19,-0.019193104714060664,-4.818558678692901e-19,0.18432001083041977,-1.6595529460627327e-19,-0.18432001083041977,0.16277437281977658,0.9731438779061691,0.16277437281977655,500.0,109.28571428571416,[0.85058262]
1.5777523889828242e-17,0.19287933169640023,9.83975592794598e-19,0.19287933169640023,-3.3208985488288913e-19,-0.015608339216046298,9.83975592794598e-19,-0.015608339216046298,2.1705219273391446e-19,0.19350983656841103,4.83321103873246e-19,-0.19350983656841106,0.17894758328493285,0.9674479442703696,0.1789475832849328,500.0,109.28571428571416,[0.86318234]
1.527830384654024e-17,0.19775010566321244,1.2437429787704445e-18,0.19775010566321244,-3.2774881102821084e-19,-0.013891837888508096,1.2437429787704445e-18,-0.013891837888508096,7.075901483125611e-19,0.19823745218735098,9.621815147873748e-19,-0.19823745218735106,0.18619735255520348,0.9647077753407333,0.18619735255520353,500.0,109.28571428571416,[0.84702594]
1.4757378583978844e-17,0.2003920273892541,1.483127807272372e-18,0.2003920273892541,-3.972055127030635e-19,-0.013118582995255541,1.483127807272372e-18,-0.013118582995255541,1.1123924877613116e-18,0.20082096967443158,1.358152507406335e-18,-0.20082096967443155,0.189444263047574,0.9634426513273757,0.18944426304757395,500.0,109.28571428571416,[0.84450347]
1.4225600711780754e-17,0.20171186222609153,1.6958559133541656e-18,0.20171186222609153,-5.10072652924699e-19,-0.012927386055864519,1.6958559133541656e-18,-0.012927386055864519,1.4542496913172269e-18,0.20212568533700778,1.732776569054578e-18,-0.20212568533700778,0.1903777247269824,0.963074578553268,0.19037772472698247,500.0,109.28571428571416,[0.83954037]
1.3676458664163952e-17,0.2020870503894119,1.9105934479390034e-18,0.2020870503894119,-6.641797097657783e-19,-0.013169028657859258,1.9105934479390034e-18,-0.013169028657859258,1.755952239217368e-18,0.20251567655587616,2.049228613556566e-18,-0.20251567655587616,0.1896474016909819,0.9633627178086761,0.18964740169098188,500.0,109.28571428571416,[0.84450347]
1.3118634528837792e-17,0.20165252202015774,2.1089333676508964e-18,0.20165252202015774,-8.356509420255708e-19,-0.013798821094675003,2.1089333676508964e-18,-0.013798821094675003,2.0207559143527436e-18,0.20212408837318982,2.3467575237603896e-18,-0.20212408837318976,0.18743313208085163,0.9642290402164436,0.18743313208085163,500.0,109.28571428571416,[0.84702594]
1.2567321959293649e-17,0.20038458194525455,2.300609106757756e-18,0.20038458194525455,-1.0375094812681111e-18,-0.014846385264374071,2.300609106757756e-18,-0.014846385264374071,2.263854370214728e-18,0.2009338095911007,2.65924511321433e-18,-0.2009338095911007,0.18359011442515896,0.9657066530632964,0.18359011442515896,500.0,109.28571428571416,[0.85030095]
1.1989963126621435e-17,0.19809335396695216,2.4807073158185936e-18,0.19809335396695216,-1.2719258494207387e-18,-0.016425125597422707,2.4807073158185936e-18,-0.016425125597422707,2.463542387529929e-18,0.1987731411352331,2.9185503679007686e-18,-0.1987731411352332,0.17759275126787696,0.9679471211766746,0.17759275126787696,500.0,109.28571428571416,[0.86318234]
1.1410433772021883e-17,0.19431790613992722,2.6419915086420658e-18,0.19431790613992722,-1.5475821341928103e-18,-0.018788756524096936,2.6419915086420658e-18,-0.018788756524096936,2.605711573770643e-18,0.19522414302111146,3.1875666750269854e-18,-0.19522414302111146,0.1682240284661273,0.9712885011639205,0.16822402846612725,500.0,109.28571428571416,[0.85400092]
1.0787493978875549e-17,0.1879916935201152,2.762438518406831e-18,0.1879916935201152,-1.890524598712395e-18,-0.022498587117879543,2.762438518406831e-18,-0.022498587117879543,2.6654009267724696e-18,0.1893332069523509,3.433778236775824e-18,-0.18933320695235098,0.1525771090020657,0.976442753886342,0.1525771090020657,500.0,109.28571428571416,[0.85424067]
1.012548479103711e-17,0.1762675227704168,2.823672036666535e-18,0.1762675227704168,-2.4071088174191114e-18,-0.028962680554361114,2.823672036666535e-18,-0.028962680554361114,2.5416811769141383e-18,0.17863111836551143,3.72120304173934e-18,-0.17863111836551138,0.12223802137367105,0.9849445325810484,0.12223802137367097,500.0,109.28571428571416,[0.40084831]
9.276810717447504e-18,0.14859180394212965,2.702753404705644e-18,0.14859180394212965,-3.446788820614562e-18,-0.042625964036585966,2.702753404705644e-18,-0.042625964036585966,1.911144557022117e-18,0.1545849184391046,4.5516525337690795e-18,-0.15458491843910457,0.040449103269520316,0.9983625293896918,0.04044910326952024,500.0,109.28571428571416,[0.39480962]
7.323340982842274e-18,0.02020174378737194,1.8705786892043272e-18,0.02020174378737194,-8.27185906508948e-18,-0.07374209502988241,1.8705786892043272e-18,-0.07374209502988241,-1.0103779571763718e-18,0.07645918539617609,9.624016985786412e-18,-0.0764591853961761,0.5820026281865229,0.5679312296114386,0.5820026281865227,500.0,109.28571428571416,[0.28675452]
1.520233557908337e-17,0.04608622770965388,-1.963813628165206e-19,0.04608622770965388,-5.6650622303551675e-18,-0.037434238578806345,-1.963813628165206e-19,-0.037434238578806345,-6.174049622316197e-18,0.059373921905842335,-1.0354872873875893e-18,-0.059373921905842335,0.38156281440130696,0.8419142695858688,0.3815628144013075,500.0,96.42857142857144,[0.21392389]
1.3843588852569066e-17,0.16333680844469778,8.716680402573546e-19,0.16333680844469778,-1.1829344503998338e-18,-0.019742414550620858,8.716680402573546e-19,-0.019742414550620858,-3.47609086663364e-18,0.16452560872152538,-2.9784613847805846e-18,-0.16452560872152538,0.005717683198735746,0.9999673075644413,0.005717683198735774,500.0,96.42857142857144,[0.38922111]
1.1601439701627728e-17,0.18624459895040532,1.5444789661248174e-18,0.18624459895040532,-4.927084775059858e-19,-0.012505284834248875,1.5444789661248174e-18,-0.012505284834248875,-3.3089606782285264e-18,0.18666395685022596,-3.034806028401575e-18,-0.1866639568502259,0.031919230844426896,0.9989806431581149,0.031919230844426875,500.0,96.42857142857144,[0.86524892]
9.268128629738148e-18,0.19568182480721213,2.1341995994613286e-18,0.19568182480721213,-3.1472567946417597e-19,-0.008938284176975349,2.1341995994613286e-18,-0.008938284176975349,-3.707251451895259e-18,0.19588585830505692,-3.486734617322049e-18,-0.195885858305057,0.04702592664119782,0.997786111572552,0.04702592664119779,500.0,96.42857142857144,[0.86524892]
6.889236597374446e-18,0.20066412788444069,2.6833077326730175e-18,0.20066412788444069,-2.9519098211812367e-19,-0.006750002394049293,2.6833077326730175e-18,-0.006750002394049293,-4.317168113477559e-18,0.20077762512775885,-4.124117033546162e-18,-0.20077762512775885,0.0555031298916527,0.996914642857883,0.05550312989165266,500.0,96.42857142857144,[0.86524892]
4.492980389592029e-18,0.2035534668093203,3.2225298167937793e-18,0.2035534668093203,-3.6681820572031544e-19,-0.0052231056935497676,3.2225298167937793e-18,-0.0052231056935497676,-5.022587739862781e-18,0.20362046725017374,-4.8515189626523025e-18,-0.20362046725017374,0.06112071336232886,0.9962572543254881,0.06112071336232883,500.0,96.42857142857144,[0.85713838]
2.0923831379549354e-18,0.20522217859736694,3.74723653552546e-18,0.20522217859736694,-4.688327363052552e-19,-0.004068232139626921,3.74723653552546e-18,-0.004068232139626921,-5.790952502140838e-18,0.20526249803846652,-5.639089584694775e-18,-0.2052624980384665,0.06522879653591215,0.995736113739455,0.06522879653591211,500.0,96.42857142857144,[0.91299607]
-3.212372452461934e-19,0.2060419792555672,4.270264491203964e-18,0.2060419792555672,-6.099166615822996e-19,-0.0031482990660995857,4.270264491203964e-18,-0.0031482990660995857,-6.602727702965679e-18,0.2060660306857032,-6.470891682143528e-18,-0.20606603068570326,0.06842627455514207,0.9953068320377434,0.06842627455514207,500.0,96.42857142857144,[0.91486903]
-2.7435397161566788e-18,0.20616062417847075,4.788832702609889e-18,0.20616062417847075,-7.878994596241096e-19,-0.002392191676554186,4.788832702609889e-18,-0.002392191676554186,-7.444890210773266e-18,0.20617450264927048,-7.33310532246877e-18,-0.20617450264927048,0.07101271362939153,0.9949444150333123,0.07101271362939149,500.0,96.42857142857144,[0.91486903]
-5.1549895774304685e-18,0.20558659949170105,5.30004148810593e-18,0.20558659949170105,-9.810759111572934e-19,-0.0017628836886736563,5.30004148810593e-18,-0.0017628836886736563,-8.326122113272959e-18,0.20559415762482375,-8.235004321690426e-18,-0.20559415762482375,0.07314290943924512,0.994635727086819,0.07314290943924512,500.0,96.42857142857144,[0.90951806]
-7.590315179904989e-18,0.2041918177434626,5.8086897360158124e-18,0.2041918177434626,-1.2089807135279036e-18,-0.0012456188210382393,5.8086897360158124e-18,-0.0012456188210382393,-9.250764454319434e-18,0.20419561699416275,-9.17984137803632e-18,-0.20419561699416275,0.07488304939395017,0.9943767182647263,0.07488304939395012,500.0,96.42857142857144,[0.84933913]
-1.002347026045217e-17,0.2016344152882593,6.32157728456503e-18,0.2016344152882593,-1.4759549105906183e-18,-0.0008469580671329873,6.32157728456503e-18,-0.0008469580671329873,-1.0234010887404067e-17,0.20163619408877395,-1.0180897666253725e-17,-0.20163619408877395,0.07621866730238211,0.9941737421141729,0.07621866730238205,500.0,96.42857142857144,[0.85744967]
-1.246313690678137e-17,0.19709912534935894,6.829920302828881e-18,0.19709912534935894,-1.8275794628195598e-18,-0.0006064138564981518,6.829920302828881e-18,-0.0006064138564981518,-1.1319271851073639e-17,0.1971000582223345,-1.1277255365744436e-17,-0.1971000582223345,0.07700860346918074,0.9940519855538006,0.0770086034691807,500.0,96.42857142857144,[0.85744967]
-1.494838451358469e-17,0.18836158985868265,7.326206750074464e-18,0.18836158985868265,-2.3376521157442588e-18,-0.0006384148862481813,7.326206750074464e-18,-0.0006384148862481813,-1.2617243963622449e-17,0.1883626717469721,-1.2567611416777631e-17,-0.18836267174697213,0.07678886799675123,0.994085981947012,0.07678886799675118,500.0,96.42857142857144,[0.85744967]
-1.7518282475554236e-17,0.16685764497687205,7.809113964502309e-18,0.16685764497687205,-3.3599679435209963e-18,-0.0012554052197337254,7.809113964502309e-18,-0.0012554052197337254,-1.4507768562334843e-17,0.16686236762521864,-1.4390431899957923e-17,-0.1668623676252186,0.0738820640127192,0.9945264608015421,0.07388206401271914,500.0,96.42857142857144,[0.38516711]
-2.0871738853293215e-17,0.053715780229935076,8.276590124602977e-18,0.053715780229935076,-8.182867666068575e-18,-0.00047154311094650453,8.276590124602977e-18,-0.00047154311094650453,-1.900943103963623e-17,0.05371784990686207,-1.8864256546761196e-17,-0.053717849906862104,0.07299973249259664,0.9946567639703753,0.07299973249259643,500.0,96.42857142857144,[0.2163864]
6.0709498307675875e-18,0.014788545160433982,1.990519102542692e-18,0.014788545160433982,-8.352168376401028e-18,-0.07812051045406793,1.990519102542692e-18,-0.07812051045406793,-1.3305299414588957e-18,0.07950795697014439,4.7368334024567766e-18,-0.07950795697014439,0.5183022785843974,0.6802392932111783,0.5183022785843976,500.0,122.14285714285735,[0.27164287]
6.0253688702934655e-18,0.1420345237980778,3.4610689048181595e-18,0.1420345237980778,-3.695313581294894e-18,-0.04805186029045721,3.4610689048181595e-18,-0.04805186029045721,4.601506485958987e-19,0.14994261311555276,3.5844887926938935e-18,-0.14994261311555288,0.1644900044425599,0.9725667467464499,0.1644900044425599,500.0,122.14285714285735,[0.37549158]
4.827240766402258e-18,0.17074793039816963,4.19438524906052e-18,0.17074793039816963,-2.8129964178315314e-18,-0.03369450567567289,4.19438524906052e-18,-0.03369450567567289,-1.0852609636695723e-20,0.17404072927905734,1.780413184485753e-18,-0.17404072927905723,0.25317202407638356,0.9337065130168761,0.2531720240763836,500.0,122.14285714285735,[0.39323107]
3.429424645195849e-18,0.18259520537872972,4.724755673446352e-18,0.18259520537872972,-2.451604516929564e-18,-0.027265076944700838,4.724755673446352e-18,-0.027265076944700838,-9.582854309202323e-19,0.18461959118170782,4.249091097820923e-19,-0.18461959118170782,0.28365725197357855,0.9160115320265326,0.28365725197357855,500.0,122.14285714285735,[0.83672187]
1.9795159977333e-18,0.1886207060768697,5.184321298554022e-18,0.1886207060768697,-2.266024892142067e-18,-0.023927416079913787,5.184321298554022e-18,-0.023927416079913787,-2.08044526735457e-18,0.19013230130937306,-6.551766438530561e-19,-0.19013230130937292,0.297865428267755,0.9069467312283196,0.2978654282677549,500.0,122.14285714285735,[0.83685073]
4.861969117239684e-19,0.19185123009464558,5.601760993208628e-18,0.19185123009464558,-2.1455609251747445e-18,-0.022130169714048964,5.601760993208628e-18,-0.022130169714048964,-3.2861701979914653e-18,0.19312337740522573,-1.953889912284727e-18,-0.19312337740522575,0.30511701819544196,0.9021126373214404,0.305117018195442,500.0,122.14285714285735,[0.83926154]
-1.0418505251227894e-18,0.1934153722033565,6.000611354559753e-18,0.1934153722033565,-2.0771894844635614e-18,-0.021262431901345438,6.000611354559753e-18,-0.021262431901345438,-4.54290239392083e-18,0.194580567413404,-3.1894841665352096e-18,-0.19458056741340407,0.3085261873567306,0.8997906331087466,0.3085261873567305,500.0,122.14285714285735,[0.83798531]
-2.552533786550834e-18,0.19378443738357315,6.381554910010331e-18,0.19378443738357315,-2.040290611698796e-18,-0.0210620834569366,6.381554910010331e-18,-0.0210620834569366,-5.8300218968329424e-18,0.19492567694281568,-4.4116935167213824e-18,-0.19492567694281582,0.3093076225701829,0.8992539069917699,0.3093076225701829,500.0,122.14285714285735,[0.83798531]
-4.108798008453001e-18,0.1931252683658405,6.7469741465196665e-18,0.1931252683658405,-2.034864306880448e-18,-0.02143394714804208,6.7469741465196665e-18,-0.02143394714804208,-7.145358184800464e-18,0.19431104799193205,-5.625177629237079e-18,-0.19431104799193216,0.3078639777458567,0.900244157111279,0.30786397774585667,500.0,122.14285714285735,[0.83798531]
-5.6520390987911326e-18,0.19140365656465513,7.10240559072273e-18,0.19140365656465513,-2.040290611698796e-18,-0.022394429602880874,7.10240559072273e-18,-0.022394429602880874,-8.487825996859725e-18,0.19270928940650173,-6.795371906286508e-18,-0.19270928940650175,0.30407787639655076,0.9028140950230715,0.30407787639655076,500.0,122.14285714285735,[0.83926154]
-7.223496974184673e-18,0.18837342141554464,7.440964618381243e-18,0.18837342141554464,-2.070677918681544e-18,-0.024076782021601153,7.440964618381243e-18,-0.024076782021601153,-9.860681115901734e-18,0.18990586438631663,-7.980813374366023e-18,-0.1899058643863166,0.2972598089575389,0.9073440427737733,0.29725980895753873,500.0,122.14285714285735,[0.83685073]
-8.818830590778945e-18,0.18344266168036738,7.748983724233992e-18,0.18344266168036738,-2.164010361557127e-18,-0.026801072414916628,7.748983724233992e-18,-0.026801072414916628,-1.1275861412526856e-17,0.18539014970317952,-9.21525237187744e-18,-0.18539014970317963,0.2856964776274926,0.9147431581282733,0.2856964776274925,500.0,122.14285714285735,[0.83672187]
-1.0461915689774677e-17,0.17525192441025259,8.013685656154023e-18,0.17525192441025259,-2.3333110718895805e-18,-0.03128926984189886,8.013685656154023e-18,-0.03128926984189886,-1.2757242627935824e-17,0.17802318786252544,-9.944707963714486e-18,-0.17802318786252544,0.26511566256731417,0.927053057231887,0.2651156625673139,500.0,122.14285714285735,[0.38988368]
-1.2215697407064706e-17,0.160217322437377,8.19277067236206e-18,0.160217322437377,-2.666486187736139e-18,-0.03936093783665574,8.19277067236206e-18,-0.03936093783665574,-1.4400327726931555e-17,0.16498143482338692,-1.0576731238919744e-17,-0.16498143482338695,0.22249752500232275,0.9492047738689906,0.22249752500232264,500.0,122.14285714285735,[0.37588449]
-1.42060660144347e-17,0.1254658970342175,8.139338527103891e-18,0.1254658970342175,-3.509733956507397e-18,-0.0567329306574641,8.139338527103891e-18,-0.0567329306574641,-1.6451470948267047e-17,0.13769646596621662,-1.2168384711292993e-17,-0.13769646596621699,0.09610498685764113,0.9907207795348724,0.09610498685764134,500.0,122.14285714285735,[0.37311846]
-1.768758318588669e-17,-0.01877293068369895,7.192278764276616e-18,-0.01877293068369895,-8.142713010412801e-18,-0.09509213500567609,7.192278764276616e-18,-0.09509213500567609,-2.0409417682769977e-17,0.09692748354513644,-2.5871340964227973e-17,-0.09692748354513646,0.6602505641648833,0.3579642231283824,0.6602505641648833,500.0,122.14285714285735,[0.27121751]
-1.8123858093281858e-17,-0.02554076232842962,7.10705186422344e-18,-0.02554076232842962,-8.012481694772452e-18,-0.09667701824104753,7.10705186422344e-18,-0.09667701824104753,-2.0521199562027943e-17,0.09999388179432359,-3.2604872841620474e-17,-0.09999388179432361,0.6111262928109211,0.5030400664662417,0.611126292810921,500.0,135.00000000000023,[0.3285194]
-1.4900633031183228e-17,0.11723141563018452,8.036679622821772e-18,0.11723141563018452,-3.1157842266953425e-18,-0.05874028019646497,8.036679622821772e-18,-0.05874028019646497,-1.738153959413187e-17,0.13112446502547215,-1.1334560990374135e-17,-0.13112446502547223,0.22303669808055154,0.9489516650592114,0.22303669808055138,500.0,135.00000000000023,[0.34730545]
-1.3177238620875949e-17,0.15323744806990142,8.060945379681322e-18,0.15323744806990142,-1.9903686073699956e-18,-0.04116876164897455,8.060945379681322e-18,-0.04116876164897455,-1.6124807398202505e-17,0.15867130309758543,-1.1449955913847907e-17,-0.15867130309758543,0.35314730588682297,0.8663567167684205,0.35314730588682297,500.0,135.00000000000023,[0.36946291]
-1.1751205714614129e-17,0.16838640460077972,7.83782250843188e-18,0.16838640460077972,-1.3978161212064091e-18,-0.03315753145996379,7.83782250843188e-18,-0.03315753145996379,-1.5242490234739143e-17,0.1716199380809117,-1.225809354250269e-17,-0.17161993808091172,0.3939777471457361,0.83039934339325,0.39397774714573586,500.0,135.00000000000023,[0.38594104]
-1.042718733893725e-17,0.17616314144231154,7.529455779926706e-18,0.17616314144231154,-9.604559528475715e-19,-0.028850130442675693,7.529455779926706e-18,-0.028850130442675693,-1.4501256996552825e-17,0.17850989448594523,-1.210226940974155e-17,-0.17850989448594506,0.41261861541023764,0.8120909779291215,0.4126186154102375,500.0,135.00000000000023,[0.3807696]
-9.150920445661834e-18,0.1803755063707564,7.175643748567868e-18,0.1803755063707564,-5.979787909819343e-19,-0.026375812073461673,7.175643748567868e-18,-0.026375812073461673,-1.3829480460041361e-17,0.18229373758042644,-1.1713202728642882e-17,-0.1822937375804263,0.4223943629148319,0.8019763115925224,0.4223943629148318,500.0,135.00000000000023,[0.56018917]
-7.920234512860539e-18,0.18246034346190543,6.795225866396569e-18,0.18246034346190543,-2.778268066994105e-19,-0.02499484729767687,6.795225866396569e-18,-0.02499484729767687,-1.3191347013403653e-17,0.18416438126758028,-1.1342897980577037e-17,-0.18416438126758025,0.4275134395707088,0.7965328103555083,0.42751343957070886,500.0,135.00000000000023,[0.84209681]
-6.724276930896671e-18,0.18302250964702765,6.395425901702233e-18,0.18302250964702765,-1.0852609636695723e-21,-0.024384106299006735,6.395425901702233e-18,-0.024384106299006735,-1.2578174568930345e-17,0.184639713164578,-1.0812696786799052e-17,-0.184639713164578,0.42958906464131036,0.7942962111713792,0.4295890646413104,500.0,135.00000000000023,[0.84209681]
-5.5304898708601405e-18,0.1822794834739577,5.981788859721109e-18,0.1822794834739577,2.539510654986799e-19,-0.024416782736823805,5.981788859721109e-18,-0.024416782736823805,-1.1985622082766757e-17,0.18390755660045627,-1.0243192384336024e-17,-0.18390755660045638,0.42919035969820185,0.7947271671990683,0.4291903596982018,500.0,135.00000000000023,[0.84209681]
-4.362749073951681e-18,0.1801932858033009,5.547786217468624e-18,0.1801932858033009,4.79685345941951e-19,-0.02509284223086119,5.547786217468624e-18,-0.02509284223086119,-1.1414774815876562e-17,0.18193205044689886,-9.744413372274438e-18,-0.18193205044689897,0.4262592632563938,0.7978759809495661,0.4262592632563938,500.0,135.00000000000023,[0.57935166]
-3.230821888844317e-18,0.17645835816347513,5.1024222495027236e-18,0.17645835816347513,6.847996680755001e-19,-0.026539023512457422,5.1024222495027236e-18,-0.026539023512457422,-1.0865632768259758e-17,0.17844290945494032,-9.187219233305895e-18,-0.17844290945494026,0.42007646902012497,0.8044075586114092,0.4200764690201251,500.0,135.00000000000023,[0.37838378]
-2.1097473133736486e-18,0.17033596807456655,4.626230087287584e-18,0.17033596807456655,8.367362029892403e-19,-0.02907839290865615,4.626230087287584e-18,-0.02907839290865615,-1.0341451722807355e-17,0.172800159010488,-8.423638159499793e-18,-0.17280015901048815,0.4087310335094587,0.8160134095053705,0.40873103350945855,500.0,135.00000000000023,[0.38817877]
-1.0852609636695723e-18,0.16013300875630515,4.106898801766579e-18,0.16013300875630515,9.203012971917973e-19,-0.03345062610985278,4.106898801766579e-18,-0.03345062610985278,-9.879130552284117e-18,0.16358950113160703,-7.75404937308575e-18,-0.16358950113160708,0.3871959440249703,0.8367548039068697,0.38719594402497015,500.0,135.00000000000023,[0.37220278]
-1.7581227611447071e-19,0.14142326437602867,3.496168194461527e-18,0.14142326437602867,8.269688543162142e-19,-0.04152644386131524,3.496168194461527e-18,-0.04152644386131524,-9.520994434273158e-18,0.14739397968213994,-6.412459443441451e-18,-0.14739397968213996,0.3388768684112641,0.8776815687432141,0.338876868411264,500.0,135.00000000000023,[0.37725223]
3.5488033511995015e-19,0.09869218006315028,2.6399990373415787e-18,0.09869218006315028,2.311605852616189e-19,-0.059162380277518946,2.6399990373415787e-18,-0.059162380277518946,-9.46456086416234e-18,0.11506664871160129,-9.092224831210602e-18,-0.11506664871160131,0.17176914522255687,0.9700467625321081,0.1717691452225569,500.0,135.00000000000023,[0.35237988]
-9.97354825612337e-19,-0.0629645864601404,8.855051175441417e-19,-0.0629645864601404,-4.170657883382166e-18,-0.09716387109856091,8.855051175441417e-19,-0.09716387109856091,-1.0906872684879202e-17,0.1157815054097772,-7.475400965348258e-18,-0.11578150540977715,0.6915113816838452,0.20886363494729931,0.691511381683845,500.0,135.00000000000023,[0.23115512]
-9.072781656277625e-19,-0.06973796945429615,3.862850742561384e-19,-0.06973796945429615,-4.062674417497044e-18,-0.09563808362856785,3.862850742561384e-19,-0.09563808362856785,-1.0130368465373623e-17,0.11836396167648852,4.5708518839613e-18,-0.11836396167648869,0.656730352546971,0.3706892068661596,0.6567303525469708,500.0,147.8571428571427,[0.33941906]
1.245879586292669e-18,0.09043838548148757,1.0113275605195827e-18,0.09043838548148757,5.317778721980904e-19,-0.05734388174584817,1.0113275605195827e-18,-0.05734388174584817,-7.728685952772859e-18,0.10708605110928297,-3.0111950405936146e-18,-0.10708605110928282,0.30419182929251176,0.9027373161575579,0.3041918292925115,500.0,147.8571428571427,[0.34693129]
1.4933190860093315e-18,0.13441047789490498,7.359765053935434e-19,0.13441047789490498,1.3489793778412784e-18,-0.04003602756571707,7.359765053935434e-19,-0.04003602756571707,-6.797532045944367e-18,0.14024642623318276,-5.601232392006848e-18,-0.14024642623318287,0.46641575353133946,0.7516067387374769,0.4664157535313394,500.0,147.8571428571427,[0.38643914]
1.3229331147132086e-18,0.15322081892905812,2.3461985458331566e-19,0.15322081892905812,1.6653329487509589e-18,-0.032028099478716245,2.3461985458331566e-19,-0.032028099478716245,-6.137693380033266e-18,0.15653248387957616,-5.851614938586868e-18,-0.15653248387957605,0.5090825984926719,0.6940243625578988,0.509082598492672,500.0,147.8571428571427,[0.3669796]
1.0071221742853631e-18,0.1629957303130766,-3.612562432815089e-19,0.1629957303130766,1.794479003427638e-18,-0.027603305193273676,-3.612562432815089e-19,-0.027603305193273676,-5.571729787479584e-18,0.1653165162888639,-5.438511936899691e-18,-0.16531651628886385,0.5275036446890009,0.665942797603248,0.5275036446890011,500.0,147.8571428571427,[0.37001571]
6.023198348366126e-19,0.16838530315054054,-1.0017976126823593e-18,0.16838530315054054,1.8568815088386382e-18,-0.024942052411585695,-1.0017976126823593e-18,-0.024942052411585695,-5.055145568772868e-18,0.17022254931589337,-5.2758734631610605e-18,-0.1702225493158933,0.537138626502222,0.6503569726224306,0.537138626502222,500.0,147.8571428571427,[0.37339893]
1.6387440551410542e-19,0.17115996323755328,-1.669063533313573e-18,0.17115996323755328,1.862307813656986e-18,-0.023322321889402742,-1.669063533313573e-18,-0.023322321889402742,-4.554840264521195e-18,0.17274160967697821,-4.974347448344832e-18,-0.1727416096769783,0.5424501459037345,0.641479289157518,0.5424501459037343,500.0,147.8571428571427,[0.38713719]
-2.8325311151775837e-19,0.17207133257853063,-2.354473660681137e-18,0.17207133257853063,1.844401007756438e-18,-0.022423990381246074,-2.354473660681137e-18,-0.022423990381246074,-4.0816664843612615e-18,0.17352630590192802,-4.621740674323507e-18,-0.17352630590192808,0.5450892613193109,0.6369893204667845,0.545089261319311,500.0,147.8571428571427,[0.38713719]
-7.846436767331009e-19,0.17139620524363078,-3.0404942473407655e-18,0.17139620524363078,1.8047889825824988e-18,-0.022113751821175403,-3.0404942473407655e-18,-0.022113751821175403,-3.616089530947015e-18,0.17281688919641314,-4.3382791570091666e-18,-0.1728168891964131,0.5456632389733919,0.6360057069446263,0.5456632389733921,500.0,147.8571428571427,[0.38713719]
-1.304483678330826e-18,0.16910031325540362,-3.753578529281904e-18,0.16910031325540362,1.7342470199439767e-18,-0.022375147544149473,-3.753578529281904e-18,-0.022375147544149473,-3.1722177968061602e-18,0.17057421601959108,-4.1890322656939716e-18,-0.17057421601959094,0.5442022896851944,0.638504295837376,0.5442022896851944,500.0,147.8571428571427,[0.37339893]
-1.8612225526933165e-18,0.16482740542779892,-4.47782065050577e-18,0.16482740542779892,1.626806184540689e-18,-0.023303307305903073,-4.47782065050577e-18,-0.023303307305903073,-2.7316018455563135e-18,0.16646656634727985,-3.825553517048126e-18,-0.16646656634727994,0.540164969323595,0.6453244237058433,0.540164969323595,500.0,147.8571428571427,[0.37339893]
-2.4570308217479117e-18,0.1577051422058377,-5.224446279105321e-18,0.1577051422058377,1.4802959544452966e-18,-0.025160309581181393,-5.224446279105321e-18,-0.025160309581181393,-2.321373201289215e-18,0.1596995712467143,-3.926608604319875e-18,-0.15969957124671438,0.5319771579059002,0.6587872243241528,0.5319771579059,500.0,147.8571428571427,[0.37339893]
-3.1483420556054297e-18,0.14573211213333098,-6.006987262721312e-18,0.14573211213333098,1.2567321959293647e-18,-0.02855703109950198,-6.006987262721312e-18,-0.02855703109950198,-1.9366481896683518e-18,0.1485037121827588,-4.450707695084645e-18,-0.1485037121827588,0.5152067843743362,0.6849262286329181,0.5152067843743362,500.0,147.8571428571427,[0.3669796]
-3.993760346304026e-18,0.12370098674256007,-6.8682435806084625e-18,0.12370098674256007,8.584414222626318e-19,-0.03504482195098054,-6.8682435806084625e-18,-0.03504482195098054,-1.6306045979135326e-18,0.12856933408343907,-5.000919324669404e-18,-0.12856933408343893,0.4735096285690513,0.7426824781188783,0.4735096285690514,500.0,147.8571428571427,[0.36376136]
-5.345995507036313e-18,0.07365661235652593,-7.930137519154024e-18,0.07365661235652593,-3.689887276476546e-20,-0.04945992463790847,-7.930137519154024e-18,-0.04945992463790847,-1.5155669357645577e-18,0.08872192901998414,-1.0195725169552317e-17,-0.08872192901998412,0.287336138877296,0.913715429764746,0.28733613887729564,500.0,147.8571428571427,[0.28453689]
-8.942550340637276e-18,-0.10354825840569253,-9.728347107144276e-18,-0.10354825840569253,-4.748016716054379e-18,-0.0795861608696784,-9.728347107144276e-18,-0.0795861608696784,-2.5367975025776253e-18,0.13059938292666778,7.496207069549461e-18,-0.13059938292666778,0.7039655212585539,0.09415460561409221,0.7039655212585536,500.0,147.8571428571427,[0.16368747]
-8.787358022832527e-18,-0.10898848624302243,-9.622534163186492e-18,-0.10898848624302243,-4.790884524119327e-18,-0.07526009020991187,-9.622534163186492e-18,-0.07526009020991187,-1.6403719465865587e-18,0.13244837225103817,8.558407679978647e-18,-0.13244837225103814,0.681912623215724,0.26455689104255076,0.6819126232157243,500.0,160.7142857142859,[0.26238003]
-4.397477424789107e-18,0.06701096553386919,-8.016924481842475e-18,0.06701096553386919,-1.6984334081428807e-19,-0.044200109243671105,-8.016924481842475e-18,-0.044200109243671105,6.945670167485263e-19,0.08027527115453344,-6.734346781731124e-18,-0.08027527115453341,0.4285538207088366,0.7954138831524858,0.42855382070883696,500.0,160.7142857142859,[0.29222291]
-2.2844743285244497e-18,0.11803245071234644,-7.118328403924069e-18,0.11803245071234644,6.196840102553258e-19,-0.030591565727082815,-7.118328403924069e-18,-0.030591565727082815,1.9203692752133082e-18,0.12193237189031032,-2.07590896498503e-18,-0.12193237189031023,0.5874857386430989,0.5565258428698036,0.587485738643099,500.0,160.7142857142859,[0.33905417]
-6.945670167485263e-19,0.14012605031565672,-6.405854581274995e-18,0.14012605031565672,9.148749923734495e-19,-0.024181146938142037,-6.405854581274995e-18,-0.024181146938142037,2.9774134538274716e-18,0.14219717945272323,6.5251191155094615e-19,-0.14219717945272328,0.6179903501599784,0.4859792734451694,0.6179903501599784,500.0,160.7142857142859,[0.37044508]
7.238690627676047e-19,0.151737405519016,-5.755681520821577e-18,0.151737405519016,1.0445636775319633e-18,-0.02052396954220821,-5.755681520821577e-18,-0.02052396954220821,3.968256713657791e-18,0.153119148245449,2.4289761316996688e-18,-0.15311914824544903,0.6300996073769715,0.4538160084954843,0.6300996073769715,500.0,160.7142857142859,[0.37230664]
2.0619958309721874e-18,0.15825329386610956,-5.140745527282305e-18,0.15825329386610956,1.0923151599334245e-18,-0.01821194670401141,-5.140745527282305e-18,-0.01821194670401141,4.9368521237328844e-18,0.159297771554479,3.7870644641825595e-18,-0.159297771554479,0.636350058248221,0.43602431897197186,0.6363500582482208,500.0,160.7142857142859,[0.37230664]
3.3371774632839352e-18,0.16173705625332832,-4.547243437775508e-18,0.16173705625332832,1.1091367048703029e-18,-0.016683729168798362,-4.547243437775508e-18,-0.016683729168798362,5.889168619352934e-18,0.16259527110119198,4.936481794600532e-18,-0.1625952711011919,0.6399399195151219,0.42538664626661565,0.639939919515122,500.0,160.7142857142859,[0.37230664]
4.572204439939908e-18,0.16307129914818708,-3.9626947512189846e-18,0.16307129914818708,1.0722378321055374e-18,-0.015685556737660655,-3.9626947512189846e-18,-0.015685556737660655,6.825206200517941e-18,0.16382394603978961,6.0929855712411694e-18,-0.16382394603978967,0.6419991203792949,0.4191351319854061,0.6419991203792949,500.0,160.7142857142859,[0.37230664]
5.7866114582861596e-18,0.16258914207413358,-3.3909317953906937e-18,0.16258914207413358,1.009835326694537e-18,-0.015103975544353424,-3.3909317953906937e-18,-0.015103975544353424,7.754189585419094e-18,0.16328918885721502,7.12508093282505e-18,-0.163289188857215,0.6429626458372334,0.4161707247224018,0.6429626458372334,500.0,160.7142857142859,[0.37230664]
6.960863820976637e-18,0.1602668562698479,-2.8227976809096723e-18,0.1602668562698479,9.420065164651888e-19,-0.01490930862104392,-2.8227976809096723e-18,-0.01490930862104392,8.681545078874744e-18,0.16095885406580668,8.10461197376716e-18,-0.16095885406580673,0.6429242919707043,0.4162892138741257,0.6429242919707042,500.0,160.7142857142859,[0.37230664]
8.077597352592627e-18,0.15571630714464355,-2.2690771886023877e-18,0.15571630714464355,8.367362029892403e-19,-0.01514617868307444,-2.2690771886023877e-18,-0.01514617868307444,9.593164288357184e-18,0.15645119059778542,9.128953960775082e-18,-0.15645119059778542,0.6416818017158987,0.42010585653294114,0.641681801715899,500.0,160.7142857142859,[0.37230664]
9.15960253337119e-18,0.14797132030965263,-1.7229026514331182e-18,0.14797132030965263,6.831717766299958e-19,-0.0159637098102238,-1.7229026514331182e-18,-0.0159637098102238,1.0490403790071003e-17,0.14882994209864772,1.0129764061471772e-17,-0.14882994209864772,0.6385257178322269,0.4296158927852637,0.6385257178322267,500.0,160.7142857142859,[0.37230664]
1.015044579320151e-17,0.1348086788891512,-1.207691966133546e-18,0.1348086788891512,4.343757007087463e-19,-0.01772292765268582,-1.207691966133546e-18,-0.01772292765268582,1.1371635692570696e-17,0.13596868046877794,1.1038539599773875e-17,-0.13596868046877789,0.6312909705644443,0.450492420544013,0.6312909705644442,500.0,160.7142857142859,[0.35844832]
1.0940515774752958e-17,0.11045595359611815,-7.349251588349885e-19,0.11045595359611815,4.558096047412204e-20,-0.021348486038947536,-7.349251588349885e-19,-0.021348486038947536,1.221624003754654e-17,0.11250011351542251,1.2002795037967697e-17,-0.11250011351542252,0.6109809713611838,0.5033929928684829,0.6109809713611838,500.0,160.7142857142859,[0.34292075]
1.1146715357850177e-17,0.05520186606706922,-3.881334093348882e-19,0.05520186606706922,-8.698366623811622e-19,-0.02969839708221333,-3.881334093348882e-19,-0.02969839708221333,1.2926000707786443e-17,0.06268365661429993,1.1248057552202366e-17,-0.06268365661429992,0.47711539527912755,0.7380527075861751,0.47711539527912755,500.0,160.7142857142859,[0.20540339]
8.865496812216736e-18,-0.13261243369521136,-4.549617446133535e-19,-0.13261243369521136,-5.567931374106741e-18,-0.045993129678884824,-4.549617446133535e-19,-0.045993129678884824,1.2772436281427198e-17,0.14036176668959935,1.3397985565436626e-17,-0.14036176668959938,0.7071040940214459,0.002756888866261684,0.7071040940214455,500.0,160.7142857142859,[0.11190114]
8.858985246434719e-18,-0.1356535355660537,-1.0757649302374637e-19,-0.1356535355660537,-5.691922439205989e-18,-0.03973127211033282,-1.0757649302374637e-19,-0.03973127211033282,1.3124874779378892e-17,0.14135223979504488,1.2861495713926777e-17,-0.141352239795045,0.6965857686775462,0.17186196132892317,0.696585768677546,500.0,173.57142857142813,[0.15905413]
1.1433224252258944e-17,0.05144728663295267,9.241675393748702e-20,0.05144728663295267,-1.2388253900288168e-18,-0.02206196886939179,9.241675393748702e-20,-0.02206196886939179,1.37130862216878e-17,0.05597815442015937,1.2294591834434385e-17,-0.05597815442015936,0.6145847287262394,0.494541426407322,0.6145847287262395,500.0,173.57142857142813,[0.19646433]
1.1488029930924258e-17,0.10719937618519723,-1.0276064749746264e-19,0.10719937618519723,-5.730177888175342e-19,-0.014852449582728564,-1.0276064749746264e-19,-0.014852449582728564,1.3450181753238846e-17,0.10822338708940368,1.3372715205081308e-17,-0.10822338708940366,0.685146746834884,0.24728095479262063,0.6851467468348839,500.0,173.57142857142813,[0.23503694]
1.0954624167280663e-17,0.13154274796498475,-3.82995376960015e-19,0.13154274796498475,-4.288137382699398e-19,-0.011313265784058182,-3.82995376960015e-19,-0.011313265784058182,1.3064100165413396e-17,0.13202834742918,1.2971326093889739e-17,-0.13202834742917996,0.6932922571601314,0.19670203944957096,0.6932922571601313,500.0,173.57142857142813,[0.16367434]
1.0217731972949023e-17,0.14446088813994665,-6.989758894134339e-19,0.14446088813994665,-4.35867934533792e-19,-0.00915177407519149,-6.989758894134339e-19,-0.00915177407519149,1.2656042043073636e-17,0.14475048590904807,1.254757481640912e-17,-0.14475048590904804,0.6962493158566748,0.17456740915252214,0.6962493158566748,500.0,173.57142857142813,[0.16007624]
9.381538400441618e-18,0.15182582980602935,-1.0290308799894426e-18,0.15182582980602935,-5.358476008118513e-19,-0.00765025218213986,-1.0290308799894426e-18,-0.00765025218213986,1.2223022918569476e-17,0.15201844938934125,1.2109934209350489e-17,-0.15201844938934128,0.6977860818920291,0.16183067643540322,0.6977860818920291,500.0,173.57142857142813,[0.15813303]
8.494337562641742e-18,0.1558951766537499,-1.3710576555709312e-18,0.1558951766537499,-6.728617974751348e-19,-0.006519175564823683,-1.3710576555709312e-18,-0.006519175564823683,1.1783220913042381e-17,0.1560314255332843,1.1660995357782826e-17,-0.15603142553328436,0.698739218445965,0.15338516620274523,0.6987392184459651,500.0,173.57142857142813,[0.15849786]
7.566439438704258e-18,0.1576408191502914,-1.717561132627557e-18,0.1576408191502914,-8.459609211804317e-19,-0.00562138249142256,-1.717561132627557e-18,-0.00562138249142256,1.1339891809383361e-17,0.1577410149691251,1.1212803925493489e-17,-0.15774101496912513,0.6993929236564064,0.14730606463648552,0.6993929236564064,500.0,173.57142857142813,[0.15849786]
6.582107744655957e-18,0.15743807253828382,-2.0733571566856032e-18,0.15743807253828382,-1.0278777902155437e-18,-0.004885720018051954,-2.0733571566856032e-18,-0.004885720018051954,1.0887066672292232e-17,0.15751386270631776,1.0754285611789197e-17,-0.15751386270631776,0.6998668478909156,0.14273328429791113,0.6998668478909157,500.0,173.57142857142813,[0.15849786]
5.584752919043619e-18,0.1552784968732029,-2.427253974057228e-18,0.1552784968732029,-1.26242981598863e-18,-0.004275151482253944,-2.427253974057228e-18,-0.004275151482253944,1.043044312182826e-17,0.15533733778907607,1.0293169106787138e-17,-0.15533733778907613,0.7002155601475661,0.1392707386871349,0.7002155601475663,500.0,173.57142857142813,[0.15849786]
4.521739805129273e-18,0.1507671996686643,-2.78218518078485e-18,0.1507671996686643,-1.5120398376326316e-18,-0.003774938369422335,-2.78218518078485e-18,-0.003774938369422335,9.971106418955113e-18,0.15081445108352126,9.82892080011737e-18,-0.15081445108352123,0.7004588189963948,0.13680236028793888,0.7004588189963948,500.0,173.57142857142813,[0.15849786]
3.431595167123188e-18,0.1429025224878366,-3.1414574313671508e-18,0.1429025224878366,-1.8035680639983705e-18,-0.0033917017951601955,-3.1414574313671508e-18,-0.0033917017951601955,9.496169089729216e-18,0.14294276677906417,9.343938378647336e-18,-0.14294276677906426,0.7005842729465895,0.13551144970000414,0.7005842729465896,500.0,173.57142857142813,[0.15849786]
2.2106765829949188e-18,0.12936985891831848,-3.5085130379232686e-18,0.12936985891831848,-2.1889713637215273e-18,-0.0031651017000436862,-3.5085130379232686e-18,-0.0031651017000436862,9.011735727071211e-18,0.1294085710658968,8.835739870819913e-18,-0.12940857106589682,0.7005140666975443,0.13623540185185518,0.7005140666975446,500.0,173.57142857142813,[0.15849786]
7.906126120332835e-19,0.10415959297998348,-3.873533780172506e-18,0.10415959297998348,-2.7393343299224592e-18,-0.0032099515415551314,-3.873533780172506e-18,-0.0032099515415551314,8.497457687912292e-18,0.10420904278734619,8.252273266240518e-18,-0.10420904278734622,0.699888512350539,0.14252066713111536,0.6998885123505391,500.0,173.57142857142813,[0.15113327]
-1.223089106055608e-18,0.046836586791284454,-4.263515524586144e-18,0.046836586791284454,-3.7786073602565334e-18,-0.003839968548249287,-4.263515524586144e-18,-0.003839968548249287,7.892153385425589e-18,0.04699373597309608,7.139676894563486e-18,-0.04699373597309609,0.6938416778241162,0.1927886205885355,0.6938416778241162,500.0,173.57142857142813,[0.09497851]
-5.84901396369716e-18,-0.14454089512879334,-4.662535457962843e-18,-0.14454089512879334,-8.635218001488099e-18,-0.0030744239934326952,-4.662535457962843e-18,-0.0030744239934326952,6.508716971987802e-18,0.1445735883469876,6.701299088458982e-18,-0.1445735883469876,0.7041853500705614,0.09080740879466827,0.7041853500705613,500.0,173.57142857142813,[0.16255603]
-6.663502316931175e-18,-0.14458529480341853,-4.2495427896788984e-18,-0.14458529480341853,-8.689548878481807e-18,0.003887045198294321,-4.2495427896788984e-18,0.003887045198294321,6.166995426052345e-18,0.14463753521740141,5.9286622895710944e-18,-0.14463753521740141,0.7045345219374499,0.08521862939955173,0.70453452193745,500.0,173.57142857142813,[0.16255603]
-3.658414708530128e-18,0.04670366161976225,-3.6443402304075385e-18,0.04670366161976225,-3.9336640204408235e-18,0.004672589311421053,-3.6443402304075385e-18,0.004672589311421053,6.858849290391698e-18,0.04693682029671864,7.472472984918758e-18,-0.046936820296718675,0.6912886692754515,0.21033295382024794,0.6912886692754516,500.0,173.57142857142813,[0.11659508]
-3.2546976300450477e-18,0.10393856871544488,-3.0219261105404814e-18,0.10393856871544488,-2.9928105937495337e-18,0.004061932282953796,-3.0219261105404814e-18,0.004061932282953796,6.773656304743636e-18,0.1040179088449992,6.995859280749986e-18,-0.10401790884499922,0.699033038199084,0.15068385119951003,0.6990330381990841,500.0,173.57142857142813,[0.15113327]
-3.4608972131422665e-18,0.12906123379901588,-2.3779763434256063e-18,0.12906123379901588,-2.556603515164595e-18,0.004035913456219864,-2.3779763434256063e-18,0.004035913456219864,6.604491252031642e-18,0.1291243225234902,6.7437572917542806e-18,-0.1291243225234902,0.6998427638871016,0.1429692682702298,0.6998427638871016,500.0,173.57142857142813,[0.15849786]
-3.860273247772669e-18,0.14250686458012238,-1.7326954359099804e-18,0.14250686458012238,-2.2857630759188073e-18,0.0042808322638636384,-1.7326954359099804e-18,0.0042808322638636384,6.3954428589047904e-18,0.14257114707165916,6.490370271087899e-18,-0.1425711470716592,0.6999666478159594,0.1417511336482978,0.6999666478159595,500.0,173.57142857142813,[0.15849786]
-4.386896130393329e-18,0.15028514478621136,-1.0835482862112813e-18,0.15028514478621136,-2.0812592130773223e-18,0.004681872020667588,-1.0835482862112813e-18,0.004681872020667588,6.181646449061884e-18,0.15035805488576395,6.238804414154102e-18,-0.15035805488576398,0.6998546814200906,0.14285254561528501,0.6998546814200906,500.0,173.57142857142813,[0.15849786]
-4.948518679092332e-18,0.15471074643670119,-4.3030597209498547e-19,0.15471074643670119,-1.9321036593829855e-18,0.005199366058886861,-4.3030597209498547e-19,0.005199366058886861,5.952113755245769e-18,0.15479808936293618,5.9684200097812266e-18,-0.15479808936293615,0.6996049803104676,0.1452781575102775,0.6996049803104675,500.0,173.57142857142813,[0.15849786]
-5.5671174283839886e-18,0.15678539139298475,2.2710781385041534e-19,0.15678539139298475,-1.814556331255525e-18,0.005826686862304427,2.2710781385041534e-19,0.005826686862304427,5.718511332815894e-18,0.15689362394323988,5.687229700494995e-18,-0.15689362394323986,0.6992356817676648,0.14879154104255266,0.6992356817676648,500.0,173.57142857142813,[0.15849786]
-6.212847701767385e-18,0.15690403335722322,8.835380820474906e-19,0.15690403335722322,-1.7311268946734267e-18,0.006578568093950434,8.835380820474906e-19,0.006578568093950434,5.480364380100652e-18,0.15704188371874345,5.3835420009979724e-18,-0.15704188371874347,0.6987273425052207,0.15349332777415245,0.6987273425052207,500.0,173.57142857142813,[0.15849786]
-6.894120271710959e-18,0.1550751712796002,1.550456380026279e-18,0.1550751712796002,-1.6471548276094936e-18,0.007492043632101731,1.550456380026279e-18,0.007492043632101731,5.23916513092509e-18,0.15525604485875152,5.0649877236367075e-18,-0.1552560448587515,0.6980215691025882,0.15978666444707204,0.6980215691025881,500.0,173.57142857142813,[0.15813303]
-7.639423238511037e-18,0.15092354674329495,2.214407167557533e-18,0.15092354674329495,-1.6215155373428e-18,0.00863826605165791,2.214407167557533e-18,0.00863826605165791,4.984942750185492e-18,0.1511705546789941,4.690720322601464e-18,-0.15117055467899415,0.6969884956357482,0.16856474691593495,0.6969884956357484,500.0,173.57142857142813,[0.15905413]
-8.408601946511846e-18,0.14347732402586785,2.8903212614929885e-18,0.14347732402586785,-1.6373874789364674e-18,0.01015439960673063,2.8903212614929885e-18,0.01015439960673063,4.725226235817318e-18,0.14383620664143312,4.263969168961463e-18,-0.1438362066414331,0.6953182277363845,0.18183818178552616,0.6953182277363845,500.0,173.57142857142813,[0.16605175]
-9.31777931882603e-18,0.13047895237178453,3.5825142698834875e-18,0.13047895237178453,-1.709353846589806e-18,0.012329975378722076,3.5825142698834875e-18,0.012329975378722076,4.4524865898851084e-18,0.1310602354067713,3.637303285072667e-18,-0.13106023540677136,0.6920958875830604,0.20495503111959,0.6920958875830604,500.0,173.57142857142813,[0.16367434]
-1.0394629510027164e-17,0.10605645067048887,4.312598147388356e-18,0.10605645067048887,-1.976192386032062e-18,0.015882729835630747,4.312598147388356e-18,0.015882729835630747,4.136133018975428e-18,0.10723913388242873,2.4897219731494616e-18,-0.10723913388242874,0.6831857178798083,0.2579041484158439,0.6831857178798084,500.0,173.57142857142813,[0.23503694]
-1.2055214442062068e-17,0.05022638745320804,5.128688956264039e-18,0.05022638745320804,-2.752866177563214e-18,0.02310534407439243,5.128688956264039e-18,0.02310534407439243,3.715255251502322e-18,0.0552860463534501,-2.4041188527832618e-18,-0.055286046353450115,0.6052673027401588,0.5170135244529942,0.6052673027401587,500.0,173.57142857142813,[0.19737454]
-1.6255038713842854e-17,-0.13695117823820976,6.333209925519363e-18,-0.13695117823820976,-7.314014521435739e-18,0.04078739982047949,6.333209925519363e-18,0.04078739982047949,2.4360038905768137e-18,0.14289589638946792,4.9560778687886294e-18,-0.14289589638946787,0.6960268144610764,0.17633305731578708,0.6960268144610764,500.0,173.57142857142813,[0.16605175]
-1.6678697462535363e-17,-0.13398462490211963,7.235829099744497e-18,-0.13398462490211963,-7.17493154606046e-18,0.04707832103561533,7.235829099744497e-18,0.04707832103561533,1.172827957675661e-18,0.14201495703514533,3.297489898216388e-18,-0.14201495703514533,0.7071061868693896,0.0012965269235054406,0.7071061868693896,500.0,160.7142857142859,[0.11053699]
-1.359343620044323e-17,0.05375877514289348,7.26948914682081e-18,0.05375877514289348,-2.334599819283938e-18,0.03083387356692674,7.26948914682081e-18,0.03083387356692674,1.9680529288045403e-19,0.061973652982581284,-7.138698519864344e-18,-0.06197365298258128,0.4627611459330113,0.7561112640541284,0.46276114593301143,500.0,160.7142857142859,[0.20377672]
-1.3027472607889548e-17,0.10894350015141412,7.722221019297874e-18,0.10894350015141412,-1.2978364549283498e-18,0.022533106368407704,7.722221019297874e-18,0.022533106368407704,-1.640032802535412e-18,0.11124939149429607,-5.031434241052415e-18,-0.1112493914942961,0.6062893220944159,0.5146129767394014,0.6062893220944159,500.0,160.7142857142859,[0.34383095]
-1.3023674194516704e-17,0.13322849086292718,8.291368326631696e-18,0.13322849086292718,-7.685852059113026e-19,0.018955909455738038,8.291368326631696e-18,0.018955909455738038,-3.6152077564140334e-18,0.13457026893377014,-6.1094349428266294e-18,-0.1345702689337701,0.627874107287087,0.45994370394308776,0.6278741072870871,500.0,160.7142857142859,[0.35844832]
-1.3202606595901725e-17,0.14632504940771002,8.91488466466498e-18,0.14632504940771002,-4.1346746995554976e-19,0.017244355620840875,8.91488466466498e-18,0.017244355620840875,-5.623517084089692e-18,0.1473376662125025,-7.8583587335266e-18,-0.1473376662125025,0.6355054902869968,0.4384809501337175,0.6355054902869968,500.0,160.7142857142859,[0.37230664]
-1.3493320876544711e-17,0.15400561077370847,9.557130232922843e-18,0.15400561077370847,-1.2611071541891577e-19,0.016473814658412436,9.557130232922843e-18,0.016473814658412436,-7.64749486692833e-18,0.15488419777105325,-9.755125922838012e-18,-0.15488419777105322,0.6388002134607333,0.42879899086290174,0.6388002134607336,500.0,160.7142857142859,[0.37230664]
-1.3829751775282279e-17,0.15849339054381917,1.0210987245631842e-17,0.15849339054381917,1.036593792330015e-19,0.016283270142614124,1.0210987245631842e-17,0.016283270142614124,-9.692940468204556e-18,0.15932764898978752,-1.1788741747860124e-17,-0.15932764898978752,0.6400635530758517,0.42501446569244217,0.6400635530758518,500.0,160.7142857142859,[0.37230664]
-1.4221530983166993e-17,0.1607545576799363,1.0875836764898636e-17,0.1607545576799363,3.0918067422792675e-19,0.01652360360415553,1.0875836764898636e-17,0.01652360360415553,-1.174584723860601e-17,0.16160153864038307,-1.4003003274132704e-17,-0.16160153864038312,0.6400487044628771,0.42505918626796513,0.6400487044628772,500.0,160.7142857142859,[0.37230664]
-1.4640441715143448e-17,0.16117723838488893,1.1553132870842514e-17,0.16117723838488893,4.852981799884295e-19,0.01715019765751343,1.1553132870842514e-17,0.01715019765751343,-1.3804044656205356e-17,0.16208711069382137,-1.6242765607373074e-17,-0.1620871106938213,0.6389689275172579,0.4282959483054802,0.6389689275172578,500.0,160.7142857142859,[0.37230664]
-1.509720092322788e-17,0.15978515083196157,1.2240408290491385e-17,0.15978515083196157,6.483755969823401e-19,0.01819273566113012,1.2240408290491385e-17,0.01819273566113012,-1.587183985045215e-17,0.16081750544399226,-1.865741750878413e-17,-0.16081750544399218,0.6367219423858661,0.4349371634716214,0.6367219423858661,500.0,160.7142857142859,[0.37230664]
-1.5580752511352903e-17,0.15624516342434186,1.2930329033739203e-17,0.15624516342434186,7.697552528877588e-19,0.019764679810981938,1.2930329033739203e-17,0.019764679810981938,-1.7953980838062455e-17,0.1574902970393095,-2.1153153102730566e-17,-0.15749029703930945,0.6328404970453136,0.44612308906722237,0.6328404970453136,500.0,160.7142857142859,[0.37230664]
-1.6118770634092093e-17,0.14967465710977804,1.3649988470971949e-17,0.14967465710977804,8.466052948776105e-19,0.02211980182683148,1.3649988470971949e-17,0.02211980182683148,-2.004070027036324e-17,0.15130032588791048,-2.3914415953305028e-17,-0.15130032588791048,0.626111591799176,0.4647241646712634,0.6261115917991762,500.0,160.7142857142859,[0.37230664]
-1.6748289821830675e-17,0.13801027976123562,1.4400984818530652e-17,0.13801027976123562,8.29071547433324e-19,0.02581946873736252,1.4400984818530652e-17,0.02581946873736252,-2.2167743930345372e-17,0.14040470891552806,-2.7120233147373693e-17,-0.14040470891552803,0.6130972856404462,0.49822026923905277,0.6130972856404462,500.0,160.7142857142859,[0.37044508]
-1.7570375001810376e-17,0.11586524914187563,1.521709682390953e-17,0.11586524914187563,6.618650516167017e-19,0.03227180133310098,1.521709682390953e-17,0.03227180133310098,-2.4355799605128803e-17,0.12027562146998881,-3.1482156914081533e-17,-0.12027562146998895,0.5802894622044895,0.5714265308058842,0.5802894622044896,500.0,160.7142857142859,[0.33853942]
-1.889154456745762e-17,0.06479394715791233,1.622105224061731e-17,0.06479394715791233,-1.2166792834889347e-20,0.04592177635722235,1.622105224061731e-17,0.04592177635722235,-2.6709137133238602e-17,0.07941703300996009,-4.4088957356267536e-17,-0.07941703300996002,0.4094901810978907,0.8152518526006752,0.4094901810978909,500.0,160.7142857142859,[0.26345881]
-2.2489795121314318e-17,-0.1112535613325898,1.7930272549236978e-17,-0.1112535613325898,-4.484111772654542e-18,0.07702305591513157,1.7930272549236978e-17,0.07702305591513157,-3.017425668981764e-17,0.13531410145173262,-7.219901382117857e-18,-0.13531410145173267,0.6816859011637946,0.2657229088900887,0.6816859011637943,500.0,160.7142857142859,[0.26238003]
-2.2157094807139364e-17,-0.10585780179387741,1.807099825361e-17,-0.10585780179387741,-4.356288379777335e-18,0.08140229501444124,1.807099825361e-17,0.08140229501444124,-3.151375699142937e-17,0.1335372900513185,-1.9311936686007196e-17,-0.1335372900513184,0.703949276464215,0.09439720510171884,0.7039492764642153,500.0,147.85714285714295,[0.16368747]
-1.8423050975203513e-17,0.07131031808650277,1.6259981738388318e-17,0.07131031808650277,3.9431430966703754e-19,0.051350201418201444,1.6259981738388318e-17,0.051350201418201444,-3.0237405312141165e-17,0.08787493756064964,-4.381661518095845e-17,-0.08787493756064958,0.2660269783851482,0.9265307839152114,0.26602697838514827,500.0,147.85714285714295,[0.26135016]
-1.6924034269134916e-17,0.12131879268599711,1.5181779210283237e-17,0.12131879268599711,1.3260786757875947e-18,0.0370080201523335,1.5181779210283237e-17,0.0370080201523335,-3.008925023339771e-17,0.12683786112349676,-3.716164383908518e-17,-0.12683786112349682,0.4629057706573065,0.7559341869397959,0.4629057706573067,500.0,147.85714285714295,[0.36146425]
-1.5900294036343363e-17,0.14331510355123053,1.4303099366768424e-17,0.14331510355123053,1.770789791455038e-18,0.03059247587717784,1.4303099366768424e-17,0.03059247587717784,-3.0149346559260914e-17,0.14654391316665327,-3.55535668208366e-17,-0.14654391316665336,0.5069965372134544,0.6970717484643403,0.5069965372134546,500.0,147.85714285714295,[0.37295897]
-1.506498223836894e-17,0.1552544421463337,1.3499578084288369e-17,0.1552544421463337,2.0397395026156825e-18,0.027267459617767054,1.3499578084288369e-17,0.027267459617767054,-3.0277899111848086e-17,0.1576307589278686,-3.451294921587958e-17,-0.15763075892786857,0.5246216754775032,0.6704805703660285,0.5246216754775032,500.0,147.85714285714295,[0.3669796]
-1.431655914629831e-17,0.16234413128260933,1.2731560944662737e-17,0.16234413128260933,2.220825468725485e-18,0.025481658654781532,1.2731560944662737e-17,0.025481658654781532,-3.043363406013467e-17,0.1643317738287513,-3.374513606388651e-17,-0.16433177382875128,0.5331477011732458,0.6568919678816043,0.5331477011732457,500.0,147.85714285714295,[0.37339893]
-1.3613818757917149e-17,0.16658556734512572,1.1991222198911317e-17,0.16658556734512572,2.3746442531230896e-18,0.024624207317248684,1.1991222198911317e-17,0.024624207317248684,-3.062275774025665e-17,0.16839567344115558,-3.372895667461658e-17,-0.1683956734411555,0.5372770757235348,0.6501282087434249,0.5372770757235348,500.0,147.85714285714295,[0.37339893]
-1.2925220676468805e-17,0.16885107353039103,1.1263999849337999e-17,0.16885107353039103,2.4829668630593588e-18,0.024433028024011018,1.1263999849337999e-17,0.024433028024011018,-3.0813373654203676e-17,0.17060966529123617,-3.375259199942944e-17,-0.17060966529123622,0.538676815495603,0.6478075153122508,0.5386768154956032,500.0,147.85714285714295,[0.37339893]
-1.2277862511639904e-17,0.1694968861601012,1.0546960299900362e-17,0.1694968861601012,2.5629921412280717e-18,0.02481298683430404,1.0546960299900362e-17,0.02481298683430404,-3.1017597723202965e-17,0.1713034697068615,-3.371711584047e-17,-0.17130346970686164,0.5379178443584401,0.6490676277873807,0.53791784435844,500.0,147.85714285714295,[0.37339893]
-1.1665063125622857e-17,0.16855726120039738,9.84765586468738e-18,0.16855726120039738,2.624784187347008e-18,0.025780535299458358,9.84765586468738e-18,0.025780535299458358,-3.12478765339316e-17,0.17051740762662804,-3.367456190845721e-17,-0.170517407626628,0.5349636902479783,0.6539324890480135,0.5349636902479783,500.0,147.85714285714295,[0.37339893]
-1.1057791787639502e-17,0.16575539653592658,9.167319120359938e-18,0.16575539653592658,2.663667052810982e-18,0.027468970909835053,9.167319120359938e-18,0.027468970909835053,-3.148453973142308e-17,0.16801605829094923,-3.39438532774526e-17,-0.16801605829094915,0.5291630000567048,0.6633046349468513,0.5291630000567048,500.0,147.85714285714295,[0.37339893]
-1.05287609822557e-17,0.16033966767391242,8.506489517924394e-18,0.16033966767391242,2.646116348164138e-18,0.030198408870740576,8.506489517924394e-18,0.030198408870740576,-3.175432882411031e-17,0.16315867408172052,-3.3996911737803073e-17,-0.1631586740817206,0.51874979198428,0.6795566986150109,0.51874979198428,500.0,147.85714285714295,[0.3669796]
-1.0053314936953083e-17,0.1505396555351805,7.895843696632129e-18,0.1505396555351805,2.5513849360775745e-18,0.03469086545978362,7.895843696632129e-18,0.03469086545978362,-3.205940585531936e-17,0.15448509324526946,-3.4774345473755103e-17,-0.1544850932452696,0.498953925998721,0.7085830646162281,0.4989539259987209,500.0,147.85714285714295,[0.39128569]
-9.719258046573543e-18,0.13170529622858457,7.364538506455324e-18,0.13170529622858457,2.297260059252682e-18,0.0427659492364696,7.364538506455324e-18,0.0427659492364696,-3.246853228142023e-17,0.1384745878085778,-3.490841556380451e-17,-0.13847458780857758,0.45327073490471465,0.767522821652803,0.4532707349047146,500.0,147.85714285714295,[0.387921]
-9.817372420570295e-18,0.08771036414280203,7.078193884946331e-18,0.08771036414280203,1.520914813521078e-18,0.06014054876737192,7.078193884946331e-18,0.06014054876737192,-3.3141275378477466e-17,0.10634845360466488,-3.544168717209679e-17,-0.10634845360466484,0.2810501880567545,0.9176173405001269,0.2810501880567546,500.0,147.85714285714295,[0.34560869]
-1.1813625177227687e-17,-0.07248726758456216,7.680811530652857e-18,-0.07248726758456216,-3.0393920291745386e-18,0.09850153696277204,7.680811530652857e-18,0.09850153696277204,-3.529118582610817e-17,0.12229863754721171,-1.437211356836558e-17,-0.12229863754721182,0.6578693022784071,0.3666278252389525,0.657869302278407,500.0,147.85714285714295,[0.33941906]
-1.1359545207147315e-17,-0.0657327600489564,7.13130808265655e-18,-0.0657327600489564,-3.1217552816458448e-18,0.10010301517988668,7.13130808265655e-18,0.10010301517988668,-3.476716587408006e-17,0.11975562363312335,-1.6864943084833315e-17,-0.11975562363312338,0.6923924330137867,0.20294195576690688,0.6923924330137868,500.0,134.9999999999996,[0.16365503]
-9.080548055048885e-18,0.09591642708364588,5.284166367036783e-18,0.09591642708364588,1.2792619591771067e-18,0.062197565874827845,5.284166367036783e-18,0.062197565874827845,-3.095928190360828e-17,0.11431753227412628,-3.6713418678382015e-17,-0.11431753227412633,0.14747895855537357,0.9780081357365311,0.1474789585553735,500.0,134.9999999999996,[0.35953143]
-8.699672328408537e-18,0.1386402097866424,4.3278930141824944e-18,0.1386402097866424,1.889594072222061e-18,0.0446564007820062,4.3278930141824944e-18,0.0446564007820062,-2.8653144748816835e-17,0.14565473524910694,-2.8835336983346587e-17,-0.14565473524910683,0.3226253126748631,0.8898459502874044,0.32262531267486305,500.0,134.9999999999996,[0.37064961]
-8.665215292812028e-18,0.15734344923690147,3.631898942856252e-18,0.15734344923690147,1.9819959886073104e-18,0.03667465529493318,3.631898942856252e-18,0.03667465529493318,-2.665413644674388e-17,0.16156110719714561,-2.7666904494124654e-17,-0.16156110719714553,0.37344629544634256,0.8491617801307391,0.37344629544634284,500.0,134.9999999999996,[0.36962725]
-8.784865314056598e-18,0.16754084417532747,3.016885582080313e-18,0.16754084417532747,1.901165243317124e-18,0.03239588792863541,3.016885582080313e-18,0.03239588792863541,-2.4759321675784478e-17,0.17064415613101447,-2.5271547860144432e-17,-0.17064415613101452,0.395984718465633,0.8284879030398615,0.39598471846563316,500.0,134.9999999999996,[0.37220278]
-8.954979970111804e-18,0.17365867053256484,2.4562741065837905e-18,0.17365867053256484,1.759289628645684e-18,0.029949357808004083,2.4562741065837905e-18,0.029949357808004083,-2.291851983427083e-17,0.17622229678519613,-2.321850662215475e-17,-0.17622229678519602,0.4077500842578731,0.816994331421825,0.40775008425787296,500.0,134.9999999999996,[0.38586515]
-9.176627564738757e-18,0.17739007558571693,1.910544166069071e-18,0.17739007558571693,1.5600297806950555e-18,0.02859533740798087,1.910544166069071e-18,0.02859533740798087,-2.1109059142383786e-17,0.17968008303031985,-2.1385892621500925e-17,-0.1796800830303199,0.4140546232734832,0.8106278664663013,0.41405462327348347,500.0,134.9999999999996,[0.37838378]
-9.4161650080637e-18,0.1794738274935787,1.3870472377573403e-18,0.1794738274935787,1.3290260495570918e-18,0.02801069596799321,1.3870472377573403e-18,0.02801069596799321,-1.9318314962819402e-17,0.181646507931769,-1.9483908117984487e-17,-0.181646507931769,0.41691726763741976,0.8076880486248984,0.41691726763741976,500.0,134.9999999999996,[0.42130868]
-9.682833975480383e-18,0.1802155201728292,8.829514688215227e-19,0.1802155201728292,1.0810672355121109e-18,0.028068624057326238,8.829514688215227e-19,0.028068624057326238,-1.755187469382032e-17,0.18238827091574417,-1.7501577098970024e-17,-0.18238827091574428,0.41709616345282136,0.8075033008389962,0.41709616345282124,500.0,134.9999999999996,[0.56018917]
-9.970665531688622e-18,0.17965316989756014,3.887173729979565e-19,0.17965316989756014,8.067844841471839e-19,0.028769082001733746,3.887173729979565e-19,0.028769082001733746,-1.581026400866582e-17,0.181942082909546,-1.584474098293139e-17,-0.181942082909546,0.4146486768837263,0.8100203389527637,0.4146486768837263,500.0,134.9999999999996,[0.56018917]
-1.0278557458522191e-17,0.1775693383615083,-8.517284897002459e-20,0.1775693383615083,4.999460235224893e-19,0.03023880080284113,-8.517284897002459e-20,0.03023880080284113,-1.4083575661761777e-17,0.18012566446827544,-1.3922266102869326e-17,-0.18012566446827535,0.4089659793721795,0.8157779449288317,0.40896597937217943,500.0,134.9999999999996,[0.3807696]
-1.0611995411008389e-17,0.17335921422967043,-5.350670395816339e-19,0.17335921422967043,1.399223569018668e-19,0.032800836223618686,-5.350670395816339e-19,0.032800836223618686,-1.2404791412082212e-17,0.1764350079074371,-1.2105557347110224e-17,-0.1764350079074371,0.3983290495268127,0.8262372156990582,0.3983290495268127,500.0,134.9999999999996,[0.38075505]
-1.1001281910117176e-17,0.1655860100535573,-9.38725297770344e-19,0.1655860100535573,-2.839992284302812e-19,0.037194849776411,-9.38725297770344e-19,0.037194849776411,-1.0785022466602817e-17,0.16971206078339435,-1.0459451214856566e-17,-0.16971206078339443,0.37826174428761433,0.8448882207824788,0.3782617442876145,500.0,134.9999999999996,[0.38045666]
-1.1511032376193285e-17,0.15044196417946312,-1.2420104295904066e-18,0.15044196417946312,-8.741072278627116e-19,0.04529154233746226,-1.2420104295904066e-18,0.04529154233746226,-9.303490756021154e-18,0.15711177038491098,-8.627007723258855e-18,-0.15711177038491098,0.3346357232955542,0.8809301137938936,0.3346357232955543,500.0,134.9999999999996,[0.37725223]
-1.230730869388072e-17,0.11444241642300554,-1.3156595346412709e-18,0.11444241642300554,-1.9893522350417152e-18,0.06294741411430105,-1.3156595346412709e-18,0.06294741411430105,-8.201130573222827e-18,0.13061180505763603,-6.555754789502529e-18,-0.13061180505763614,0.19712996955359288,0.9603538671800093,0.19712996955359283,500.0,134.9999999999996,[0.33578586]
-1.4612106229670138e-17,-0.028321031733026192,-4.794405263300294e-19,-0.028321031733026192,-6.902338685912888e-18,0.10096781574103465,-4.794405263300294e-19,0.10096781574103465,-8.974921640319232e-18,0.10486458245727485,-2.0582717348652022e-17,-0.10486458245727487,0.6164562164100434,0.4898606602890534,0.6164562164100434,500.0,134.9999999999996,[0.3285194]
-1.4524556192866606e-17,-0.02154438846025661,-3.8604449394485617e-19,-0.02154438846025661,-7.038428715036796e-18,0.09947341417003405,-3.8604449394485617e-19,0.09947341417003405,-8.620304141838921e-18,0.10177976616582281,-1.880696231907325e-17,-0.10177976616582282,0.6647906471800661,0.3407444656099612,0.6647906471800659,500.0,122.14285714285755,[0.27225529]
-1.2674661051481593e-17,0.12271741994092909,-9.008694028862489e-19,0.12271741994092909,-2.3981601836820567e-18,0.0612228742164386,-9.008694028862489e-19,0.0612228742164386,-6.522469263261802e-18,0.13714155272666345,-6.4702355530016746e-18,-0.13714155272666342,0.06935236858359377,0.9951786261489396,0.06935236858359356,500.0,122.14285714285755,[0.37712723]
-1.2278481449533246e-17,0.15749222351606185,-5.181845546980651e-19,0.15749222351606185,-1.568107768063307e-18,0.04395732637859206,-5.181845546980651e-19,0.04395732637859206,-6.329949903327715e-18,0.1635116112402641,-6.520509783216542e-18,-0.163511611240264,0.20139731282324175,0.9585813709723108,0.20139731282324166,500.0,122.14285714285755,[0.37962825]
-1.2163375958574042e-17,0.17255139504348657,9.836502264705292e-20,0.17255139504348657,-1.2558631392983012e-18,0.0359903568781314,9.836502264705292e-20,0.0359903568781314,-6.559463520290953e-18,0.17626482836819335,-6.577092870325003e-18,-0.17626482836819335,0.24602827240235728,0.9375180949493311,0.24602827240235725,500.0,122.14285714285755,[0.39064937]
-1.2161120650633917e-17,0.1807681177504618,8.110783657822496e-19,0.1807681177504618,-1.0890461292279179e-18,0.03160513166714318,8.110783657822496e-19,0.03160513166714318,-6.934951095818707e-18,0.18351020882431118,-7.448908665551847e-18,-0.18351020882431118,0.26746649523803034,0.9257015436144469,0.26746649523803046,500.0,122.14285714285755,[0.8366669]
-1.2184928563024418e-17,0.18572637126802669,1.5532204040431249e-18,0.18572637126802669,-1.0100038388949506e-18,0.02898200419747249,1.5532204040431249e-18,0.02898200419747249,-7.376232617268928e-18,0.18797404488836017,-7.7969309979656e-18,-0.18797404488836006,0.2793932278254572,0.9186287871009403,0.27939322782545717,500.0,122.14285714285755,[0.83672187]
-1.2240217521962615e-17,0.18878566541768713,2.3298197428567987e-18,0.18878566541768713,-9.754609574604951e-19,0.02739889675280972,2.3298197428567987e-18,0.02739889675280972,-7.86635406155976e-18,0.19076353689966558,-8.694835803602163e-18,-0.19076353689966558,0.28630962846049335,0.9143596629891483,0.2863096284604934,500.0,122.14285714285755,[0.83618695]
-1.2310687416490269e-17,0.1905379450199695,3.1253933964632635e-18,0.1905379450199695,-9.757857938719841e-19,0.026535625403563495,3.1253933964632635e-18,0.026535625403563495,-8.384156019375125e-18,0.19237683828359153,-9.316813894982213e-18,-0.19237683828359164,0.29002198607773294,0.9120167186971162,0.29002198607773294,500.0,122.14285714285755,[0.83563367]
-1.239149696527726e-17,0.19122942795623138,3.929099220999275e-18,0.19122942795623138,-9.987707520258746e-19,0.026258821905245033,3.929099220999275e-18,0.026258821905245033,-8.936141577895762e-18,0.1930238841291898,-1.012942188845692e-17,-0.19302388412918975,0.2912560809565549,0.9112298231575048,0.29125608095655503,500.0,122.14285714285755,[0.83563367]
-1.248911958039985e-17,0.19089435690866757,4.743632616802582e-18,0.19089435690866757,-1.0404812310162844e-18,0.026551964268667013,4.743632616802582e-18,0.026551964268667013,-9.505225295719994e-18,0.19273209983315787,-1.0808219072075806e-17,-0.19273209983315787,0.2901323322958406,0.9119465222879859,0.2901323322958405,500.0,122.14285714285755,[0.83563367]
-1.2598688544724083e-17,0.18936592225903398,5.581788588071565e-18,0.18936592225903398,-1.1228953550952623e-18,0.027510117977336126,5.581788588071565e-18,0.027510117977336126,-1.0111481321200229e-17,0.19135375382819508,-1.1720007916199717e-17,-0.19135375382819506,0.28621931925900634,0.9144162086084333,0.28621931925900645,500.0,122.14285714285755,[0.83618695]
-1.2732675880730882e-17,0.18617285453390278,6.4409472470111145e-18,0.18617285453390278,-1.2483195687668958e-18,0.029395296328452027,6.4409472470111145e-18,0.029395296328452027,-1.076494725842525e-17,0.18847921692202363,-1.2954179703152891e-17,-0.1884792169220237,0.27822269465515886,0.919339036676701,0.27822269465515875,500.0,122.14285714285755,[0.83672187]
-1.2904668546969313e-17,0.18018660498010355,7.33673505321225e-18,0.18018660498010355,-1.4491757783645237e-18,0.03281830964611096,7.33673505321225e-18,0.03281830964611096,-1.150577776305083e-17,0.1831509051637034,-1.4165705830953473e-17,-0.18315090516370333,0.2628308384984569,0.9283533274935767,0.26283083849845695,500.0,122.14285714285755,[0.8366669]
-1.312170378250067e-17,0.16838045827100256,8.303584003902083e-18,0.16838045827100256,-1.8144557803434857e-18,0.03933043877258462,8.303584003902083e-18,0.03933043877258462,-1.2421609777543611e-17,0.17291287442407763,-1.592902437140406e-17,-0.17291287442407763,0.2301576546531909,0.945544767850304,0.23015765465319107,500.0,122.14285714285755,[0.39204498]
-1.3569912321195564e-17,0.13971028688785458,9.482874510446119e-18,0.13971028688785458,-2.704331086934201e-18,0.05376784624264353,9.482874510446119e-18,0.05376784624264353,-1.3818213458767171e-17,0.1496995175405023,-1.9170025804959156e-17,-0.1496995175405026,0.13605504550374908,0.9813144496979271,0.13605504550374922,500.0,122.14285714285755,[0.39161938]
-1.513648652225259e-17,0.01251053193579254,1.138603752418953e-17,0.01251053193579254,-7.378790902726621e-18,0.08391422638470751,1.138603752418953e-17,0.08391422638470751,-1.7469451031314905e-17,0.0848416807887516,-3.402148066825618e-17,-0.08484168078875164,0.5367054328867837,0.6510718521174294,0.5367054328867841,500.0,122.14285714285755,[0.29693564]
-1.4399225508765328e-17,0.017967319201145325,1.0988121531194943e-17,0.017967319201145325,-7.369024878835045e-18,0.07961850457771735,1.0988121531194943e-17,0.07961850457771735,-1.7324498744204468e-17,0.08162065198506957,-1.3208340995999547e-17,-0.08162065198506961,0.5996441979997813,0.5299562921698335,0.5996441979997813,500.0,109.28571428571402,[0.31479006]
-1.1836178256628945e-17,0.14641697976540685,8.666391168826863e-18,0.14641697976540685,-2.673128906881686e-18,0.04859906177737364,8.666391168826863e-18,0.04859906177737364,-1.2910182817275927e-17,0.15427184049354092,-1.8352389535907216e-17,-0.15427184049354106,0.011397444687611365,0.9998700898162647,0.011397444687611417,500.0,109.28571428571402,[0.39532554]
-1.0394748210445065e-17,0.1741526689828773,7.057682161281058e-18,0.1741526689828773,-1.7582847819160167e-18,0.03502876370839866,7.057682161281058e-18,0.03502876370839866,-1.07648773099647e-17,0.17764055393067885,-1.314274498285802e-17,-0.17764055393067887,0.09734794363664019,0.9904780440471332,0.09734794363664027,500.0,109.28571428571402,[0.40044936]
-9.110142612812077e-18,0.1859381447618435,5.6280454520413705e-18,0.1859381447618435,-1.3730501268714183e-18,0.02865429268762953,5.6280454520413705e-18,0.02865429268762953,-9.138871293419686e-18,0.18813309694709374,-1.0904547665892282e-17,-0.1881330969470938,0.12916303878571084,0.983175375415435,0.12916303878571092,500.0,109.28571428571402,[0.86440963]
-7.883602716036051e-18,0.19232722841617061,4.2728645735163985e-18,0.19232722841617061,-1.1457239890380773e-18,0.025030714546961416,4.2728645735163985e-18,0.025030714546961416,-7.690848074916481e-18,0.19394921876866983,-8.768913998990876e-18,-0.19394921876866983,0.14545269644089678,0.9786148507948081,0.1454526964408968,500.0,109.28571428571402,[0.86385654]
-6.702643779734148e-18,0.19616717354741184,2.948618335430156e-18,0.19616717354741184,-9.959969246263002e-19,0.022749883035649714,2.948618335430156e-18,0.022749883035649714,-6.3272044262511664e-18,0.19748194134076197,-6.991797587932278e-18,-0.1974819413407619,0.15510033075508556,0.975647361908659,0.15510033075508556,500.0,109.28571428571402,[0.84973924]
-5.537438084608009e-18,0.19852453853741192,1.6440396040303078e-18,0.19852453853741192,-8.940246545696088e-19,0.021250389355270242,1.6440396040303078e-18,0.021250389355270242,-5.022978285434179e-18,0.19965863730187813,-5.3289626774529815e-18,-0.19965863730187816,0.1611794082349557,0.9736746873171032,0.16117940823495572,500.0,109.28571428571402,[0.85058262]
-4.36517183426706e-18,0.19986025099075652,3.4718984632576285e-19,0.19986025099075652,-8.256986538621537e-19,0.020278415802100772,3.4718984632576285e-19,0.020278415802100772,-3.75646655284245e-18,0.20088637104973317,-3.8255241203945454e-18,-0.2008863710497332,0.16497648528110417,0.9724019326433833,0.16497648528110428,500.0,109.28571428571402,[0.8487674]
-3.2064883031745385e-18,0.20036417450652752,-9.321711402647158e-19,0.20036417450652752,-7.74740670439616e-19,0.01972045389237191,-9.321711402647158e-19,0.01972045389237191,-2.524953956416485e-18,0.20133230919900413,-2.346310079658922e-18,-0.20133230919900416,0.16704528754229192,0.9716952937108556,0.16704528754229192,500.0,109.28571428571402,[0.85400092]
-2.0803541223908244e-18,0.20005998793617763,-2.209356173323911e-18,0.20005998793617763,-7.563442253152249e-19,0.019546775382522967,-2.209356173323911e-18,0.019546775382522967,-1.3235600012952502e-18,0.2010126244813453,-8.787803678661496e-19,-0.20101262448134533,0.16753420668342608,0.9715269317841427,0.16753420668342606,500.0,109.28571428571402,[0.85400092]
-9.243922223087549e-19,0.1988127449820318,-3.4734015602905624e-18,0.1988127449820318,-7.642695978604603e-19,0.01980195532385833,-3.4734015602905624e-18,0.01980195532385833,-1.5851963889404632e-19,0.1997964589324307,5.136934836653496e-19,-0.19979645893243075,0.16624364931393312,0.9719702146288083,0.1662436493139331,500.0,109.28571428571402,[0.85400092]
1.865377067319864e-19,0.1962449956887234,-4.726851080265488e-18,0.1962449956887234,-8.213071358342383e-19,0.02063507382729175,-4.726851080265488e-18,0.02063507382729175,9.441150386206776e-19,0.19732689782369975,1.9836986871096982e-18,-0.19732689782369975,0.16246730095439527,0.9732465012735406,0.16246730095439524,500.0,109.28571428571402,[0.85058262]
1.3001638309793443e-18,0.19144998639479796,-5.9497883663669495e-18,0.19144998639479796,-9.627282179902547e-19,0.022407115952792316,-5.9497883663669495e-18,0.022407115952792316,1.962099890881755e-18,0.19275677974040287,3.3570054956082333e-18,-0.1927567797404029,0.1543739330098768,0.9758777472686443,0.15437393300987673,500.0,109.28571428571402,[0.84973924]
2.3524705911290517e-18,0.18196609745485418,-7.131614504605887e-18,0.18196609745485418,-1.2569040863224752e-18,0.02604269667070024,-7.131614504605887e-18,0.02604269667070024,2.765202542423677e-18,0.18382024554665238,4.756383284558878e-18,-0.18382024554665238,0.13662939131129323,0.9811548393907102,0.13662939131129326,500.0,109.28571428571402,[0.86455064]
3.288101199432682e-18,0.15850532622107746,-8.196921345122403e-18,0.15850532622107746,-2.0741805745957214e-18,0.034399783020339914,-8.196921345122403e-18,0.034399783020339914,3.012651580566778e-18,0.1621952018781587,6.597619081005987e-18,-0.16219520187815858,0.0866759322712777,0.9924588482802748,0.08667593227127761,500.0,109.28571428571402,[0.38962974]
3.3679971789318954e-18,0.04191372202765479,-8.840596948716245e-18,0.04191372202765479,-6.676309310401676e-18,0.05069875580589113,-8.840596948716245e-18,0.05069875580589113,7.547746242535114e-19,0.0657808781826215,1.0130164626397704e-17,-0.06578087818262154,0.36559325018049293,0.8559691296097814,0.3655932501804928,500.0,109.28571428571402,[0.19626424]
3.8048740670178485e-18,0.0449675767370498,-8.891318259932776e-18,0.0449675767370498,-6.6069471981223386e-18,0.04445156418781019,-8.891318259932776e-18,0.04445156418781019,6.834261346683558e-19,0.06322993370505357,1.4132915671951756e-17,-0.06322993370505357,0.4376763058099706,0.7854163880802812,0.4376763058099705,500.0,96.42857142857196,[0.21742805]
4.35237338563691e-18,0.16230961874965907,-7.784334258679313e-18,0.16230961874965907,-1.8549674645999788e-18,0.02680758780930535,-7.784334258679313e-18,0.02680758780930535,3.0693781923342896e-18,0.1645085380848462,5.593484364824153e-18,-0.16450853808484625,0.036389892152050816,0.9986748978012435,0.036389892152050886,500.0,96.42857142857196,[0.39296636]
4.0322129227531076e-18,0.1853076292972384,-6.288683888513711e-18,0.1853076292972384,-9.05742677688381e-19,0.01962072556226774,-6.288683888513711e-18,0.01962072556226774,2.934268501483227e-18,0.1863434741206479,4.24861977874863e-18,-0.18634347412064783,0.004745264663568348,0.9999774822097472,0.004745264663568292,500.0,96.42857142857196,[0.85455107]
3.6078589287557475e-18,0.1948354531280785,-4.701881665738881e-18,0.1948354531280785,-4.641497001193132e-19,0.016101558062895854,-4.701881665738881e-18,0.016101558062895854,2.228856293874124e-18,0.19549965209093462,2.9945625733214553e-18,-0.19549965209093467,0.021029988406682142,0.9995576417472031,0.021029988406682094,500.0,96.42857142857196,[0.86565301]
3.143895029234768e-18,0.19990909072289464,-3.0922901550302966e-18,0.19990909072289464,-1.8860257733870465e-19,0.013957426986412171,-3.0922901550302966e-18,0.013957426986412171,1.3074739750192963e-18,0.2003957442705197,1.7400619292123133e-18,-0.20039574427051968,0.03003874213877536,0.9990972665068404,0.03003874213877534,500.0,96.42857142857196,[0.86524892]
2.6728769334499356e-18,0.20289056768132854,-1.4514901715573102e-18,0.20289056768132854,7.176804787030466e-21,0.012470588256634956,-1.4514901715573102e-18,0.012470588256634956,2.89234764719859e-19,0.20327345627385365,4.814515201212569e-19,-0.20327345627385376,0.035914306346135405,0.9987093296847448,0.03591430634613539,500.0,96.42857142857196,[0.86459386]
2.1768851175987854e-18,0.20465221040185408,1.8755381410397684e-19,0.20465221040185408,1.5927330706083297e-19,0.011351496936376283,1.8755381410397684e-19,0.011351496936376283,-7.827248632812222e-19,0.20496678683401698,-7.911285404252211e-19,-0.204966786834017,0.04013448943584991,0.9983879233621806,0.0401344894358499,500.0,96.42857142857196,[0.91228816]
1.6847044330223968e-18,0.20556569641976788,1.8386531784802258e-18,0.20556569641976788,2.828803842568594e-19,0.010462974280302132,1.8386531784802258e-18,0.010462974280302132,-1.9046075554362634e-18,0.20583179874677865,-2.0862390501526732e-18,-0.20583179874677873,0.04335038974034204,0.9981189745810473,0.04335038974034205,500.0,96.42857142857196,[0.91228816]
1.171891072234368e-18,0.20577873047922696,3.487852011388603e-18,0.20577873047922696,3.7365719123764896e-19,0.009733854360664361,3.487852011388603e-18,0.009733854360664361,-3.0560641387638804e-18,0.2060088198072038,-3.3799761875424514e-18,-0.2060088198072038,0.045881912541036074,0.9978926295965682,0.04588191254103607,500.0,96.42857142857196,[0.91228816]
6.731903432746832e-19,0.20529974222213887,5.141671715113391e-18,0.20529974222213887,4.508668451520466e-19,0.009127091799287591,5.141671715113391e-18,0.009127091799287591,-4.2419766978628466e-18,0.20550252543749747,-4.689258600695487e-18,-0.20550252543749745,0.04788508024577582,0.9977043841638219,0.047885080245775855,500.0,96.42857142857196,[0.91228816]
1.6688642861835242e-19,0.20400058536237284,6.798338506651928e-18,0.20400058536237284,4.792379672463562e-19,0.008627943677206165,6.798338506651928e-18,0.008627943677206165,-5.469941529566269e-18,0.20418295776163062,-6.0343598272935676e-18,-0.2041829577616306,0.04940853747834717,0.9975558093903826,0.04940853747834721,500.0,96.42857142857196,[0.85713838]
-3.5515588966150687e-19,0.20153933836675764,8.462991809399606e-18,0.20153933836675764,4.815614351920738e-19,0.008243030863954072,8.462991809399606e-18,0.008243030863954072,-6.768177008667297e-18,0.20170783937947112,-7.449664168021116e-18,-0.2017078393794711,0.05038964000591148,0.9974576524144517,0.05038964000591152,500.0,96.42857142857196,[0.86524892]
-8.88591328409577e-19,0.1971006834720834,1.012386302670581e-17,0.1971006834720834,4.0031802048027723e-19,0.008012016651047097,1.012386302670581e-17,0.008012016651047097,-8.160563115667298e-18,0.19726345793374664,-8.97327042692233e-18,-0.19726345793374667,0.05056637491069585,0.9974397643250352,0.050566374910695926,500.0,96.42857142857196,[0.86524892]
-1.4470004872239653e-18,0.1884602357761002,1.1801165408975176e-17,0.1884602357761002,1.4488856512270193e-19,0.008049719547120172,1.1801165408975176e-17,0.008049719547120172,-9.766199292640311e-18,0.18863207164628867,-1.0757882980652532e-17,-0.18863207164628865,0.04911325016651731,0.9975849724791178,0.049113250166517394,500.0,96.42857142857196,[0.86524892]
-2.1123057313094868e-18,0.16705390158141603,1.3491981986172479e-17,0.16705390158141603,-6.227858535418687e-19,0.008669855331040182,1.3491981986172479e-17,0.008669855331040182,-1.1966015847222416e-17,0.16727872675577896,-1.333529333714262e-17,-0.16727872675577896,0.042646377028052025,0.9981796296522798,0.04264637702805213,500.0,96.42857142857196,[0.39296636]
-3.5307820841816915e-18,0.05401066619762003,1.5194210330136896e-17,0.05401066619762003,-5.17449579197535e-18,0.007891650266722571,1.5194210330136896e-17,0.007891650266722571,-1.6775343448773166e-17,0.05458415710664587,-2.0847421014878603e-17,-0.05458415710664587,0.023250010316818007,0.9994592908370684,0.02325001031681762,500.0,96.42857142857196,[0.21135432]
-3.116398925288046e-18,0.05405166913803178,1.481154631413701e-17,0.05405166913803178,-5.216677628205596e-18,0.0009301984443490679,1.481154631413701e-17,0.0009301984443490679,-1.6339648795653007e-17,0.05405967263823493,-1.684532388425083e-17,-0.05405967263823494,0.09124971833965421,0.9916385318279376,0.09124971833965384,500.0,83.57142857142804,[0.21427754]
-8.42558882417366e-19,0.16718825028575374,1.2976305971388668e-17,0.16718825028575374,-7.460744532773651e-19,0.00015759491080430017,1.2976305971388668e-17,0.00015759491080430017,-1.065866269227134e-17,0.16718832456175806,-1.0683117404495483e-17,-0.16718832456175808,0.07983314648556779,0.9936062285656364,0.07983314648556769,500.0,83.57142857142804,[0.38006951]
6.542385497665394e-19,0.18868606810929264,1.1122852930703017e-17,0.18868606810929264,-7.361280603913996e-20,0.0007787454958433181,1.1122852930703017e-17,0.0007787454958433181,-7.59559681858902e-18,0.1886876751223882,-7.687267457702651e-18,-0.18868767512238818,0.08207016365080917,0.9932416505949894,0.08207016365080907,500.0,83.57142857142804,[0.85528465]
2.0576950604735828e-18,0.1974172088552578,9.242556009097915e-18,0.1974172088552578,1.0179958479471106e-19,0.0008128611387578691,9.242556009097915e-18,0.0008128611387578691,-5.117757389652935e-18,0.1974188823173492,-5.193744862780398e-18,-0.1974188823173492,0.08206333485049723,0.9932427790557706,0.08206333485049717,500.0,83.57142857142804,[0.85528465]
3.441625352435853e-18,0.20194598517078424,7.365734552267733e-18,0.20194598517078424,9.35318887228494e-20,0.0005736480608576019,7.365734552267733e-18,0.0005736480608576019,-2.8545277863699294e-18,0.20194679992190104,-2.8963230869357548e-18,-0.20194679992190107,0.08116649168632194,0.9933901556058768,0.08116649168632188,500.0,83.57142857142804,[0.85235207]
4.810361990906748e-18,0.20449680531468337,5.4832659164319865e-18,0.20449680531468337,1.3094471045106166e-20,0.0001759210077137918,5.4832659164319865e-18,0.0001759210077137918,-6.941271893071953e-19,0.20449688098382446,-7.035571954846684e-19,-0.20449688098382446,0.0797752836431841,0.9936155233485932,0.07977528364318405,500.0,83.57142857142804,[0.84424153]
6.159561812381272e-18,0.20588496006533274,3.6035095387779355e-18,0.20588496006533274,-1.0532694788292713e-19,-0.0003406546997408896,3.6035095387779355e-18,-0.0003406546997408896,1.4111974736744677e-18,0.20588524188665908,1.4231350053933744e-18,-0.20588524188665908,0.0780081199468793,0.9938961044519224,0.07800811994687927,500.0,83.57142857142804,[0.90068238]
7.5103895253013e-18,0.20645232752154383,1.7149177962007872e-18,0.20645232752154383,-2.6227479982586777e-19,-0.0009694504114641964,1.7149177962007872e-18,-0.0009694504114641964,3.4684993390137527e-18,0.2064546036618295,3.484697241700494e-18,-0.20645460366182952,0.07587047867299959,0.9942270067403418,0.07587047867299959,500.0,83.57142857142804,[0.90287828]
8.861215118571009e-18,0.20632700501871568,-1.748785370291211e-19,0.20632700501871568,-4.425559612049217e-19,-0.0017251956161706556,-1.748785370291211e-19,-0.0017251956161706556,5.496227843093041e-18,0.20633421747230193,5.493539085875993e-18,-0.2063342174723019,0.07329300728992551,0.9946136285838828,0.07329300728992551,500.0,83.57142857142804,[0.90758449]
1.020444812439567e-17,0.20550051328078134,-2.0753921203510924e-18,0.20550051328078134,-6.524102188876815e-19,-0.002644916818886606,-2.0753921203510924e-18,-0.002644916818886606,7.481903544655294e-18,0.20551753342146606,7.429019323525013e-18,-0.20551753342146606,0.07012136205184955,0.9950708463059236,0.07012136205184957,500.0,83.57142857142804,[0.90918953]
1.1526512182477814e-17,0.20382510071350535,-3.969547547582933e-18,0.20382510071350535,-8.915666550676648e-19,-0.003799756053039326,-3.969547547582933e-18,-0.003799756053039326,9.421725910677347e-18,0.20386051561529314,9.274726921301986e-18,-0.20386051561529314,0.06606019527484212,0.9956264867913567,0.06606019527484214,500.0,83.57142857142804,[0.8530619]
1.2863776253002294e-17,0.2009290504632382,-5.879592337284504e-18,0.2009290504632382,-1.1653159169427606e-18,-0.00532686408391133,-5.879592337284504e-18,-0.00532686408391133,1.1308236421596872e-17,0.20099964875846676,1.0998084229181867e-17,-0.2009996487584668,0.060521220330542115,0.996330449087753,0.06052122033054217,500.0,83.57142857142804,[0.86046453]
1.416901876614756e-17,0.19594001501454,-7.806425088713202e-18,0.19594001501454,-1.532668804456212e-18,-0.007515756177177154,-7.806425088713202e-18,-0.007515756177177154,1.3100870799333821e-17,0.19608410459497463,1.2505099525325208e-17,-0.19608410459497466,0.05218020908601128,0.9972735089028889,0.052180209086011335,500.0,83.57142857142804,[0.86046453]
1.5425426655578015e-17,0.18649599888755586,-9.761390269738496e-18,0.18649599888755586,-2.0561640105520582e-18,-0.011084152606956136,-9.761390269738496e-18,-0.011084152606956136,1.467672535940293e-17,0.18682509478140655,1.351481955570311e-17,-0.18682509478140652,0.03734320148428669,0.9986045116089791,0.03734320148428676,500.0,83.57142857142804,[0.86046453]
1.6600439972733253e-17,0.1635812245505377,-1.1818302781809685e-17,0.1635812245505377,-3.097193038697832e-18,-0.018324726142734813,-1.1818302781809685e-17,-0.018324726142734813,1.568525922080119e-17,0.16460441249753802,1.3044941147306275e-17,-0.164604412497538,0.0004544177502498003,0.999999793504487,0.0004544177502499246,500.0,83.57142857142804,[0.38286244]
1.6888252452088615e-17,0.04632290354663683,-1.4252106342876542e-17,0.04632290354663683,-7.936771362263857e-18,-0.03602709514183656,-1.4252106342876542e-17,-0.03602709514183656,1.415889584613341e-17,0.058683583542162535,1.0493581940586755e-19,-0.05868358354216246,0.36888337933473947,0.8531413159032712,0.3688833793347396,500.0,83.57142857142804,[0.19597274]
1.6809047478593613e-17,0.0433372246234315,-1.4481655993895214e-17,0.0433372246234315,-8.013091889108227e-18,-0.04232375319339828,-1.4481655993895214e-17,-0.04232375319339828,1.4259538433048944e-17,0.06057569745729264,4.379216103706322e-19,-0.0605756974572926,0.29924376166055644,0.90603881937502,0.2992437616605568,500.0,70.71428571428592,[0.20930965]
1.6609736759035313e-17,0.160003001098462,-1.1955909950649895e-17,0.160003001098462,-3.3216773878432243e-18,-0.02607034094645478,-1.1955909950649895e-17,-0.02607034094645478,1.5716955941768914e-17,0.16211299465983234,1.1861216886546383e-17,-0.16211299465983225,0.12317013783984666,0.9847122596418849,0.12317013783984669,500.0,70.71428571428592,[0.378157]
1.551181300435605e-17,0.18353488950122093,-9.838086769558315e-18,0.18353488950122093,-2.418636933117056e-18,-0.017762780215121884,-9.838086769558315e-18,-0.017762780215121884,1.465290578893567e-17,0.1843924402604296,1.2757511165872831e-17,-0.1843924402604295,0.1681623279499009,0.971309869669273,0.16816232794990105,500.0,70.71428571428592,[0.84828769]
1.430483748003055e-17,0.19308784536579265,-7.852513606080276e-18,0.19308784536579265,-2.0357071328388057e-18,-0.014180905578377565,-7.852513606080276e-18,-0.014180905578377565,1.3033202552616188e-17,0.19360788752276364,1.1886193875449074e-17,-0.1936078875227636,0.18402928529937043,0.9655394576631271,0.1840292852993705,500.0,70.71428571428592,[0.84814186]
1.3066393627059275e-17,0.19795008887186816,-5.8994986689467594e-18,0.19795008887186816,-1.828317631043384e-18,-0.012466779567793712,-5.8994986689467594e-18,-0.012466779567793712,1.120756945870266e-17,0.19834227556719336,1.0475312343772164e-17,-0.19834227556719328,0.191129776366794,0.9627766185216374,0.19112977636679407,500.0,70.71428571428592,[0.83657342]
1.1809491859104336e-17,0.20058327822613692,-3.975158758772135e-18,0.20058327822613692,-1.6829233968412965e-18,-0.01169576987662477,-3.975158758772135e-18,-0.01169576987662477,9.292539582644594e-18,0.20092397203158924,8.849516761806343e-18,-0.2009239720315892,0.19429572450207747,0.9615083685961479,0.19429572450207747,500.0,70.71428571428592,[0.81653199]
1.051786597961261e-17,0.20189416112732528,-2.069642005826879e-18,0.20189416112732528,-1.5874503720991395e-18,-0.011506857966305184,-2.069642005826879e-18,-0.011506857966305184,7.314291135802455e-18,0.2022218091046638,7.093689085996347e-18,-0.20222180910466386,0.19518617019017537,0.9611476046544484,0.1951861701901754,500.0,70.71428571428592,[0.81156525]
9.21863903407456e-18,0.20226016835496174,-1.669744603456911e-19,0.20226016835496174,-1.5268408259022873e-18,-0.011750921370021447,-1.669744603456911e-19,-0.011750921370021447,5.295894392255501e-18,0.20260123359945742,5.290041005255469e-18,-0.20260123359945745,0.19443852181627366,0.961450634441418,0.1944385218162737,500.0,70.71428571428592,[0.81653199]
7.907482696537421e-18,0.20181622385405637,1.7193118313134571e-18,0.20181622385405637,-1.4920059626362977e-18,-0.01238333627160316,1.7193118313134571e-18,-0.01238333627160316,3.2534809507615588e-18,0.20219578439701988,3.4817132442213056e-18,-0.20219578439701985,0.19222811305342039,0.9623391840218515,0.19222811305342039,500.0,70.71428571428592,[0.82205994]
6.605542598590197e-18,0.2005386276056566,3.603969834092666e-18,0.2005386276056566,-1.4780607831832076e-18,-0.013433777017528545,3.603969834092666e-18,-0.013433777017528545,1.1767493107670451e-18,0.20098807807160318,1.6687235365131335e-18,-0.20098807807160318,0.1884104250217562,0.963848029248513,0.18841042502175617,500.0,70.71428571428592,[0.84234437]
5.292754130306914e-18,0.19823749908119018,5.470839068998503e-18,0.19823749908119018,-1.5022356600353013e-18,-0.015015694248858439,5.470839068998503e-18,-0.015015694248858439,-9.414978003884687e-19,0.19880537496692602,-9.174089764011814e-20,-0.19880537496692602,0.1824650092737473,0.9661330347221663,0.18246500927374723,500.0,70.71428571428592,[0.84693128]
3.977795140096293e-18,0.19445190211497604,7.322751455097117e-18,0.19445190211497604,-1.5683282116965524e-18,-0.017382845813298072,7.322751455097117e-18,-0.017382845813298072,-3.1111538505720296e-18,0.1952273176701998,-1.7473173973419654e-18,-0.19522731767019985,0.17318799309828517,0.9695420764944537,0.17318799309828511,500.0,70.71428571428592,[0.85746911]
2.5884957738743067e-18,0.18811528743310207,9.132253215209105e-18,0.18811528743310207,-1.7084892942156717e-18,-0.021096583174516407,9.132253215209105e-18,-0.021096583174516407,-5.3698034194268144e-18,0.18929455139458692,-3.2839962772424046e-18,-0.18929455139458695,0.15770402203209166,0.9748122295446459,0.15770402203209166,500.0,70.71428571428592,[0.84416447]
1.1603983282011329e-18,0.17638045713822612,1.0884964972761211e-17,0.17638045713822612,-2.0047234092473614e-18,-0.0275650118142069,1.0884964972761211e-17,-0.0275650118142069,-7.818644972164692e-18,0.178521414784353,-4.375629696445905e-18,-0.17852141478435296,0.12768625184233476,0.9835611024135267,0.12768625184233462,500.0,70.71428571428592,[0.38773994]
-4.3047554412055884e-19,0.14869381642289425,1.2452656030819486e-17,0.14869381642289425,-2.8359919742370202e-18,-0.04123310166646972,1.2452656030819486e-17,-0.04123310166646972,-1.0770095889051721e-17,0.15430495687256068,-3.667429127813905e-18,-0.15430495687256052,0.04670153645905109,0.9978165828371104,0.0467015364590509,500.0,70.71428571428592,[0.38084162]
-3.1280612413468545e-18,0.02029256684259634,1.3308652833872816e-17,0.02029256684259634,-7.449595834482927e-18,-0.07235455361638679,1.3308652833872816e-17,-0.07235455361638679,-1.5999103655644966e-17,0.0751463219198906,3.552417015245783e-18,-0.07514632191989064,0.5795646819574781,0.572895766134691,0.5795646819574781,500.0,70.71428571428592,[0.26193977]
-3.642254494492986e-18,0.014866511977065596,1.313182272817047e-17,0.014866511977065596,-7.459540173957645e-18,-0.07673899736646246,1.313182272817047e-17,-0.07673899736646246,-1.5744337584598374e-17,0.07816576549343172,1.1416815660344826e-17,-0.07816576549343172,0.516244905857362,0.6833611009946698,0.5162449058573616,500.0,57.857142857142705,[0.2630624]
-1.4930986423760861e-18,0.14209770815810344,1.2316081926553822e-17,0.14209770815810344,-2.8563284293164866e-18,-0.04667707833454911,1.2316081926553822e-17,-0.04667707833454911,-1.0488598907823807e-17,0.14956773818452693,-2.1220983488070926e-18,-0.1495677381845269,0.1705645021931692,0.9704717930899346,0.17056450219316902,500.0,57.857142857142705,[0.36535428]
-4.729024649190161e-19,0.17079570498967067,1.0765093646775451e-17,0.17079570498967067,-2.037488963888776e-18,-0.03232703063344275,1.0765093646775451e-17,-0.03232703063344275,-7.479624920561651e-18,0.17382810403526283,-3.2217841086529816e-18,-0.1738281040352629,0.2582951567367656,0.930895925446373,0.25829515673676556,500.0,57.857142857142705,[0.38016613]
3.438157604512877e-19,0.1826269320005875,9.008363760847056e-18,0.1826269320005875,-1.7361833205109925e-18,-0.02590552166371581,9.008363760847056e-18,-0.02590552166371581,-4.955899301505413e-18,0.18445512284731055,-2.371637546541459e-18,-0.18445512284731055,0.28838787283886586,0.9130525010090866,0.28838787283886586,500.0,57.857142857142705,[0.76769269]
1.1054569919153608e-18,0.18863573598960656,7.184619010412064e-18,0.18863573598960656,-1.6107572521453294e-18,-0.022576430906882515,7.184619010412064e-18,-0.022576430906882515,-2.6151736927976372e-18,0.18998193631193938,-9.472882380442898e-19,-0.18998193631193933,0.3023885459648854,0.9039481923973767,0.30238854596488535,500.0,57.857142857142705,[0.7701035]
1.8220598933871466e-18,0.19184890441888114,5.318786218273471e-18,0.19184890441888114,-1.5374904790208749e-18,-0.02078844281427573,5.318786218273471e-18,-0.02078844281427573,-3.5048206070664084e-19,0.192971918893313,8.804120407344178e-19,-0.192971918893313,0.3095148720958847,0.8991112767076922,0.3095148720958847,500.0,57.857142857142705,[0.76882727]
2.5058336507079278e-18,0.19339502235431702,3.4315364793049622e-18,0.19339502235431702,-1.5280506163222373e-18,-0.019930689444089256,3.4315364793049622e-18,-0.019930689444089256,1.864753890125882e-18,0.19441930730548218,2.6238710718498752e-18,-0.1944193073054822,0.31284388619070763,0.8968039951662745,0.31284388619070763,500.0,57.857142857142705,[0.76721325]
3.1963818104503656e-18,0.19374538557540755,1.5237683927639298e-18,0.19374538557540755,-1.5579525233817818e-18,-0.019741089640783995,1.5237683927639298e-18,-0.019741089640783995,4.0486614092337245e-18,0.19474851745769153,4.2602819987475415e-18,-0.19474851745769145,0.3135747493446171,0.8962933410144922,0.313574749344617,500.0,57.857142857142705,[0.76721325]
3.8609176214698475e-18,0.19306682817402465,-3.8844314323784954e-19,0.19306682817402465,-1.6093540436337097e-18,-0.02012450404889782,-3.8844314323784954e-19,-0.02012450404889782,6.2042080070644216e-18,0.1941128429661274,6.116106863991812e-18,-0.19411284296612746,0.31210393598400565,0.8973194895278845,0.31210393598400565,500.0,57.857142857142705,[0.76882727]
4.518619679858723e-18,0.19132513357224176,-2.320239983237063e-18,0.19132513357224176,-1.6705896815437334e-18,-0.021097376822485202,-2.320239983237063e-18,-0.021097376822485202,8.330526746637227e-18,0.19248482029818903,7.796268884918289e-18,-0.19248482029818897,0.3083134968596103,0.8999364284817002,0.3083134968596101,500.0,57.857142857142705,[0.76882727]
5.148410182838222e-18,0.1882741139496276,-4.268350446965305e-18,0.1882741139496276,-1.768725252043682e-18,-0.022792996117964887,-4.268350446965305e-18,-0.022792996117964887,1.0431814535585084e-17,0.1896487876458769,9.258883472254766e-18,-0.18964878764587695,0.3015186958826927,0.9045291327903158,0.3015186958826928,500.0,57.857142857142705,[0.7701035]
5.7546132170604645e-18,0.1833218616476786,-6.2436263491904014e-18,0.1833218616476786,-1.9102034322801846e-18,-0.02553146609693051,-6.2436263491904014e-18,-0.02553146609693051,1.2481213284707491e-17,0.18509122269580833,1.0590033155638686e-17,-0.1850912226958083,0.2900192180465083,0.9120184791589389,0.2900192180465084,500.0,57.857142857142705,[0.76769269]
6.325545269963447e-18,0.17510891825060432,-8.256598510134892e-18,0.17510891825060432,-2.139719168893742e-18,-0.030034790909288688,-8.256598510134892e-18,-0.030034790909288688,1.446970176224394e-17,0.17766604041251532,1.1540239171391642e-17,-0.17766604041251527,0.269573313224467,0.924478478708059,0.2695733132244671,500.0,57.857142857142705,[0.37155152]
6.7881547129301595e-18,0.16005139219559,-1.036420961342075e-17,0.16005139219559,-2.5318926317379155e-18,-0.03812256785052603,-1.036420961342075e-17,-0.03812256785052603,1.629485846474812e-17,0.16452895891989516,1.0855233174933366e-17,-0.16452895891989514,0.22723646940062564,0.9469567962418758,0.22723646940062572,500.0,57.857142857142705,[0.36440833]
6.992014202074465e-18,0.12527632157900861,-1.270505047811466e-17,0.12527632157900861,-3.4201617732989035e-18,-0.055511683323408466,-1.270505047811466e-17,-0.055511683323408466,1.7719009121526074e-17,0.1370244639973665,6.8027445532986736e-18,-0.1370244639973665,0.10139203106170322,0.9896662629767499,0.10139203106170301,500.0,57.857142857142705,[0.34253455]
5.7315683787850434e-18,-0.018986874296429233,-1.5937585574329846e-17,-0.018986874296429233,-8.125194100520752e-18,-0.09388905425720413,-1.5937585574329846e-17,-0.09388905425720413,1.7230862131508012e-17,0.09578964403765486,2.1916244103395987e-17,-0.09578964403765484,0.6614138598886692,0.35364305718385547,0.6614138598886693,500.0,57.857142857142705,[0.26886425]
5.748915597001199e-18,-0.025781980180172148,-1.6934800238064795e-17,-0.025781980180172148,-8.095145937589151e-18,-0.0954922949722916,-1.6934800238064795e-17,-0.0954922949722916,1.8607261305884505e-17,0.09891152056806092,8.092371731817827e-18,-0.09891152056806089,0.6130442361818469,0.4983508091379324,0.6130442361818469,500.0,45.00000000000011,[0.31268561]
7.671591051762305e-18,0.11695979676483723,-1.553244488569882e-17,0.11695979676483723,-3.3093655314395828e-18,-0.057573976112524024,-1.553244488569882e-17,-0.057573976112524024,2.12657564119155e-17,0.1303624055649386,7.049694579988168e-18,-0.1303624055649386,0.22777203441037513,0.946699424675603,0.22777203441037505,500.0,45.00000000000011,[0.32766726]
8.085363751363887e-18,0.15293441587219128,-1.503714566558962e-17,0.15293441587219128,-2.31535551403168e-18,-0.04002178312281812,-1.503714566558962e-17,-0.04002178312281812,2.203281970889728e-17,0.1580844036662006,1.3789870644681146e-17,-0.15808440366620058,0.3571276803111799,0.8630872724766083,0.35712768031118003,500.0,45.00000000000011,[0.34607119]
8.204572885341967e-18,0.16805095536452896,-1.478955620061284e-17,0.16805095536452896,-1.8467792554151047e-18,-0.03203079615658032,-1.478955620061284e-17,-0.03203079615658032,2.242527720488429e-17,0.17107628561947238,1.6443649248199374e-17,-0.17107628561947247,0.3975424142376459,0.826994593551982,0.39754241423764597,500.0,45.00000000000011,[0.3543989]
8.206506006433503e-18,0.17579428279623052,-1.4629854326753e-17,0.17579428279623052,-1.5397775817157957e-18,-0.027744564790574,-1.4629854326753e-17,-0.027744564790574,2.2676180213223288e-17,0.17797019621065613,1.771631621288447e-17,-0.17797019621065607,0.41593963809090745,0.8086955143498756,0.4159396380909074,500.0,45.00000000000011,[0.3646202]
8.171099367493783e-18,0.17997226014404297,-1.4517479475318108e-17,0.17997226014404297,-1.3099566154562065e-18,-0.025292348508335782,-1.4517479475318108e-17,-0.025292348508335782,2.2872782019673054e-17,0.18174079705564797,1.8636563221150973e-17,-0.18174079705564786,0.4255508783433605,0.7986318926028365,0.4255508783433606,500.0,45.00000000000011,[0.39227633]
8.107781173144687e-18,0.18202174871254043,-1.4426807988462577e-17,0.18202174871254043,-1.1223675621656651e-18,-0.023934421274744558,-1.4426807988462577e-17,-0.023934421274744558,2.3023302628173256e-17,0.18358859857335413,1.8976235685573133e-17,-0.18358859857335405,0.43054778092505175,0.7932573458096858,0.43054778092505186,500.0,45.00000000000011,[0.75120988]
8.005122268862568e-18,0.18254762583743997,-1.436279242915831e-17,0.18254762583743997,-9.674041665954404e-19,-0.02334765307849139,-1.436279242915831e-17,-0.02334765307849139,2.3153160885357344e-17,0.1840346396827499,1.931704738784187e-17,-0.18403463968274994,0.43252719442760024,0.791100785084415,0.43252719442760035,500.0,45.00000000000011,[0.7073424]
7.881165118168434e-18,0.1817673938162461,-1.4302591180604283e-17,0.1817673938162461,-8.352270119616373e-19,-0.02340523394245438,-1.4302591180604283e-17,-0.02340523394245438,2.3257540945699032e-17,0.18326808350242357,1.9383319518165895e-17,-0.18326808350242352,0.43205056998289887,0.7916215067536405,0.432050569982899,500.0,45.00000000000011,[0.71677653]
7.750425086451365e-18,0.1796431007595692,-1.426936778149382e-17,0.1796431007595692,-7.355949683360033e-19,-0.024107122189985987,-1.426936778149382e-17,-0.024107122189985987,2.3347753263304065e-17,0.18125340545985785,1.9387545755248285e-17,-0.18125340545985788,0.4290567070311662,0.794871489174913,0.42905670703116633,500.0,45.00000000000011,[0.39227633]
7.587262883444668e-18,0.1758692191057754,-1.4244615564885908e-17,0.1758692191057754,-6.533440573316399e-19,-0.025580045385286937,-1.4244615564885908e-17,-0.025580045385286937,2.3407094993653466e-17,0.1777197821031428,1.8956625434116998e-17,-0.17771978210314282,0.42282623786153717,0.8015210197815885,0.42282623786153734,500.0,45.00000000000011,[0.3646202]
7.395748237762103e-18,0.16970705109178072,-1.4255334106639885e-17,0.16970705109178072,-6.351150645825025e-19,-0.028147054619642592,-1.4255334106639885e-17,-0.028147054619642592,2.3438737133625457e-17,0.17202540473438632,1.83480714941245e-17,-0.17202540473438632,0.41145084556176975,0.8132751092791477,0.4114508455617698,500.0,45.00000000000011,[0.37687874]
7.113309071967097e-18,0.15946352861761404,-1.430229972868533e-17,0.15946352861761404,-6.744049029078525e-19,-0.0325478060928898,-1.430229972868533e-17,-0.0325478060928898,2.342153405163104e-17,0.16275127231650438,1.7157835815300318e-17,-0.16275127231650433,0.3899070056973482,0.8342332130862785,0.38990700569734826,500.0,45.00000000000011,[0.3543989]
6.7090154485950674e-18,0.14071247861038685,-1.444455529067657e-17,0.14071247861038685,-9.041495617559338e-19,-0.04065299664178536,-1.444455529067657e-17,-0.04065299664178536,2.3292481261568425e-17,0.14646729250121196,1.4176696028084445e-17,-0.14646729250121193,0.3415761985488097,0.8755863185145645,0.34157619854880983,500.0,45.00000000000011,[0.35922128]
5.9348174086372855e-18,0.09793939317487728,-1.4829960710050046e-17,0.09793939317487728,-1.6315202868516288e-18,-0.05831913190636449,-1.4829960710050046e-17,-0.05831913190636449,2.2869390579161587e-17,0.11398791989406228,9.215142333138993e-18,-0.11398791989406219,0.1737914917007637,0.9693260724982314,0.17379149170076383,500.0,45.00000000000011,[0.33779462]
3.2754532459752283e-18,-0.06376001868746475,-1.6114435949188374e-17,-0.06376001868746475,-6.140457404050112e-18,-0.09635161446802681,-1.6114435949188374e-17,-0.09635161446802681,2.093340372039297e-17,0.11553775830273462,1.6740551679659792e-17,-0.11553775830273463,0.6928974367667905,0.19946499503427373,0.6928974367667906,500.0,45.00000000000011,[0.15644884]
2.7025711147781524e-18,-0.07057891783603747,-1.5547322976248853e-17,-0.07057891783603747,-6.236587785347657e-18,-0.09485496521491228,-1.5547322976248853e-17,-0.09485496521491228,2.128420584829788e-17,0.11823217865212643,2.306095515612661e-17,-0.11823217865212649,0.6592290831844367,0.3617098723668102,0.6592290831844366,500.0,32.14285714285738,[0.23223418]
4.82696945116134e-18,0.08954898391248464,-1.3258129776200246e-17,0.08954898391248464,-1.8780864906365882e-18,-0.0565878441007081,-1.3258129776200246e-17,-0.0565878441007081,2.3315017383767126e-17,0.10593018748083327,3.928355981892596e-18,-0.10593018748083317,0.30516909396783176,0.9020774069744265,0.3051690939678319,500.0,32.14285714285738,[0.2847308]
5.0554847128240146e-18,0.13347198968680515,-1.1865594763765285e-17,0.13347198968680515,-1.3310725719407304e-18,-0.03930752943713637,-1.1865594763765285e-17,-0.03930752943713637,2.3873401106777678e-17,0.13913969204150892,1.5515882935795378e-17,-0.13913969204150894,0.46805702487131584,0.7495633681932597,0.4680570248713158,500.0,32.14285714285738,[0.31987311]
4.8716008082922514e-18,0.1522326777475002,-1.0705251546472464e-17,0.1522326777475002,-1.2582922585646397e-18,-0.03132755954644739,-1.0705251546472464e-17,-0.03132755954644739,2.4161520935429392e-17,0.1554226629591401,1.9259555463798774e-17,-0.15542266295914015,0.5106069053181358,0.6917811622781245,0.5106069053181359,500.0,32.14285714285738,[0.33188642]
4.521468489888356e-18,0.16195744077155053,-9.635334731466962e-18,0.16195744077155053,-1.3787223111268476e-18,-0.02693109898822396,-9.635334731466962e-18,-0.02693109898822396,2.4356596593648998e-17,0.16418129221681688,2.075114805323404e-17,-0.16418129221681682,0.5289049727297968,0.6637160986772773,0.528904972729797,500.0,32.14285714285738,[0.33188642]
4.109679782985982e-18,0.1672964445778983,-8.610425511524112e-18,0.1672964445778983,-1.5778337835550996e-18,-0.02429850927503847,-8.610425511524112e-18,-0.02429850927503847,2.4509058801842016e-17,0.16905182022502716,2.15528470452178e-17,-0.16905182022502718,0.5384342101181626,0.6482107703122959,0.538434210118163,500.0,32.14285714285738,[0.33188642]
3.652310115609487e-18,0.17002019337965352,-7.607221510854654e-18,0.17002019337965352,-1.8296312843289976e-18,-0.02270772199237248,-7.607221510854654e-18,-0.02270772199237248,2.4632151135205725e-17,0.17152990058569284,2.2295514886883716e-17,-0.1715299005856927,0.5436516760610156,0.6394417176194375,0.5436516760610157,500.0,32.14285714285738,[0.35476787]
3.163400051476345e-18,0.170880391205239,-6.626142420221882e-18,0.170880391205239,-2.0966054813917123e-18,-0.021838561829103285,-6.626142420221882e-18,-0.021838561829103285,2.4734114794182993e-17,0.17227022633414954,2.2695901940044776e-17,-0.17227022633414935,0.5462030350987432,0.6350783328833077,0.5462030350987432,500.0,32.14285714285738,[0.36291343]
2.6538700290334804e-18,0.17015391761521975,-5.653734819046866e-18,0.17015391761521975,-2.382588702521202e-18,-0.021557667871980914,-5.653734819046866e-18,-0.021557667871980914,2.4827040264197203e-17,0.1715141064865675,2.3138664726006928e-17,-0.17151410648656767,0.5466911043488094,0.6342378677213769,0.5466911043488092,500.0,32.14285714285738,[0.35476787]
2.1075767914463094e-18,0.1678065934378653,-4.698128626130693e-18,0.1678065934378653,-2.7033172316906753e-18,-0.02184852396463639,-4.698128626130693e-18,-0.02184852396463639,2.4904534679884234e-17,0.16922296180085694,2.3463698473894732e-17,-0.16922296180085705,0.545141238009843,0.6369003542487561,0.5451412380098429,500.0,32.14285714285738,[0.32915395]
1.5294040130513448e-18,0.1634822594234359,-3.757336669298674e-18,0.1634822594234359,-3.050634654470053e-18,-0.022806199892885393,-3.757336669298674e-18,-0.022806199892885393,2.496842941912028e-17,0.16506535644933437,2.343897902123496e-17,-0.1650653564493345,0.5410041901168285,0.6439168677337695,0.5410041901168287,500.0,32.14285714285738,[0.32915395]
9.059215894231755e-19,0.15630867085687578,-2.8329656434931155e-18,0.15630867085687578,-3.441905146278049e-18,-0.02469271187753526,-2.8329656434931155e-18,-0.02469271187753526,2.5010788511108508e-17,0.15824705559633667,2.3495652434930398e-17,-0.15824705559633667,0.532688169759806,0.6576371549691333,0.5326881697598062,500.0,32.14285714285738,[0.33188642]
2.16373904631621e-19,0.14428451377105422,-1.9561977245666418e-18,0.14428451377105422,-3.9308491248163056e-18,-0.028118872331745957,-1.9561977245666418e-18,-0.028118872331745957,2.5019843657274126e-17,0.14699895202129362,2.328447105769365e-17,-0.14699895202129365,0.5157060192733561,0.6841743954361766,0.5157060192733562,500.0,32.14285714285738,[0.33188642]
-6.675711502772457e-19,0.12220255955101769,-1.146228465814158e-18,0.12220255955101769,-4.57671505582016e-18,-0.03463596521554925,-1.146228465814158e-18,-0.03463596521554925,2.4956152404468768e-17,0.12701620230204003,2.2505202742746456e-17,-0.12701620230204005,0.47344736271415716,0.7427618659287907,0.473447362714157,500.0,32.14285714285738,[0.28678363]
-2.0432750793488873e-18,0.07210775640340188,-5.461808961202286e-19,0.07210775640340188,-5.7277021366019706e-18,-0.04908016536508903,-5.461808961202286e-19,-0.04908016536508903,2.4704677090543456e-17,0.08722609223046068,1.3447927842009749e-17,-0.08722609223046078,0.28327011749616654,0.9162511015368089,0.28327011749616676,500.0,32.14285714285738,[0.20973459]
-5.653124359754802e-18,-0.10514703949230343,-6.763592205025856e-19,-0.10514703949230343,-1.0675508613186895e-17,-0.0792352255892491,-6.763592205025856e-19,-0.0792352255892491,2.330798014470583e-17,0.13165910864112373,1.1110709323014366e-17,-0.13165910864112373,0.7045670431934501,0.08467917861716576,0.7045670431934501,500.0,32.14285714285738,[0.13542411]
-6.1840882862301404e-18,-0.11063851895085602,6.894798559813252e-20,-0.11063851895085602,-1.0589094708954705e-17,-0.07493389175201759,6.894798559813252e-20,-0.07493389175201759,2.247456755341783e-17,0.13362623248727024,6.5300765125497666e-18,-0.13362623248727026,0.683573197183138,0.2558424675178965,0.6835731971831378,500.0,19.285714285714306,[0.21921986]
-3.1560745399715754e-18,0.06530830618521805,1.28522665517665e-18,0.06530830618521805,-5.478939975085836e-18,-0.04389454458281765,1.28522665517665e-18,-0.04389454458281765,2.171098472226094e-17,0.07868866437368956,1.7083038822876015e-17,-0.07868866437368952,0.42365996609971884,0.8006400353771785,0.4236599660997192,500.0,19.285714285714306,[0.22471849]
-2.4016825126007635e-18,0.11627776726057375,1.789141723922716e-18,0.11627776726057375,-4.149902267451986e-18,-0.030306243641018592,1.789141723922716e-18,-0.030306243641018592,1.983965567684345e-17,0.1201623383707762,1.8935474229249755e-17,-0.12016233837077624,0.5869479862190082,0.557659504488986,0.5869479862190082,500.0,19.285714285714306,[0.30091475]
-2.1588553719796967e-18,0.13832003716131755,2.1149616531600297e-18,0.13832003716131755,-3.3475552712490255e-18,-0.023915630030029056,2.1149616531600297e-18,-0.023915630030029056,1.7798144146560527e-17,0.14037232647513362,1.7972912505872227e-17,-0.1403723264751337,0.6178790058953197,0.48626234498223603,0.6178790058953199,500.0,19.285714285714306,[0.34233676]
-2.103778378073466e-18,0.1498808489280722,2.3740761868374188e-18,0.1498808489280722,-2.7068443298226014e-18,-0.020277774455995278,2.3740761868374188e-18,-0.020277774455995278,1.5693144849902933e-17,0.15124634545101515,1.6054094761728208e-17,-0.15124634545101517,0.6300892576028729,0.4538447475810656,0.6300892576028728,500.0,19.285714285714306,[0.35416356]
-2.1317238478879574e-18,0.1563470716582451,2.600738874120704e-18,0.1563470716582451,-2.1380319272392868e-18,-0.017984544542391716,2.600738874120704e-18,-0.017984544542391716,1.3567254279694701e-17,0.15737805011660838,1.3971789985412696e-17,-0.1573780501166085,0.6363656899765133,0.4359786889762303,0.6363656899765133,500.0,19.285714285714306,[0.35416356]
-2.2063355391402405e-18,0.1597821371574583,2.8032163512565873e-18,0.1597821371574583,-1.609645495552664e-18,-0.016474546121223458,2.8032163512565873e-18,-0.016474546121223458,1.1421693354519955e-17,0.16062920663598243,1.18452594507703e-17,-0.16062920663598235,0.6399539384797621,0.4253444642269155,0.639953938479762,500.0,19.285714285714306,[0.35416356]
-2.3428071053216892e-18,0.16106874181235034,2.990936822866948e-18,0.16106874181235034,-1.1296888343697954e-18,-0.01549397492400132,2.990936822866948e-18,-0.01549397492400132,9.258022137013975e-18,0.1618122456674993,9.737117823900838e-18,-0.1618122456674993,0.6419972227312324,0.41914094528066476,0.6419972227312323,500.0,19.285714285714306,[0.35203637]
-2.489046020176164e-18,0.1605400937273543,3.179026113632931e-18,0.1605400937273543,-6.730652839058229e-19,-0.014929334077548009,3.179026113632931e-18,-0.014929334077548009,7.098352819311526e-18,0.16123277182380366,7.59198397319782e-18,-0.1612327718238037,0.642934095741627,0.416258930313564,0.6429340957416272,500.0,19.285714285714306,[0.35203637]
-2.6751682754454957e-18,0.15817255101708544,3.3523583988733912e-18,0.15817255101708544,-2.428271406210668e-19,-0.014750904892135427,3.3523583988733912e-18,-0.014750904892135427,4.9230150464460974e-18,0.15885888420352612,5.477522971874871e-18,-0.15885888420352615,0.6428570702764225,0.4164967879722839,0.6428570702764222,500.0,19.285714285714306,[0.35203637]
-2.8756702384834492e-18,0.15357806389873518,3.517233279338379e-18,0.15357806389873518,1.6387440551410542e-19,-0.015003269868344767,3.517233279338379e-18,-0.015003269868344767,2.7402161044554407e-18,0.1543091695837495,3.3527022543830067e-18,-0.15430916958374943,0.6415570612937463,0.42048671109592034,0.6415570612937465,500.0,19.285714285714306,[0.35203637]
-3.1814425149973516e-18,0.14579054034741168,3.670399211437526e-18,0.14579054034741168,5.229601268682752e-19,-0.015835514600068316,3.670399211437526e-18,-0.015835514600068316,5.484637595145101e-19,0.14664803161801815,1.293454651674195e-18,-0.1466480316180182,0.6383050199162853,0.4302713133586083,0.6383050199162853,500.0,19.285714285714306,[0.35416356]
-3.5412065244538144e-18,0.13258684304275803,3.795785006447116e-18,0.13258684304275803,7.978024659175944e-19,-0.017608628197894664,3.795785006447116e-18,-0.017608628197894664,-1.6680461011601328e-18,0.13375101769727454,-7.325371310145402e-19,-0.13375101769727452,0.63087058187698,0.45166870363619516,0.6308705818769801,500.0,19.285714285714306,[0.32390593]
-4.126704814353549e-18,0.10819461906982843,3.880545583429965e-18,0.10819461906982843,9.246423410464756e-19,-0.02124723011031748,3.880545583429965e-18,-0.02124723011031748,-3.927288112279265e-18,0.11026114629834964,-2.359490793068909e-18,-0.11026114629834967,0.6099138664609898,0.505974456862411,0.6099138664609898,500.0,19.285714285714306,[0.30785605]
-5.260259890906417e-18,0.0529026628979069,3.837397981522821e-18,0.0529026628979069,5.17669479670386e-19,-0.02960930043486829,3.837397981522821e-18,-0.02960930043486829,-6.307536720847555e-18,0.06062509722822606,-3.580180176704177e-18,-0.06062509722822612,0.4683472371758993,0.7492007280157993,0.4683472371758992,500.0,19.285714285714306,[0.15876387]
-8.907279359318015e-18,-0.1349478065321677,3.379290675835082e-18,-0.1349478065321677,-3.676050199189759e-18,-0.04591527861265575,3.379290675835082e-18,-0.04591527861265575,-9.560063828965262e-18,0.1425451623097788,-1.1487010456208075e-17,-0.14254516230977887,0.7070803804165579,0.008641253378524448,0.7070803804165577,500.0,19.285714285714306,[0.09422923]
-9.016890716648642e-18,-0.13802550717011378,3.3908046163715137e-18,-0.13802550717011378,-3.4022931211041096e-18,-0.03966067341431667,3.3908046163715137e-18,-0.03966067341431667,-1.0100795104113627e-17,0.14361061814937015,-1.2186205739490383e-17,-0.14361061814937015,0.6971981712396614,0.1668215215136913,0.6971981712396615,500.0,6.428571428571418,[0.14083864]
-5.2993292855985216e-18,0.04903810151572323,3.295767974638918e-18,0.04903810151572323,1.3128944507992651e-18,-0.021994892858241015,3.295767974638918e-18,-0.021994892858241015,-8.196704743355362e-18,0.05374486684430317,-5.103147525228232e-18,-0.05374486684430316,0.6087239893307381,0.5088322018372491,0.6087239893307382,500.0,6.428571428571418,[0.16382971]
-4.097945398816305e-18,0.10475452843551702,2.816718523792867e-18,0.10475452843551702,2.2451336185914277e-18,-0.014788303052875632,2.816718523792867e-18,-0.014788303052875632,-7.145222527180005e-18,0.10579321875683347,-6.267482109214382e-18,-0.10579321875683358,0.6846949425666072,0.2497712378305809,0.6846949425666072,500.0,6.428571428571418,[0.21094074]
-3.4804319104883184e-18,0.12906384006863192,2.2450149181735264e-18,0.12906384006863192,2.6659435572543044e-18,-0.01125144688081096,2.2450149181735264e-18,-0.01125144688081096,-6.2174600608629805e-18,0.12955334758381631,-5.820690784976766e-18,-0.1295533475838163,0.6931298643626669,0.19784332755284514,0.6931298643626669,500.0,6.428571428571418,[0.13831393]
-3.0669474833302113e-18,0.14194957122051885,1.6402956391750507e-18,0.14194957122051885,2.9122977960072973e-18,-0.009091673851727374,1.6402956391750507e-18,-0.009091673851727374,-5.3154725424331065e-18,0.1422404278083954,-5.100989092929809e-18,-0.1422404278083954,0.6961634110338697,0.1752512775285106,0.6961634110338695,500.0,6.428571428571418,[0.14186074]
-2.7690433488029137e-18,0.14928380046940778,1.0240115480324708e-18,0.14928380046940778,3.090280594049107e-18,-0.007591256203262885,1.0240115480324708e-18,-0.007591256203262885,-4.427457758910479e-18,0.14947668799292266,-4.318170831210057e-18,-0.14947668799292266,0.6977331808073121,0.16228621876493995,0.6977331808073121,500.0,6.428571428571418,[0.14083864]
-2.511836500413225e-18,0.1533241736717623,3.940006014197268e-19,0.1533241736717623,3.2091166695709257e-18,-0.00646066554809477,3.940006014197268e-19,-0.00646066554809477,-3.555586232222436e-18,0.1534602307813105,-3.522171981624768e-18,-0.15346023078131044,0.6987045794542027,0.15370042712839718,0.6987045794542027,500.0,6.428571428571418,[0.14083864]
-2.3072648087615107e-18,0.15504261998832347,-2.436071719387043e-19,0.15504261998832347,3.319813287865222e-18,-0.005562737978540893,-2.436071719387043e-19,-0.005562737978540893,-2.6903619289368698e-18,0.1551423799825875,-2.7060634464422624e-18,-0.1551423799825875,0.6993700902081724,0.14752272314604517,0.6993700902081725,500.0,6.428571428571418,[0.14083864]
-2.13145253264704e-18,0.1548144897397849,-8.850981446827656e-19,0.1548144897397849,3.3835723694808095e-18,-0.004826320068645946,-8.850981446827656e-19,-0.004826320068645946,-1.824866310410386e-18,0.15488970139681654,-1.8789141909050903e-18,-0.15488970139681651,0.6998525013850123,0.1428739045812185,0.6998525013850122,500.0,6.428571428571418,[0.14083864]
-2.001763847488526e-18,0.15263137431559573,-1.527403063149579e-18,0.15263137431559573,3.430781221400436e-18,-0.00421437638178389,-1.527403063149579e-18,-0.00421437638178389,-9.70494616761515e-19,0.15268954579064942,-1.0565139081304492e-18,-0.15268954579064944,0.7002077530439376,0.13934922014248918,0.7002077530439377,500.0,6.428571428571418,[0.14083864]
-1.892695120639734e-18,0.1480984087124026,-2.168978821906427e-18,0.1480984087124026,3.4478740815782316e-18,-0.003712171342309725,-2.168978821906427e-18,-0.003712171342309725,-1.1856476028090077e-19,0.14814492525638698,-2.287233248687632e-19,-0.14814492525638698,0.7004561719891409,0.13682946409541435,0.7004561719891409,500.0,6.428571428571418,[0.14083864]
-1.8655635965479948e-18,0.14021395802815936,-2.819813213259581e-18,0.14021395802815936,3.4134170459817227e-18,-0.0033263307143899757,-2.819813213259581e-18,-0.0033263307143899757,7.203419646356786e-19,0.14025340816516346,5.853748754116584e-19,-0.14025340816516343,0.7005853381818389,0.13550043486748325,0.7005853381818388,500.0,6.428571428571418,[0.14083864]
-1.92850873244083e-18,0.1266634353651625,-3.4666796192143184e-18,0.1266634353651625,3.3089606782285264e-18,-0.0030965207837367133,-3.4666796192143184e-18,-0.0030965207837367133,1.5505666018429016e-18,0.12670127978623114,1.3790949008830155e-18,-0.1267012797862311,0.7005158655822922,0.13621690106218262,0.7005158655822921,500.0,6.428571428571418,[0.1341015]
-2.205250278176571e-18,0.1014372401872517,-4.129129694319248e-18,0.1014372401872517,3.0381880677929677e-18,-0.00313756302701695,-4.129129694319248e-18,-0.00313756302701695,2.3547449759220545e-18,0.10148575268753092,2.095567579089378e-18,-0.10148575268753092,0.6998770856692335,0.14263285003911558,0.6998770856692335,500.0,6.428571428571418,[0.12737925]
-3.0843116587489245e-18,0.044100245942664824,-4.799702269449142e-18,0.044100245942664824,2.2424204661822538e-18,-0.003763184334412822,-4.799702269449142e-18,-0.003763184334412822,3.05148251459792e-18,0.04426051568314919,2.1899347561455386e-18,-0.04426051568314918,0.6933848870482835,0.19604794522279034,0.6933848870482834,500.0,6.428571428571418,[0.08464001]
-6.5679993521282524e-18,-0.1472892756383498,-5.4908439312810864e-18,-0.1472892756383498,-2.334938963335085e-18,-0.002992667241577338,-5.4908439312810864e-18,-0.002992667241577338,2.9863668567777456e-18,0.14731967545202027,3.2055730287398527e-18,-0.14731967545202032,0.7041239309400577,0.09175499852891655,0.7041239309400578,500.0,6.428571428571418,[0.14288392]
-6.3954428589047904e-18,-0.1473466885683441,-5.166605261182244e-18,-0.1473466885683441,-2.492301803067173e-18,0.003975297296160906,-5.166605261182244e-18,0.003975297296160906,3.436478841459701e-18,0.14740030400460324,3.1509197921270697e-18,-0.14740030400460327,0.7045402459565835,0.08512393115260682,0.7045402459565836,500.0,6.428571428571418,[0.14288392]
-2.5568748304055124e-18,0.0439281354428829,-4.451248714098423e-18,0.0439281354428829,1.8053316130643335e-18,0.0047684797922402725,-4.451248714098423e-18,0.0047684797922402725,4.4053455667757114e-18,0.0441861910897202,5.273353591640315e-18,-0.0441861910897202,0.6900130234194795,0.2185498913818466,0.6900130234194796,500.0,6.428571428571418,[0.10870426]
-1.3337857243499044e-18,0.10115068278695223,-3.716103111630189e-18,0.10115068278695223,2.2953269381611454e-18,0.004165508118086242,-3.716103111630189e-18,0.004165508118086242,4.603948323127243e-18,0.10123641679824748,4.8993521127264945e-18,-0.10123641679824748,0.6988079900667162,0.15275727818284837,0.6988079900667163,500.0,6.428571428571418,[0.12737925]
-6.999933215668741e-19,0.12626277672999675,-2.9645768514915675e-18,0.12626277672999675,2.268738044551241e-18,0.004147205745071801,-2.9645768514915675e-18,0.004147205745071801,4.7070481146758525e-18,0.126330867578201,4.894793167221793e-18,-0.126330867578201,0.6996828859737046,0.14452583904276714,0.6996828859737045,500.0,6.428571428571418,[0.1341015]
-2.9193519922711495e-19,0.13969963806641333,-2.2110496414511802e-18,0.13969963806641333,2.0799026368727353e-18,0.004399855962283703,-2.2110496414511802e-18,0.004399855962283703,4.781117175446301e-18,0.13976890787430418,4.914333022495367e-18,-0.1397689078743042,0.6998201430317326,0.14319055420694127,0.6998201430317327,500.0,6.428571428571418,[0.14083864]
1.6278914455043585e-20,0.14747096067811633,-1.4465850357613105e-18,0.14747096067811633,1.809130026437177e-18,0.004808625735378868,-1.4465850357613105e-18,0.004808625735378868,4.838093376038953e-18,0.14754933793409397,4.9277309054985895e-18,-0.14754933793409403,0.6997072195367652,0.14429003380780447,0.6997072195367654,500.0,6.428571428571418,[0.14083864]
2.8108258959041923e-19,0.15189142377277548,-6.797972933210857e-19,0.15189142377277548,1.5079701090188707e-18,0.005333831908436482,-6.797972933210857e-19,0.005333831908436482,4.886387488922249e-18,0.15198504656231263,4.928959526159045e-18,-0.15198504656231265,0.6994493459556868,0.14676929135321348,0.6994493459556868,500.0,6.428571428571418,[0.14083864]
4.937937384696554e-19,0.15396275339861257,8.946620069251037e-20,0.15396275339861257,1.1579734482354337e-18,0.005968830405631487,8.946620069251037e-20,0.005968830405631487,4.932511079878206e-18,0.1540784098129688,4.919567453949488e-18,-0.15407840981296883,0.6990662091087834,0.15037576455183674,0.6990662091087833,500.0,6.428571428571418,[0.14083864]
6.772028413298131e-19,0.15407990442555833,8.556265266381138e-19,0.15407990442555833,7.949536558879618e-19,0.0067283383267917165,8.556265266381138e-19,0.0067283383267917165,4.9694099526429716e-18,0.15422674049732424,4.888133115549536e-18,-0.15422674049732418,0.6985377246614272,0.1552098400542689,0.6985377246614273,500.0,6.428571428571418,[0.14083864]
8.193720275705272e-19,0.15225137394295674,1.6295871657600924e-18,0.15225137394295674,3.972055127030635e-19,0.007649373051459715,1.6295871657600924e-18,0.007649373051459715,5.001425151071224e-18,0.15244341171594936,4.8309894102323025e-18,-0.15244341171594933,0.6978028088936938,0.16168636244328397,0.697802808893694,500.0,6.428571428571418,[0.14083864]
9.148749923734495e-19,0.14810189865793047,2.407040988608882e-18,0.14810189865793047,-3.2015198428252383e-20,0.008803070787742664,2.407040988608882e-18,0.008803070787742664,5.033982979981311e-18,0.14836329209537621,4.7350237829733e-18,-0.1483632920953762,0.6967250944972269,0.17072868943344338,0.6967250944972267,500.0,6.428571428571418,[0.14083864]
9.61541213811241e-19,0.1406596349751342,3.1949743626381066e-18,0.1406596349751342,-4.905379555786467e-19,0.010326579622052202,3.1949743626381066e-18,0.010326579622052202,5.050261894436355e-18,0.14103819042383012,4.5737710815818576e-18,-0.1410381904238301,0.6949779003643719,0.1844218967754607,0.6949779003643715,500.0,6.428571428571418,[0.14783625]
8.899139902090493e-19,0.12766702130005647,4.000712799352534e-18,0.12766702130005647,-1.0396800031954503e-18,0.012509414733452587,4.000712799352534e-18,0.012509414733452587,5.050261894436355e-18,0.1282784229112698,4.2472324121690044e-18,-0.12827842291126978,0.6915910585756266,0.20833534360853895,0.6915910585756266,500.0,6.428571428571418,[0.2105433]
6.337924027830302e-19,0.10325206277045937,4.839382123433311e-18,0.10325206277045937,-1.7624638049993854e-18,0.016069297017701375,4.839382123433311e-18,0.016069297017701375,5.019874587453607e-18,0.10449502750369505,3.381663287552299e-18,-0.10449502750369502,0.6821275871760296,0.2634462177121086,0.6821275871760298,500.0,6.428571428571418,[0.23190318]
-2.0402906116987962e-19,0.04743131130284144,5.769518598108364e-18,0.04743131130284144,-2.988808693946002e-18,0.023298892393335824,5.769518598108364e-18,0.023298892393335824,4.869023313503536e-18,0.052844750720041314,-8.17430084540319e-19,-0.05284475072004124,0.5957738912716232,0.5386157637482737,0.5957738912716232,500.0,6.428571428571418,[0.16110129]
-3.583531702036928e-18,-0.1397351934585103,7.078885950775703e-18,-0.1397351934585103,-8.007055389954104e-18,0.0409877678625989,7.078885950775703e-18,0.0409877678625989,3.8684127050001905e-18,0.14562253055501256,7.374956240980092e-18,-0.14562253055501267,0.6965368367496997,0.17225814959369629,0.6965368367496996,500.0,6.428571428571418,[0.14083864]
-3.9394972981205475e-18,-0.1367588904745496,7.719156004935636e-18,-0.1367588904745496,-8.158991924867845e-18,0.04728389102422213,7.719156004935636e-18,0.04728389102422213,3.0338470239382894e-18,0.14470231675484801,7.194209397286462e-18,-0.1447023167548481,0.7071018916659955,0.0037188176537255977,0.7071018916659954,500.0,19.28571428571425,[0.08957217]
-1.57362839732088e-18,0.05099300717086726,7.117582287011546e-18,0.05099300717086726,-3.4381067329052055e-18,0.031042641299042623,7.117582287011546e-18,0.031042641299042623,2.6350136197897216e-18,0.05969867971026786,-6.975829672570342e-18,-0.05969867971026787,0.44865810025293984,0.77292419948844,0.4486581002529403,500.0,19.28571428571425,[0.1612558]
-1.7255649322346202e-18,0.10618803444449021,6.924100605832331e-18,0.10618803444449021,-2.519975957640747e-18,0.022744373049223984,6.924100605832331e-18,0.022744373049223984,1.3712272275965046e-18,0.10859652464322467,-1.5392103183554775e-18,-0.10859652464322474,0.6037109227413376,0.520640224651923,0.6037109227413379,500.0,19.28571428571425,[0.30785605]
-2.4244729928378245e-18,0.1304851223999633,6.858306659909863e-18,0.1304851223999633,-2.1195146620466747e-18,0.019168965577124622,6.858306659909863e-18,0.019168965577124622,-2.387574120073059e-20,0.13188561865886064,-2.085443287437894e-18,-0.1318856186588606,0.6263945558955287,0.4639609042676837,0.6263945558955287,500.0,19.28571428571425,[0.31023992]
-3.3339216803929265e-18,0.14359555974899396,6.8354483508625726e-18,0.14359555974899396,-1.8720751623300122e-18,0.017458482817447638,6.8354483508625726e-18,0.017458482817447638,-1.4602186266174095e-18,0.14465297577967068,-3.105117193844641e-18,-0.1446529757796708,0.6343606434747602,0.441784051342481,0.6343606434747602,500.0,19.28571428571425,[0.35416356]
-4.33887333275095e-18,0.15129176434954905,6.8392128498303014e-18,0.15129176434954905,-1.7092860177795766e-18,0.01668828760414382,6.8392128498303014e-18,0.01668828760414382,-2.9117551655254625e-18,0.15220938506924636,-4.443320176258952e-18,-0.15220938506924633,0.6377969236572931,0.4317755995266354,0.6377969236572932,500.0,19.28571428571425,[0.35416356]
-5.3959175113651135e-18,0.1557969309892911,6.853083841522203e-18,0.1557969309892911,-1.5899073117759236e-18,0.016497358476097738,6.853083841522203e-18,0.016497358476097738,-4.382283771297733e-18,0.1566679499526651,-5.846314046436024e-18,-0.15666794995266517,0.6391232819120123,0.42783508626109246,0.6391232819120126,500.0,19.28571428571425,[0.35416356]
-6.505054216235417e-18,0.1580772042201272,6.877570042014998e-18,0.1580772042201272,-1.5009159127550185e-18,0.016736573873727446,6.877570042014998e-18,0.016736573873727446,-5.853897638033673e-18,0.1589607354005464,-7.23973625292622e-18,-0.1589607354005464,0.6391275269595296,0.4278224030660282,0.6391275269595297,500.0,19.28571428571425,[0.35416356]
-7.633725618451772e-18,0.15852068230449057,6.913451482626323e-18,0.15852068230449057,-1.4390560378258529e-18,0.017361315273525028,6.913451482626323e-18,0.017361315273525028,-7.338534636333648e-18,0.159468561121959,-8.826721234105484e-18,-0.15946856112195903,0.6380333917501708,0.43107630649752254,0.6380333917501709,500.0,19.28571428571425,[0.35416356]
-8.797125371505553e-18,0.15715105203338708,6.962322140396568e-18,0.15715105203338708,-1.3989013821700787e-18,0.018401266846311184,6.962322140396568e-18,0.018401266846311184,-8.832938983306649e-18,0.1582247129141003,-1.0499711977994804e-17,-0.15822471291410034,0.6357367623008552,0.43780993378228816,0.6357367623008553,500.0,19.28571428571425,[0.35416356]
-9.990912431542083e-18,0.15363514709815038,7.016347787744244e-18,0.15363514709815038,-1.3858782506060438e-18,0.019969893537977276,7.016347787744244e-18,0.019969893537977276,-1.0331684374134328e-17,0.15492758008756366,-1.2113254845694486e-17,-0.15492758008756366,0.6317552892397211,0.4491887231835553,0.6317552892397211,500.0,19.28571428571425,[0.35416356]
-1.1260667759035482e-17,0.14709031052266233,7.092892600088063e-18,0.14709031052266233,-1.4368855158985137e-18,0.022320971734064794,7.092892600088063e-18,0.022320971734064794,-1.185104972327173e-17,0.1487742760990829,-1.3885105179303063e-17,-0.14877427609908295,0.6248327848953015,0.468153801479774,0.6248327848953015,500.0,19.28571428571425,[0.35416356]
-1.258902717856704e-17,0.135453149185167,7.204504907320456e-18,0.135453149185167,-1.5573494828658365e-18,0.026015875013012217,7.204504907320456e-18,0.026015875013012217,-1.3397546596500872e-17,0.13792889971601957,-1.5974395720552294e-17,-0.13792889971601963,0.611396021193642,0.5023841264781036,0.6113960211936422,500.0,19.28571428571425,[0.34233676]
-1.4127927225050492e-17,0.11333683693011362,7.381131129157679e-18,0.11333683693011362,-1.844943638238273e-18,0.032462732559041745,7.381131129157679e-18,0.032462732559041745,-1.5010244388513855e-17,0.11789430694704062,-1.908362535408097e-17,-0.11789430694704071,0.5773184310361167,0.5774139402300512,0.5773184310361166,500.0,19.28571428571425,[0.29963942]
-1.6159535749039932e-17,0.062295708975291755,7.737130639646413e-18,0.062295708975291755,-2.636098880753391e-18,0.046106531305162596,7.737130639646413e-18,0.046106531305162596,-1.6790072368931953e-17,0.0775020489130977,-1.7642085449575413e-17,-0.07750204891309768,0.39753732503526934,0.8269994863405931,0.39753732503526923,500.0,19.28571428571425,[0.21930324]
-2.047887438444483e-17,-0.11372021910856932,8.80987718782867e-18,-0.11372021910856932,-7.225667496112012e-18,0.07720094528671555,8.80987718782867e-18,0.07720094528671555,-1.9676866532293016e-17,0.13744916946734698,-7.220174107118804e-18,-0.13744916946734692,0.6833767899344926,0.25688971555446954,0.6833767899344927,500.0,19.28571428571425,[0.22589415]
-2.0752360147289562e-17,-0.1082940018595214,9.121007940350691e-18,-0.1082940018595214,-7.136676097091108e-18,0.08156936411296653,9.121007940350691e-18,0.08156936411296653,-2.096181551327779e-17,0.13557710721410055,-1.675095985901489e-17,-0.13557710721410063,0.7045801841629376,0.08446021649180102,0.7045801841629377,500.0,32.142857142857125,[0.13542411]
-1.7520452997481575e-17,0.06890357815666588,8.273588699750329e-18,0.06890357815666588,-2.357186813090311e-18,0.05150222192191832,8.273588699750329e-18,0.05150222192191832,-2.01446140076346e-17,0.08602431020174636,-2.565006304409654e-17,-0.0860243102017464,0.2543343787802331,0.9330745133915864,0.254334378780233,500.0,32.142857142857125,[0.23215721]
-1.651550134512355e-17,0.11894299432285184,8.168793187945985e-18,0.11894299432285184,-1.3847929896423743e-18,0.037143975013744945,8.168793187945985e-18,0.037143975013744945,-2.0459339687098777e-17,0.12460782791746139,-2.521461127397801e-17,-0.12460782791746154,0.4593642599426778,0.7602426937331472,0.4593642599426779,500.0,32.142857142857125,[0.29002769]
-1.5998917126416835e-17,0.14097166636585526,8.256902812433909e-18,0.14097166636585526,-9.137897314097799e-19,0.030711381752963035,8.256902812433909e-18,0.030711381752963035,-2.098243547158751e-17,0.14427820239780592,-2.3886094168081938e-17,-0.14427820239780584,0.5049234702979039,0.7000746947895229,0.5049234702979041,500.0,32.142857142857125,[0.33188642]
-1.5664656749606607e-17,0.15294472063784642,8.426203522766362e-18,0.15294472063784642,-6.164282273643171e-19,0.02736836966279314,8.426203522766362e-18,0.02736836966279314,-2.1573902696787428e-17,0.1553741137673459,-2.444557882474009e-17,-0.15537411376734608,0.5230965538351169,0.6728595624137694,0.5230965538351171,500.0,32.142857142857125,[0.33188642]
-1.5412876206035266e-17,0.16006941185006526,8.62890992213677e-18,0.16006941185006526,-3.9286446884838522e-19,0.025563665099215174,8.62890992213677e-18,0.025563665099215174,-2.2192501446079084e-17,0.16209786421582068,-2.4758631208727676e-17,-0.16209786421582084,0.5319029135467519,0.6589071111476585,0.5319029135467521,500.0,32.142857142857125,[0.33188642]
-1.5208847144865386e-17,0.16434706562102014,8.852066707791325e-18,0.16434706562102014,-2.1488167080657534e-19,0.024686443815236783,8.852066707791325e-18,0.024686443815236783,-2.2842572763317158e-17,0.16619078941530652,-2.5413994841839417e-17,-0.16619078941530657,0.5361998463541467,0.6519044788460802,0.5361998463541467,500.0,32.142857142857125,[0.33188642]
-1.5037375912605594e-17,0.16664993202302225,9.099133149051726e-18,0.16664993202302225,-7.379774552953092e-20,0.024474671768637046,9.099133149051726e-18,0.024474671768637046,-2.3492644080555232e-17,0.16843755341805589,-2.599337501163182e-17,-0.16843755341805605,0.5377062635547879,0.6494181613320478,0.537706263554788,500.0,32.142857142857125,[0.33188642]
-1.489195094347387e-17,0.16733417221689054,9.35172763834582e-18,0.16733417221689054,4.123991661944375e-20,0.024833260431922598,9.35172763834582e-18,0.024833260431922598,-2.4169846921885045e-17,0.1691668289446594,-2.66831559243706e-17,-0.16916682894465937,0.5370124690903889,0.6505653050101029,0.537012469090389,500.0,32.142857142857125,[0.33188642]
-1.4763890149760862e-17,0.1664339652967805,9.623653338555276e-18,0.1664339652967805,1.367428814223661e-19,0.025778708399282563,9.623653338555276e-18,0.025778708399282563,-2.4854646589960548e-17,0.16841854592397246,-2.754324816435299e-17,-0.16841854592397246,0.5340863104671818,0.6553652614711175,0.5340863104671818,500.0,32.142857142857125,[0.33188642]
-1.4672728228812618e-17,0.1636724308671536,9.91101009309191e-18,0.1636724308671536,2.0185853924254047e-19,0.027444361590603462,9.91101009309191e-18,0.027444361590603462,-2.556006621634577e-17,0.16595739697006262,-2.831920161607415e-17,-0.16595739697006268,0.5282682107396905,0.6647295653450145,0.5282682107396905,500.0,32.142857142857125,[0.33188642]
-1.4627147268338496e-17,0.15829786506671195,1.0221021670245147e-17,0.15829786506671195,2.192227146612536e-19,0.03015038478212669,1.0221021670245147e-17,0.03015038478212669,-2.6279594235258697e-17,0.16114359989521532,-2.948909659279437e-17,-0.16114359989521537,0.5177625300431286,0.6810608819824239,0.5177625300431287,500.0,32.142857142857125,[0.33188642]
-1.4659705097248583e-17,0.14853976865675575,1.0576851608708308e-17,0.14853976865675575,1.606186226230967e-19,0.03461884472366315,1.0576851608708308e-17,0.03461884472366315,-2.7062067390064458e-17,0.1525205798658122,-3.081200421720346e-17,-0.15252057986581233,0.4977076351566495,0.7103338791114718,0.4977076351566495,500.0,32.142857142857125,[0.33070727]
-1.4839858417217732e-17,0.129747997081993,1.1018824136162741e-17,0.129747997081993,-7.162722360219177e-20,0.04266940111295153,1.1018824136162741e-17,0.04266940111295153,-2.7922679334254426e-17,0.1365841152481752,-3.275918777625298e-17,-0.13658411524817515,0.4512304890525173,0.7699234322313175,0.45123048905251734,500.0,32.142857142857125,[0.30262612]
-1.5421558293744623e-17,0.0857962438563012,1.1698841873117072e-17,0.0857962438563012,-8.030931131154836e-19,0.060018994089281096,1.1698841873117072e-17,0.060018994089281096,-2.9063288607071146e-17,0.10470565940453772,-3.355017905298078e-17,-0.1047056594045377,0.2749512469398011,0.921305391068834,0.2749512469398011,500.0,32.142857142857125,[0.26534534]
-1.7921999554039317e-17,-0.07435769870739166,1.3270978036612908e-17,-0.07435769870739166,-5.337313419326957e-18,0.0983545483494041,1.3270978036612908e-17,0.0983545483494041,-3.1676597007587477e-17,0.12329916681824943,-1.5817972486556447e-17,-0.1232991668182494,0.661165007210866,0.35457251230137815,0.6611650072108661,500.0,32.142857142857125,[0.23213636]
-1.7223091493436113e-17,-0.06756126128221568,1.3261142859129652e-17,-0.06756126128221568,-5.239639932596695e-18,0.09992663191431508,1.3261142859129652e-17,0.09992663191431508,-3.14866763389453e-17,0.12062278305437503,-1.1335813117044603e-17,-0.12062278305437504,0.6942630942324949,0.1897301029711514,0.6942630942324951,500.0,45.0,[0.16390839]
-1.3939091817371987e-17,0.0941281482002615,1.1530151622076683e-17,0.0941281482002615,-5.122431748520381e-19,0.06198783983403942,1.1530151622076683e-17,0.06198783983403942,-2.7896633071126356e-17,0.11270581427282667,-3.6659278194265785e-17,-0.1127058142728267,0.14258496144848393,0.9794585532514729,0.14258496144848407,500.0,45.0,[0.33214662]
-1.2534764130383562e-17,0.13689259180645105,1.0688667402371388e-17,0.13689259180645105,4.0371707848508095e-19,0.04441302787818312,1.0688667402371388e-17,0.04441302787818312,-2.5806420455098763e-17,0.14391698557430904,-3.056986499379439e-17,-0.14391698557430915,0.32129481992421816,0.8908082158241066,0.3212948199242182,500.0,45.0,[0.35176033]
-1.1505936736824806e-17,0.1556368433776055,1.0102524738774475e-17,0.1556368433776055,8.313098981708925e-19,0.03639740654412641,1.0102524738774475e-17,0.03639740654412641,-2.4023336691789653e-17,0.15983616055099592,-2.7762910582988294e-17,-0.15983616055099598,0.3730051961409436,0.8495494378220213,0.37300519614094374,500.0,45.0,[0.34473197]
-1.0611681702761078e-17,0.1658755157068174,9.604695186096174e-18,0.1658755157068174,1.0787493978875549e-18,0.032084608116918795,9.604695186096174e-18,0.032084608116918795,-2.2341182198101816e-17,0.16895001861207026,-2.5639185226835293e-17,-0.16895001861207026,0.39594818837249945,0.8285228205964342,0.39594818837249957,500.0,45.0,[0.3543989]
-9.804247545790916e-18,0.17203480044800423,9.151530904953898e-18,0.17203480044800423,1.2567321959293647e-18,0.02960396383494684,9.151530904953898e-18,0.02960396383494684,-2.0714376013561127e-17,0.17456336167685782,-2.3411805877676502e-17,-0.17456336167685782,0.4079631465757332,0.8167815754974237,0.4079631465757333,500.0,45.0,[0.37687874]
-9.012007042312128e-18,0.17580776254257835,8.721258847264027e-18,0.17580776254257835,1.3782814238603568e-18,0.028215816333041547,8.721258847264027e-18,0.028215816333041547,-1.9121212918894195e-17,0.17805757962402935,-2.1554591908933988e-17,-0.17805757962402943,0.41445005183485834,0.8102236167060095,0.4144500518348584,500.0,45.0,[0.3646202]
-8.24798332388875e-18,0.17793308997773893,8.311064117402043e-18,0.17793308997773893,1.4759549105906183e-18,0.02759710279207096,8.311064117402043e-18,0.02759710279207096,-1.7546499260609645e-17,0.18006050258605372,-1.9847648974978384e-17,-0.18006050258605372,0.4174596455816843,0.8071275541211741,0.4174596455816845,500.0,45.0,[0.3646202]
-7.514346912448119e-18,0.17871629887132692,7.919471438745459e-18,0.17871629887132692,1.5497526561201495e-18,0.027621079266839578,7.919471438745459e-18,0.027621079266839578,-1.5996746604489496e-17,0.1808381583132565,-1.811574712177906e-17,-0.18083815831325664,0.4177636540147484,0.8068129019596125,0.4177636540147483,500.0,45.0,[0.38796277]
-6.7937336325715234e-18,0.17819533024561485,7.538188739243735e-18,0.17819533024561485,1.5931630946669323e-18,0.028287768906338166,7.538188739243735e-18,0.028287768906338166,-1.446218760186072e-17,0.1804266432405206,-1.6566485770538198e-17,-0.18042664324052066,0.4154252350065614,0.809224164394197,0.41542523500656164,500.0,45.0,[0.3646202]
-6.09048452811364e-18,0.17615267324011533,7.177068153582684e-18,0.17615267324011533,1.6105272700856455e-18,0.029723962696148975,7.177068153582684e-18,0.029723962696148975,-1.2949333818505338e-17,0.17864287908562398,-1.5042161517117226e-17,-0.17864287908562398,0.4098364046007752,0.8149038243423695,0.4098364046007753,500.0,45.0,[0.36700602]
-5.4263048183478615e-18,0.17198344679043068,6.846453575322284e-18,0.17198344679043068,1.5801399631028975e-18,0.032252773395712114,6.846453575322284e-18,0.032252773395712114,-1.1486402039478753e-17,0.1749815629191603,-1.3918120456055835e-17,-0.17498156291916028,0.39927256067335726,0.8253259020451745,0.3992725606733573,500.0,45.0,[0.37687874]
-4.8098765909835445e-18,0.16425079663962722,6.554637076513071e-18,0.16425079663962722,1.469443344808601e-18,0.03661391640816207,6.554637076513071e-18,0.03661391640816207,-1.0084244874417666e-17,0.16828221258200768,-1.2603521018355933e-17,-0.1682822125820078,0.3792346150941675,0.8440155291395754,0.37923461509416756,500.0,45.0,[0.36265279]
-4.306315503840863e-18,0.14914689733234088,6.354982973602984e-18,0.14914689733234088,1.1916165381091904e-18,0.04467814330186947,6.354982973602984e-18,0.04467814330186947,-8.816660068851605e-18,0.15569500143795953,-1.1745721534185123e-17,-0.15569500143795958,0.3354916762440171,0.8802787458197313,0.3354916762440172,500.0,45.0,[0.35922128]
-4.102286442670983e-18,0.11318702794637492,6.3963076762352146e-18,0.11318702794637492,4.1239916619443753e-19,0.06230200171270461,6.3963076762352146e-18,0.06230200171270461,-7.926746078642556e-18,0.12920078448965888,-4.793333742283791e-18,-0.12920078448965902,0.19692228044382756,0.960439082362648,0.19692228044382742,500.0,45.0,[0.31163921]
-5.387235423655757e-18,-0.029537267670088192,7.348352856614346e-18,-0.029537267670088192,-4.176084188200514e-18,0.10029088639870597,7.348352856614346e-18,0.10029088639870597,-8.925186165218563e-18,0.10455004579651118,7.346657288825138e-18,-0.10455004579651113,0.6208899913897814,0.4785302886798222,0.6208899913897814,500.0,45.0,[0.31268561]
-4.56677813512156e-18,-0.022724295084057704,6.9171227169799866e-18,-0.022724295084057704,-4.291121850349489e-18,0.09876331227490738,6.9171227169799866e-18,0.09876331227490738,-7.529540565939493e-18,0.1013438968985217,3.4066208370273133e-18,-0.10134389689852172,0.6678346534099164,0.3286240274382162,0.6678346534099162,500.0,57.8571428571429,[0.26815161]
-2.205250278176571e-18,0.12157113092529825,5.255639053209543e-18,0.12157113092529825,5.426304818347862e-20,0.06047814229339883,5.255639053209543e-18,0.06047814229339883,-3.1277220972957078e-18,0.1357834510156397,-9.210978338119803e-18,-0.13578345101563968,0.07015393043353421,0.9950662551254835,0.07015393043353406,500.0,57.8571428571429,[0.34735736]
-1.306654200258165e-18,0.15637909061480845,4.491208361924788e-18,0.15637909061480845,5.925524861635865e-19,0.04317879324158019,4.491208361924788e-18,0.04317879324158019,-6.359629247103694e-19,0.16223078674318758,-3.00374231900086e-18,-0.16223078674318755,0.20327930415200055,0.9577865362422657,0.20327930415200057,500.0,57.8571428571429,[0.36364364]
-6.90225972893848e-19,0.1714709133019135,3.9574549756287674e-18,0.1714709133019135,6.294513589283519e-19,0.03517888757879364,3.9574549756287674e-18,0.03517888757879364,1.4368855158985137e-18,0.17504236127256095,-3.4500544031758017e-19,-0.17504236127256098,0.2481999007546291,0.9363725853156875,0.2481999007546291,500.0,57.8571428571429,[0.38594798]
-1.7364175418713157e-19,0.17971974197636806,3.519560655389374e-18,0.17971974197636806,4.94878999433325e-19,0.030761622565295153,3.519560655389374e-18,0.030761622565295153,3.3621384654483354e-18,0.18233338443330113,1.994119693044788e-18,-0.18233338443330105,0.26979951819450854,0.9243464934557941,0.26979951819450865,500.0,57.8571428571429,[0.52985453]
3.0387306982748025e-19,0.18470951918422043,3.1192943676247113e-18,0.18470951918422043,2.8867941633610623e-19,0.02810737815746784,3.1192943676247113e-18,0.02810737815746784,5.211423147541286e-18,0.1868358402024429,4.1157649541799644e-18,-0.18683584020244293,0.28185059012805125,0.9171262125187232,0.2818505901280513,500.0,57.8571428571429,[0.76878089]
7.640237184233789e-19,0.18779972073147813,2.736120940037844e-18,0.18779972073147813,3.0387306982748025e-20,0.026494098491146714,2.736120940037844e-18,0.026494098491146714,7.025979478796811e-18,0.18965935875057607,6.1185118016716345e-18,-0.18965935875057605,0.28887710430250274,0.9127431386866746,0.2888771043025028,500.0,57.8571428571429,[0.76769269]
1.1937870600365295e-18,0.18958226039283085,2.380653461779346e-18,0.18958226039283085,-2.5612158742601907e-19,0.02560161701097907,2.380653461779346e-18,0.02560161701097907,8.797125371505553e-18,0.19130310046946952,8.04523556925889e-18,-0.19130310046946958,0.2926936067513868,0.9103081374643034,0.2926936067513867,500.0,57.8571428571429,[0.76769269]
1.619209357795002e-18,0.19030332787460552,2.0373570156563766e-18,0.19030332787460552,-5.643357011081776e-19,0.025296578560357285,2.0373570156563766e-18,0.025296578560357285,1.0553077610722921e-17,0.19197727336070264,9.891055102904425e-18,-0.19197727336070258,0.29403009816670495,0.9094463165817738,0.29403009816670495,500.0,57.8571428571429,[0.76769269]
2.0229264362800828e-18,0.18999714044348248,1.7052894171018442e-18,0.18999714044348248,-8.985960779184059e-19,0.025562470159684176,1.7052894171018442e-18,0.025562470159684176,1.2276472021030202e-17,0.19170903280066165,1.1729662190395071e-17,-0.1917090328006617,0.2930102517188905,0.9101043812526478,0.29301025171889045,500.0,57.8571428571429,[0.76769269]
2.417961427055807e-18,0.18849686572269161,1.3905626778125082e-18,0.18849686572269161,-1.2675848055660605e-18,0.02649436244186601,1.3905626778125082e-18,0.02649436244186601,1.3969479124354735e-17,0.19034972978304793,1.3424591013343833e-17,-0.19034972978304804,0.2892063822042184,0.9125345675560437,0.2892063822042184,500.0,57.8571428571429,[0.76769269]
2.7999732862674966e-18,0.18533121402746183,1.1026760106959575e-18,0.18533121402746183,-1.6886660594698547e-18,0.028354270221536828,1.1026760106959575e-18,0.028354270221536828,1.5612564223350467e-17,0.18748766234792308,1.5033622988269533e-17,-0.18748766234792313,0.2813297398781288,0.9174459956423642,0.28132973987812876,500.0,57.8571428571429,[0.76878089]
3.1255515753683686e-18,0.17937161882419395,8.475633768221001e-19,0.17937161882419395,-2.1792040150485012e-18,0.03175300194357842,8.475633768221001e-19,0.03175300194357842,1.7168828445252634e-17,0.182160453370211,1.650897355314441e-17,-0.18216045337021097,0.26607823039164064,0.9265013494989126,0.26607823039164064,500.0,57.8571428571429,[0.52950988]
3.4077194259224574e-18,0.16759134934094358,6.610934989003429e-19,0.16759134934094358,-2.839042680959601e-18,0.03824183341036549,6.610934989003429e-19,0.03824183341036549,1.8555791956822347e-17,0.1718990930648104,1.766879181355371e-17,-0.17189909306481044,0.23357965423537497,0.9438649745882963,0.23357965423537486,500.0,57.8571428571429,[0.38674352]
3.481517171451988e-18,0.13894626483979944,6.929560825055793e-19,0.13894626483979944,-4.0089539997954e-18,0.0526569191955913,6.929560825055793e-19,0.0526569191955913,1.9456558556668092e-17,0.1485894197179016,1.707298561198822e-17,-0.14858941971790166,0.13961348059186923,0.9803143128986986,0.1396134805918692,500.0,57.8571428571429,[0.36888769]
2.4049382954917722e-18,0.011770795340933947,1.4455845608104277e-18,0.011770795340933947,-8.966426081838006e-18,0.0827819429817031,1.4455845608104277e-18,0.0827819429817031,1.8110834961717823e-17,0.08361460223420368,-2.9377538526633864e-18,-0.08361460223420365,0.5398023260212564,0.6459310316466321,0.5398023260212563,500.0,57.8571428571429,[0.27879882]
2.730516584592644e-18,0.01724921302293207,1.2814134042515688e-18,0.01724921302293207,-9.08580478784166e-18,0.0784653406174926,1.2814134042515688e-18,0.0784653406174926,1.7874248071637856e-17,0.08033893843043746,1.229558975300909e-17,-0.08033893843043748,0.601718266923771,0.5252335237782405,0.6017182669237706,500.0,70.71428571428567,[0.29710852]
3.9850782585946695e-18,0.1457180970530069,5.924253071444065e-19,0.1457180970530069,-4.347555420460307e-18,0.04742560696690724,5.924253071444065e-19,0.04742560696690724,1.9243847407788856e-17,0.15324148265051835,1.8667264677870014e-17,-0.15324148265051835,0.015519821874393002,0.9997591061140548,0.015519821874393085,500.0,70.71428571428567,[0.38819831]
4.097945398816305e-18,0.17347252645051653,6.076104820345018e-19,0.17347252645051653,-3.403378382067779e-18,0.03383610113644612,6.076104820345018e-19,0.03383610113644612,1.8332228198306415e-17,0.17674161698151622,1.78971545919985e-17,-0.17674161698151625,0.10144817660050184,0.9896547554217413,0.10144817660050184,500.0,70.71428571428567,[0.38877476]
4.067558091833557e-18,0.18527625413586196,8.1070689706372795e-19,0.18527625413586196,-2.96927399659995e-18,0.027443475316739813,8.1070689706372795e-19,0.027443475316739813,1.6910536335899276e-17,0.18729771670812487,1.6297595622272652e-17,-0.1872977167081249,0.13322850200400352,0.9820897782318774,0.1332285020040035,500.0,70.71428571428567,[0.85200575]
3.967714083175956e-18,0.19168309735968814,1.077392821682968e-18,0.19168309735968814,-2.7109818872465916e-18,0.023802763222607458,1.077392821682968e-18,0.023802763222607458,1.530000906581363e-17,0.19315532959365936,1.487818570244707e-17,-0.1931553295936594,0.1495147552895958,0.9773897256987025,0.1495147552895958,500.0,70.71428571428567,[0.8433211]
3.837482767535608e-18,0.19554030650267717,1.3839112151093927e-18,0.19554030650267717,-2.5178054357134078e-18,0.021505784803533025,1.3839112151093927e-18,0.021505784803533025,1.3615684050198456e-17,0.19671936927302505,1.3190320398817398e-17,-0.19671936927302502,0.15917831722891596,0.974332862346509,0.15917831722891598,500.0,70.71428571428567,[0.84416447]
3.689887276476546e-18,0.1979144374979303,1.7042327714174901e-18,0.1979144374979303,-2.372380466581685e-18,0.019991096071597023,1.7042327714174901e-18,0.019991096071597023,1.1866243376763104e-17,0.19892151339728442,1.1456090290034402e-17,-0.1989215133972844,0.165285601078792,0.9722969403181544,0.16528560107879195,500.0,70.71428571428567,[0.84305417]
3.5336096977081274e-18,0.19926641620576294,2.038272704594473e-18,0.19926641620576294,-2.268195414069406e-18,0.01900484302138958,2.038272704594473e-18,0.01900484302138958,1.0086415396345005e-17,0.2001706489117623,9.641706827199864e-18,-0.2001706489117622,0.16911998784773113,0.9709772702904877,0.16911998784773122,500.0,70.71428571428567,[0.84828769]
3.368650031230353e-18,0.1997861051321144,2.375907564713611e-18,0.1997861051321144,-2.174862971193823e-18,0.018433480014840988,2.375907564713611e-18,0.018433480014840988,8.265347499307463e-18,0.20063469537773823,7.770477386172363e-18,-0.20063469537773826,0.1712344409361376,0.9702358128179853,0.1712344409361376,500.0,70.71428571428567,[0.84828769]
3.1950082770432213e-18,0.19949718263769653,2.7307031138207746e-18,0.19949718263769653,-2.1205999230103443e-18,0.018247241043400007,2.7307031138207746e-18,0.018247241043400007,6.413892295287173e-18,0.2003299470525423,5.888517699700502e-18,-0.2003299470525423,0.17177858572685076,0.97004341911657,0.17177858572685073,500.0,70.71428571428567,[0.84852151]
3.0083433912920544e-18,0.19826470249432918,3.0956729844623407e-18,0.19826470249432918,-2.088042094100257e-18,0.018490663005990157,3.0956729844623407e-18,0.018490663005990157,4.5255382185021165e-18,0.19912507846468255,3.952574559305794e-18,-0.19912507846468258,0.17055657906753713,0.9704745780666064,0.17055657906753713,500.0,70.71428571428567,[0.84828769]
2.8108258959041923e-18,0.1957112153470348,3.4681379386342494e-18,0.1957112153470348,-2.1054062695189703e-18,0.019312787677001095,3.4681379386342494e-18,0.019312787677001095,2.582921093533582e-18,0.19666180000312802,1.8998835825163804e-18,-0.19666180000312805,0.16687041724549317,0.9717553847016388,0.16687041724549317,500.0,70.71428571428567,[0.84828769]
2.598114747024956e-18,0.19092996863416517,3.866360883490753e-18,0.19092996863416517,-2.2009092343218926e-18,0.021074561779837832,3.866360883490753e-18,0.021074561779837832,5.448010037621253e-19,0.19208953661471387,-2.5498916636145214e-19,-0.19208953661471392,0.1589079663855109,0.9744211186332339,0.15890796638551094,500.0,70.71428571428567,[0.84416447]
2.339822637671598e-18,0.18145934429307853,4.3152010779809075e-18,0.18145934429307853,-2.4548602998205726e-18,0.024700562111102612,4.3152010779809075e-18,0.024700562111102612,-1.7016891910338896e-18,0.1831327698689628,-2.8589292969373793e-18,-0.1831327698689627,0.14138745213797374,0.9798056831616483,0.14138745213797377,500.0,70.71428571428567,[0.85182111]
1.949128690750552e-18,0.1580113417186143,4.879129806227709e-18,0.1580113417186143,-3.238418715590004e-18,0.03304871784183584,4.879129806227709e-18,0.03304871784183584,-4.508174043083403e-18,0.16143048616263894,-5.8348910445446136e-18,-0.161430486162639,0.09195778762740567,0.9915077057639773,0.09195778762740567,500.0,70.71428571428567,[0.37683276]
7.227838018039352e-19,0.041432012739014375,5.860799219474509e-18,0.041432012739014375,-7.811708416493581e-18,0.049339372332863604,5.860799219474509e-18,0.049339372332863604,-9.825952765064308e-18,0.06442814091533913,-1.0816560915547898e-17,-0.06442814091533912,0.3609332204878265,0.8599153567047003,0.3609332204878266,500.0,70.71428571428567,[0.18954429]
1.5193653491374012e-20,0.044496659684489306,5.9135869910354995e-18,0.044496659684489306,-7.779150587583494e-18,0.043084829486728975,5.9135869910354995e-18,0.043084829486728975,-1.1104390180267064e-17,0.06193751088781151,-1.0245332033345459e-17,-0.06193751088781151,0.4319058940732811,0.791779386779878,0.431905894073281,500.0,83.57142857142856,[0.21421509]
-3.841823811390286e-19,0.16184826943667144,5.6004722458142706e-18,0.16184826943667144,-3.1537683604237775e-18,0.025434456201609865,5.6004722458142706e-18,0.025434456201609865,-8.091705745120331e-18,0.1638345930562804,-9.537849225721573e-18,-0.16383459305628037,0.03087338113512833,0.999046379641391,0.03087338113512833,500.0,83.57142857142856,[0.38818197]
-1.6148683139403238e-18,0.18485569761452603,5.6687928149177816e-18,0.18485569761452603,-2.3333110718895805e-18,0.018241724672825397,5.6687928149177816e-18,0.018241724672825397,-7.603338311469024e-18,0.18575357186227204,-8.653225505269688e-18,-0.18575357186227204,0.009784139945456533,0.9999042660230305,0.009784139945456547,500.0,83.57142857142856,[0.85828952]
-2.984467650091324e-18,0.19439278436121232,5.832005889532151e-18,0.19439278436121232,-2.0185853924254045e-18,0.014717171951021894,5.832005889532151e-18,0.014717171951021894,-7.679306578925894e-18,0.19494909530936716,-8.531470464292833e-18,-0.19494909530936713,0.025899389710380943,0.9993289964897745,0.025899389710381006,500.0,83.57142857142856,[0.86866137]
-4.382283771297733e-18,0.19947552536971078,6.0303542878453226e-18,0.19947552536971078,-1.8666488575116644e-18,0.012568096808497027,6.0303542878453226e-18,0.012568096808497027,-7.974497561044017e-18,0.1998710641361323,-8.715025106036854e-18,-0.19987106413613226,0.03483014422117453,0.9987861243064324,0.03483014422117458,500.0,83.57142857142856,[0.86046453]
-5.7866114582861596e-18,0.20246594123965306,6.244303312511245e-18,0.20246594123965306,-1.7950216339094726e-18,0.01107671264496218,6.244303312511245e-18,0.01107671264496218,-8.360850464110385e-18,0.2027687128850941,-9.033656793284076e-18,-0.2027687128850941,0.04066815123257945,0.9983447315184509,0.0406681512325795,500.0,83.57142857142856,[0.86046453]
-7.214814886475317e-18,0.20423635311498092,6.466052650353542e-18,0.20423635311498092,-1.773316414636081e-18,0.009953431835157877,6.466052650353542e-18,0.009953431835157877,-8.818830590778945e-18,0.2044787488689333,-9.448295362577109e-18,-0.20447874886893336,0.04487350858024777,0.9979843367785872,0.04487350858024782,500.0,83.57142857142856,[0.85235399]
-8.647359358519152e-18,0.20515843291574942,6.696721476740998e-18,0.20515843291574942,-1.7668048488540637e-18,0.009061031783045258,6.696721476740998e-18,0.009061031783045258,-9.305027502502913e-18,0.20535843029546993,-9.893888420909935e-18,-0.20535843029546996,0.04809023473727405,0.99768464889755,0.0480902347372741,500.0,83.57142857142856,[0.90848162]
-1.0095097484054362e-17,0.20537987923149933,6.9261524273417686e-18,0.20537987923149933,-1.8058742435461683e-18,0.008328299682697007,6.9261524273417686e-18,0.008328299682697007,-9.828123286991647e-18,0.2055486690999241,-1.0391785666669352e-17,-0.20554866909992414,0.05063583852344122,0.9974327163844469,0.05063583852344127,500.0,83.57142857142856,[0.90848162]
-1.1534153521880215e-17,0.20490911460756206,7.159297005302595e-18,0.20490911460756206,-1.8688193794390035e-18,0.007718136617988791,7.159297005302595e-18,0.007718136617988791,-1.0394629510027164e-17,0.20505441931865048,-1.0937220928492127e-17,-0.20505441931865048,0.05266697490912926,0.9972223320342571,0.05266697490912932,500.0,83.57142857142856,[0.90848162]
-1.2984062169342765e-17,0.20361798389060123,7.398410518563605e-18,0.20361798389060123,-1.951299212677891e-18,0.0072157318823670375,7.398410518563605e-18,0.0072157318823670375,-1.0995864083900107e-17,0.2037457978714441,-1.1523985949297587e-17,-0.20374579787144415,0.05423619138681229,0.997054096369754,0.054236191386812335,500.0,83.57142857142856,[0.85235399]
-1.4425288729095955e-17,0.20116455295918984,7.636947486937666e-18,0.20116455295918984,-2.088042094100257e-18,0.006827606811491787,7.636947486937666e-18,0.006827606811491787,-1.1668725881375241e-17,0.20128038548761537,-1.2188890372927711e-17,-0.20128038548761537,0.05529041532648903,0.9969382829172773,0.05529041532648909,500.0,83.57142857142856,[0.86046453]
-1.5896902595831895e-17,0.19673348254982545,7.883776527362264e-18,0.19673348254982545,-2.3007532429794933e-18,0.00659324715025048,7.883776527362264e-18,0.00659324715025048,-1.2432749599798622e-17,0.1968439332673647,-1.2964231401839831e-17,-0.19684393326736474,0.05559094289245668,0.9969048571135841,0.055590942892456745,500.0,83.57142857142856,[0.86046453]
-1.7411926901114618e-17,0.18810034058118863,8.126637582388445e-18,0.18810034058118863,-2.6784240583365045e-18,0.006627066879306474,8.126637582388445e-18,0.006627066879306474,-1.3411654989028576e-17,0.18821704530191188,-1.398878580138602e-17,-0.18821704530191188,0.05438127529795031,0.9970382910369776,0.054381275297950366,500.0,83.57142857142856,[0.86046453]
-1.8994237386144855e-17,0.16670088801181013,8.401530793045437e-18,0.16670088801181013,-3.5661675266182146e-18,0.007241506710211562,8.401530793045437e-18,0.007241506710211562,-1.4985283386349454e-17,0.16685809984343017,-1.5723438811365893e-17,-0.1668580998434302,0.04860134231306645,0.9976351131805338,0.04860134231306653,500.0,83.57142857142856,[0.38818197]
-2.1360106286944522e-17,0.05366353823741428,8.678662354439996e-18,0.05366353823741428,-8.254494889670767e-18,0.006450732519643478,8.678662354439996e-18,0.006450732519643478,-1.9165708618404647e-17,0.054049859261596674,-2.1258159346420288e-17,-0.0540498592615967,0.005256044004207809,0.9999723736198174,0.005256044004207603,500.0,83.57142857142856,[0.19822586]
