stress_11,stress_12,stress_13,stress_21,stress_22,stress_23,stress_31,stress_32,stress_33,e1,e2,e3,anev1,anev2,anev3,temp,miss,velo
1.624201558227882e-17,0.043103135426415765,-1.7362394912444637e-17,0.043103135426415765,-6.533271001290826e-18,-0.04376985021323975,-1.7362394912444637e-17,-0.04376985021323975,7.9929469974264e-18,0.0614302862705147,1.0164387934560354e-18,-0.061430286270514646,0.31168229410253095,0.8976125528790063,0.3116822941025307,100.0,109.28571428571416,[0.25652114]
1.692138894553597e-17,0.159777771855925,-1.6437159069308654e-17,0.159777771855925,-1.9426171249685344e-18,-0.02750528404773133,-1.6437159069308654e-17,-0.02750528404773133,1.0915554772588558e-17,0.1621279649838067,5.5357782467448915e-18,-0.16212796498380666,0.1169271477321329,0.9862332808450828,0.11692714773213297,100.0,109.28571428571416,[0.45235595]
1.669782518702004e-17,0.18331800545490354,-1.5929053451880606e-17,0.18331800545490354,-1.1482060995624075e-18,-0.01919310471405968,-1.5929053451880606e-17,-0.01919310471405968,1.1319271851073639e-17,0.18432001083042757,8.026316115384766e-18,-0.18432001083042748,0.16277437281978313,0.9731438779061667,0.16277437281978327,100.0,109.28571428571416,[0.94974145]
1.636356481020981e-17,0.19287933169640725,-1.5544201261240563e-17,0.19287933169640725,-8.486740735896056e-19,-0.015608339216045491,-1.5544201261240563e-17,-0.015608339216045491,1.116625005519623e-17,0.1935098365684179,8.671268471621418e-18,-0.19350983656841791,0.17894758328493754,0.9674479442703677,0.17894758328493765,100.0,109.28571428571416,[0.9777948]
1.5996746604489496e-17,0.1977501056632186,-1.520030071477649e-17,0.1977501056632186,-7.423184991499875e-19,-0.013891837888507457,-1.520030071477649e-17,-0.013891837888507457,1.0813540242003618e-17,0.19823745218735714,8.700992639079296e-18,-0.19823745218735717,0.18619735255520717,0.9647077753407316,0.1861973525552072,100.0,109.28571428571416,[0.97405028]
1.5612564223350467e-17,0.20039202738925943,-1.488444738134225e-17,0.20039202738925943,-6.90225972893848e-19,-0.013118582995255082,-1.488444738134225e-17,-0.013118582995255082,1.0357730637262398e-17,0.2008209696744368,8.44427600994289e-18,-0.20082096967443674,0.1894442630475766,0.9634426513273746,0.1894442630475767,100.0,109.28571428571416,[0.97405028]
1.5211017666792725e-17,0.201711862226096,-1.4575639765570584e-17,0.201711862226096,-7.010785825305437e-19,-0.01292738605586424,-1.4575639765570584e-17,-0.01292738605586424,9.848743245301369e-18,0.2021256853370123,8.006152342348965e-18,-0.20212568533701225,0.19037772472698436,0.9630745785532672,0.19037772472698444,100.0,109.28571428571416,[0.97405028]
1.4774742759397557e-17,0.20208705038941557,-1.4281618830428917e-17,0.20208705038941557,-7.314658895132917e-19,-0.013169028657859152,-1.4281618830428917e-17,-0.013169028657859152,9.300686458648235e-18,0.2025156765558797,7.459129928297556e-18,-0.20251567655587974,0.189647401690983,0.9633627178086757,0.18964740169098307,100.0,109.28571428571416,[0.97405028]
1.4377537246694494e-17,0.20165252202016057,-1.3995347336855952e-17,0.20165252202016057,-7.900699815514487e-19,-0.013798821094675073,-1.3995347336855952e-17,-0.013798821094675073,8.716816060194005e-18,0.20212408837319265,6.828603804997912e-18,-0.2021240883731925,0.187433132080852,0.9642290402164435,0.18743313208085208,100.0,109.28571428571416,[0.97405028]
1.3926068685807952e-17,0.20038458194525655,-1.3718215775461394e-17,0.20038458194525655,-8.768908586450144e-19,-0.014846385264374314,-1.3718215775461394e-17,-0.014846385264374314,8.107984659575375e-18,0.20093380959110255,6.137152175314738e-18,-0.20093380959110252,0.18359011442515846,0.9657066530632966,0.18359011442515863,100.0,109.28571428571416,[0.97405028]
1.3496305344194803e-17,0.1980933539669533,-1.3456112534833275e-17,0.1980933539669533,-9.91928520793989e-19,-0.01642512559742313,-1.3456112534833275e-17,-0.01642512559742313,7.455742820409962e-18,0.19877314113523428,5.266352625988084e-18,-0.19877314113523434,0.17759275126787574,0.9679471211766751,0.17759275126787585,100.0,109.28571428571416,[0.9777948]
1.3051348349090278e-17,0.1943179061399275,-1.321154728095008e-17,0.1943179061399275,-1.1655702749811207e-18,-0.018788756524097533,-1.321154728095008e-17,-0.018788756524097533,6.75140845498841e-18,0.1952241430211119,4.322317263498849e-18,-0.1952241430211119,0.16822402846612527,0.9712885011639211,0.16822402846612527,100.0,109.28571428571416,[0.95229744]
1.2567321959293649e-17,0.1879916935201146,-1.3000550929179455e-17,0.1879916935201146,-1.39564559927907e-18,-0.022498587117880314,-1.3000550929179455e-17,-0.022498587117880314,5.96242373440063e-18,0.18933320695235045,3.0113432564179497e-18,-0.18933320695235045,0.15257710900206253,0.976442753886343,0.15257710900206262,100.0,109.28571428571416,[0.94974145]
1.2007327302040148e-17,0.17626752277041546,-1.2860915784895903e-17,0.17626752277041546,-1.80153319969149e-18,-0.028962680554362068,-1.2860915784895903e-17,-0.028962680554362068,4.985688867098015e-18,0.17863111836551038,1.1359011037303144e-18,-0.17863111836551035,0.1222380213736665,0.9849445325810496,0.12223802137366661,100.0,109.28571428571416,[0.46517968]
1.1284543500236213e-17,0.14859180394212745,-1.2893393067093843e-17,0.14859180394212745,-2.7218344968832874e-18,-0.042625964036587076,-1.2893393067093843e-17,-0.042625964036587076,3.50105186879804e-18,0.15458491843910277,-2.6128986534044063e-18,-0.15458491843910277,0.04044910326951271,0.9983625293896925,0.04044910326951268,100.0,109.28571428571416,[0.45774549]
9.474328212835366e-18,0.020201743787368918,-1.3643262820507645e-17,0.020201743787368918,-7.4329523401729e-18,-0.07374209502988374,-1.3643262820507645e-17,-0.07374209502988374,-2.6154789224436693e-19,0.07645918539617656,-2.0332341816750914e-18,-0.07645918539617659,0.5820026281865399,0.5679312296114031,0.58200262818654,100.0,109.28571428571416,[0.33236033]
1.636356481020981e-17,0.04608622770966342,-1.6922016362030593e-17,0.04608622770966342,-6.5397825670728435e-18,-0.03743423857880496,-1.6922016362030593e-17,-0.03743423857880496,7.759615890237442e-18,0.05937392190584886,-3.390346288559241e-18,-0.05937392190584884,0.38156281440123624,0.8419142695859331,0.3815628144012362,100.0,96.42857142857144,[0.3073374]
1.7036426607684946e-17,0.1633368084447068,-1.5667709046066927e-17,0.1633368084447068,-1.964322344241926e-18,-0.019742414550619588,-1.5667709046066927e-17,-0.019742414550619588,1.0472768299411373e-17,0.16452560872153416,6.88737439549003e-18,-0.16452560872153413,0.005717683198725761,0.9999673075644414,0.005717683198725665,100.0,96.42857142857144,[0.51050549]
1.6828056502660388e-17,0.18624459895041368,-1.480116208098189e-17,0.18624459895041368,-1.1937870600365295e-18,-0.012505284834247692,-1.480116208098189e-17,-0.012505284834247692,1.0669200533835565e-17,0.1866639568502342,8.722742293148157e-18,-0.18666395685023418,0.03191923084443343,0.9989806431581145,0.03191923084443353,100.0,96.42857142857144,[1.05155734]
1.651767186705089e-17,0.19568182480721993,-1.402523440636326e-17,0.19568182480721993,-9.15960253337119e-19,-0.008938284176974284,-1.402523440636326e-17,-0.008938284176974284,1.0283932891732867e-17,0.19588585830506466,9.01895537544336e-18,-0.1958858583050646,0.04702592664120287,0.9977861115725516,0.04702592664120297,100.0,96.42857142857144,[1.05155734]
1.6174729402531306e-17,0.20066412788444785,-1.3287697838334442e-17,0.20066412788444785,-8.182867666068576e-19,-0.006750002394048322,-1.3287697838334442e-17,-0.006750002394048322,9.697891971351298e-18,0.20077762512776592,8.812983060338575e-18,-0.20077762512776592,0.05550312989165687,0.9969146428578826,0.05550312989165698,100.0,96.42857142857144,[1.05155734]
1.581008171873833e-17,0.2035534668093269,-1.255986079016842e-17,0.2035534668093269,-8.030931131154836e-19,-0.005223105693548878,-1.255986079016842e-17,-0.005223105693548878,9.00766599845745e-18,0.20362046725018032,8.368177358581704e-18,-0.20362046725018026,0.0611207133623325,0.9962572543254877,0.06112071336233256,100.0,96.42857142857144,[1.0384744]
1.5445434034945353e-17,0.20522217859737296,-1.1841163674180802e-17,0.20522217859737296,-8.226278104615359e-19,-0.004068232139626156,-1.1841163674180802e-17,-0.004068232139626156,8.256665411598106e-18,0.2052624980384725,7.790799023276412e-18,-0.20526249803847252,0.06522879653591512,0.9957361137394548,0.0652287965359152,100.0,96.42857142857144,[1.09154028]
1.507210426344302e-17,0.20604197925557263,-1.1128655937126613e-17,0.20604197925557263,-8.768908586450144e-19,-0.0031482990660989594,-1.1128655937126613e-17,-0.0031482990660989594,7.470936473901336e-18,0.2060660306857086,7.132661815335496e-18,-0.20606603068570856,0.06842627455514445,0.9953068320377431,0.06842627455514452,100.0,96.42857142857144,[1.09213996]
1.4681410316521974e-17,0.20616062417847558,-1.042547466147896e-17,0.20616062417847558,-9.506886041745453e-19,-0.0023921916765535897,-1.042547466147896e-17,-0.0023921916765535897,6.637456053803105e-18,0.20617450264927537,6.396670160082094e-18,-0.20617450264927537,0.07101271362939372,0.9949444150333121,0.07101271362939378,100.0,96.42857142857144,[1.09213996]
1.4295057413455606e-17,0.20558659949170527,-9.718206700014988e-18,0.20558659949170527,-1.06572626632352e-18,-0.0017628836886731942,-9.718206700014988e-18,-0.0017628836886731942,5.775758848649464e-18,0.20559415762482794,5.609748814948596e-18,-0.20559415762482794,0.07314290943924681,0.9946357270868188,0.07314290943924687,100.0,96.42857142857144,[1.08689895]
1.390219294460722e-17,0.2041918177434662,-9.02257137950535e-18,0.2041918177434662,-1.2024691477458861e-18,-0.0012456188210378835,-9.02257137950535e-18,-0.0012456188210378835,4.874992248803719e-18,0.20419561699416644,4.765257715649078e-18,-0.20419561699416638,0.07488304939395143,0.9943767182647261,0.07488304939395148,100.0,96.42857142857144,[1.02546776]
1.3500646388049481e-17,0.2016344152882623,-8.322645886748705e-18,0.2016344152882623,-1.3826224677150351e-18,-0.0008469580671326492,-8.322645886748705e-18,-0.0008469580671326492,3.9091099911377995e-18,0.20163619408877695,3.8393625084071545e-18,-0.20163619408877695,0.07621866730238328,0.9941737421141726,0.07621866730238334,100.0,96.42857142857144,[1.03855071]
1.3088247221855044e-17,0.19709912534936136,-7.625179188362874e-18,0.19709912534936136,-1.6430850989957327e-18,-0.0006064138564979382,-7.625179188362874e-18,-0.0006064138564979382,2.8412132028869403e-18,0.19710005822233692,2.794391463620606e-18,-0.19710005822233695,0.07700860346918147,0.9940519855538004,0.07700860346918155,100.0,96.42857142857144,[1.03855071]
1.263894918289584e-17,0.18836158985868445,-6.9307817436399216e-18,0.18836158985868445,-2.0663368748268657e-18,-0.0006384148862481102,-6.9307817436399216e-18,-0.0006384148862481102,1.5627757876841843e-18,0.18836267174697394,1.515922452588488e-18,-0.18836267174697394,0.07678886799675147,0.9940859819470119,0.07678886799675153,100.0,96.42857142857144,[1.03855071]
1.2089807135279036e-17,0.16685764497687333,-6.268840384611712e-18,0.16685764497687333,-3.0083433912920544e-18,-0.0012554052197337254,-6.268840384611712e-18,-0.0012554052197337254,-3.060435917548194e-19,0.16686236762521992,-3.9966804579933197e-19,-0.16686236762521992,0.0738820640127192,0.9945264608015421,0.07388206401271925,100.0,96.42857142857144,[0.48465467]
1.078315293502087e-17,0.053715780229935714,-5.6138514786320095e-18,0.053715780229935714,-7.742251714818729e-18,-0.0004715431109467889,-5.6138514786320095e-18,-0.0004715431109467889,-4.792512415564831e-18,0.05371784990686274,-4.8898692365631216e-18,-0.05371784990686274,0.07299973249259283,0.994656763970376,0.07299973249259295,100.0,96.42857142857144,[0.32587542]
8.004884868026765e-18,0.014788545160430497,-1.26781754317116e-17,0.014788545160430497,-7.371092465243735e-18,-0.07812051045406923,-1.26781754317116e-17,-0.07812051045406923,-1.3847929896423743e-18,0.07950795697014498,-2.326081855823144e-18,-0.079507956970145,0.5183022785844192,0.6802392932111446,0.5183022785844197,100.0,122.14285714285735,[0.4273552]
7.397138728371805e-18,0.14203452379807466,-9.609065905055327e-18,0.14203452379807466,-2.522146479568086e-18,-0.04805186029045845,-9.609065905055327e-18,-0.04805186029045845,-3.4619824741059357e-19,0.1499426131155501,-5.278842259382039e-18,-0.14994261311555024,0.16449000444254985,0.9725667467464535,0.1644900044425497,100.0,122.14285714285735,[0.50848584]
5.639015967227098e-18,0.17074793039816671,-7.273724208159506e-18,0.17074793039816671,-1.4651023009539226e-18,-0.03369450567567403,-7.273724208159506e-18,-0.03369450567567403,-1.5649463096115235e-18,0.17404072927905473,-3.856887681963574e-18,-0.17404072927905473,0.2531720240763774,0.9337065130168797,0.2531720240763773,100.0,122.14285714285735,[0.54884241]
3.694228320331224e-18,0.18259520537872706,-5.1374643085874606e-18,0.18259520537872706,-9.224718191191365e-19,-0.027265076944701896,-5.1374643085874606e-18,-0.027265076944701896,-3.261209195827065e-18,0.1846195911817053,-4.644426546199398e-18,-0.18461959118170532,0.2836572519735734,0.9160115320265357,0.2836572519735735,100.0,122.14285714285735,[1.09010882]
1.6843250156151764e-18,0.1886207060768673,-3.07981800007123e-18,0.1886207060768673,-5.55653613398821e-19,-0.023927416079914755,-3.07981800007123e-18,-0.023927416079914755,-5.135454880084416e-18,0.1901323013093706,-5.768639283861837e-18,-0.19013230130937064,0.29786542826775064,0.9069467312283224,0.29786542826775075,100.0,122.14285714285735,[1.09132588]
-3.7332977150233287e-19,0.19185123009464336,-1.0614445726777924e-18,0.19185123009464336,-2.626331532080365e-19,-0.02213016971404985,-1.0614445726777924e-18,-0.02213016971404985,-7.087839353725977e-18,0.19312337740522356,-7.174657423065318e-18,-0.19312337740522353,0.30511701819543824,0.902112637321443,0.30511701819543807,100.0,122.14285714285735,[1.09132588]
-2.444007690183877e-18,0.19341537220335453,9.390220488150974e-19,0.19341537220335453,-6.5115657820174346e-21,-0.021262431901346208,9.390220488150974e-19,-0.021262431901346208,-9.092316353623677e-18,0.19458056741340213,-8.795751176226269e-18,-0.19458056741340218,0.3085261873567273,0.899790633108749,0.3085261873567274,100.0,122.14285714285735,[1.08981515]
-4.534220306211473e-18,0.19378443738357146,2.9209714051153752e-18,0.19378443738357146,2.1054062695189705e-19,-0.021062083456937275,2.9209714051153752e-18,-0.021062083456937275,-1.1133692226286142e-17,0.1949256769428141,-1.0484448318808333e-17,-0.19492567694281404,0.30930762257018,0.8992539069917718,0.30930762257018013,100.0,122.14285714285735,[1.08981515]
-6.6461381415124616e-18,0.19312526836583901,4.889770450832438e-18,0.19312526836583901,3.9286446884838522e-19,-0.021433947148042667,4.889770450832438e-18,-0.021433947148042667,-1.3193517535330992e-17,0.19431104799193066,-1.2038907565303852e-17,-0.1943110479919307,0.3078639777458542,0.9002441571112808,0.30786397774585417,100.0,122.14285714285735,[1.08981515]
-8.75371493295877e-18,0.19140365656465386,6.8440456525591425e-18,0.19140365656465386,5.686767449628559e-19,-0.022394429602881363,6.8440456525591425e-18,-0.022394429602881363,-1.5285900673285926e-17,0.1927092894065006,-1.3646945050579089e-17,-0.1927092894065005,0.3040778763965487,0.9028140950230731,0.30407787639654876,100.0,122.14285714285735,[1.09132588]
-1.0891679031387828e-17,0.18837342141554367,8.778574191907826e-18,0.18837342141554367,7.238690627676047e-19,-0.02407678202160155,8.778574191907826e-18,-0.02407678202160155,-1.74054153353326e-17,0.18990586438631568,-1.5117316125477606e-17,-0.18990586438631574,0.29725980895753706,0.9073440427737746,0.29725980895753695,100.0,122.14285714285735,[1.09132588]
-1.304483678330826e-17,0.1834426616803666,1.069324584706187e-17,0.1834426616803666,8.106899398611706e-19,-0.02680107241491693,1.069324584706187e-17,-0.02680107241491693,-1.9573766740744406e-17,0.18539014970317874,-1.6441020028301088e-17,-0.1853901497031788,0.2856964776274911,0.9147431581282744,0.285696477627491,100.0,122.14285714285735,[1.09010882]
-1.5260939671121526e-17,0.17525192441025195,1.2564625764087032e-17,0.17525192441025195,8.193720275705272e-19,-0.03128926984189908,1.2564625764087032e-17,-0.03128926984189908,-2.1809404325903725e-17,0.17802318786252488,-1.7018180021141412e-17,-0.17802318786252483,0.26511566256731284,0.9270530572318876,0.2651156625673127,100.0,122.14285714285735,[0.54512449]
-1.7553010826391663e-17,0.16021732243737669,1.4344114600453983e-17,0.16021732243737669,6.696060145841261e-19,-0.039360937836655875,1.4344114600453983e-17,-0.039360937836655875,-2.4201319489831463e-17,0.16498143482338684,-1.738899116821944e-17,-0.16498143482338673,0.2224975250023221,0.9492047738689908,0.22249752500232195,100.0,122.14285714285735,[0.52592682]
-2.012073826643387e-17,0.12546589703421746,1.5891476291013547e-17,0.12546589703421746,9.767348673026151e-21,-0.056732930657464126,1.5891476291013547e-17,-0.056732930657464126,-2.6998036993207953e-17,0.13769646596621662,-1.3003200192676101e-17,-0.13769646596621668,0.09610498685764088,0.9907207795348725,0.09610498685764064,100.0,122.14285714285735,[0.51845645]
-2.4166591138994036e-17,-0.01877293068369881,1.654161543706185e-17,-0.01877293068369881,-4.4441436462268986e-18,-0.09509213500567605,1.654161543706185e-17,-0.09509213500567605,-3.1708069575533894e-17,0.09692748354513632,-5.15482626324538e-17,-0.09692748354513638,0.660250564164883,0.35796422312838355,0.660250564164883,100.0,122.14285714285735,[0.37800637]
-2.505650512920309e-17,-0.02554076232842944,1.719202589835107e-17,-0.02554076232842944,-4.324764940223246e-18,-0.09667701824104744,1.719202589835107e-17,-0.09667701824104744,-3.209984878341861e-17,0.0999938817943235,-4.725113253517648e-17,-0.0999938817943235,0.6111262928109205,0.5030400664662429,0.6111262928109203,100.0,135.00000000000023,[0.46001544]
-2.217839305355138e-17,0.11723141563018472,1.7994796824617965e-17,0.11723141563018472,3.7007398861132416e-19,-0.05874028019646489,1.7994796824617965e-17,-0.05874028019646489,-2.878220601748073e-17,0.13112446502547223,-1.3423902764783866e-17,-0.1311244650254723,0.22303669808055235,0.948951665059211,0.22303669808055215,100.0,135.00000000000023,[0.50075971]
-2.0791429541981666e-17,0.15323744806990153,1.789346058213532e-17,0.15323744806990153,1.2827784590574345e-18,-0.041168761648974476,1.789346058213532e-17,-0.041168761648974476,-2.7345320501582217e-17,0.15867130309758545,-1.838804736967776e-17,-0.15867130309758545,0.35314730588682325,0.8663567167684203,0.3531473058868232,100.0,135.00000000000023,[0.52631297]
-1.974306745107686e-17,0.16838640460077992,1.7548839354562558e-17,0.16838640460077992,1.677813449833159e-18,-0.03315753145996371,1.7548839354562558e-17,-0.03315753145996371,-2.629261736682273e-17,0.17161993808091203,-1.9478807331000738e-17,-0.171619938080912,0.39397774714573663,0.8303993433932496,0.3939777471457366,100.0,135.00000000000023,[0.5466458]
-1.877935571533828e-17,0.17616314144231165,1.7111563972216507e-17,0.17616314144231165,1.9024624693127603e-18,-0.02885013044267564,1.7111563972216507e-17,-0.02885013044267564,-2.5369060286739925e-17,0.17850989448594526,-1.979836699033958e-17,-0.17850989448594518,0.4126186154102377,0.8120909779291212,0.4126186154102377,100.0,135.00000000000023,[0.54110384]
-1.784169024272777e-17,0.18037550637075653,1.662897894463725e-17,0.18037550637075653,2.065251613863196e-18,-0.026375812073461624,1.662897894463725e-17,-0.026375812073461624,-2.451604516929564e-17,0.1822937375804266,-1.9621176577571403e-17,-0.18229373758042652,0.42239436291483223,0.8019763115925221,0.42239436291483223,100.0,135.00000000000023,[0.76265464]
-1.697782251564679e-17,0.18246034346190546,1.6123993452479753e-17,0.18246034346190546,2.1705219273391446e-18,-0.02499484729767685,1.6123993452479753e-17,-0.02499484729767685,-2.3693417358834103e-17,0.18416438126758033,-1.922553031943401e-17,-0.18416438126758033,0.4275134395707089,0.7965328103555082,0.4275134395707088,100.0,135.00000000000023,[1.09825104]
-1.6122636876275166e-17,0.18302250964702765,1.5599218904937843e-17,0.18302250964702765,2.2443196728686755e-18,-0.02438410629900671,1.5599218904937843e-17,-0.02438410629900671,-2.2904432638246324e-17,0.184639713164578,-1.8633633758350674e-17,-0.18463971316457795,0.42958906464131047,0.794296211171379,0.4295890646413103,100.0,135.00000000000023,[1.09825104]
-1.5282644890394917e-17,0.18227948347395767,1.5055977963810993e-17,0.18227948347395767,2.2974974600884846e-18,-0.024416782736823798,1.5055977963810993e-17,-0.024416782736823798,-2.2133897354040927e-17,0.18390755660045638,-1.803948546354013e-17,-0.18390755660045643,0.42919035969820185,0.7947271671990682,0.4291903596982018,100.0,135.00000000000023,[1.09825104]
-1.446001707993338e-17,0.18019328580330085,1.4504071892177343e-17,0.18019328580330085,2.3300552889985717e-18,-0.025092842230861206,1.4504071892177343e-17,-0.025092842230861206,-2.1377470462363235e-17,0.18193205044689895,-1.7370306962770337e-17,-0.181932050446899,0.42625926325639385,0.7978759809495662,0.4262592632563938,100.0,135.00000000000023,[0.77984977]
-1.3685140751873308e-17,0.17645835816347505,1.3925424312110773e-17,0.17645835816347505,2.3224584622528847e-18,-0.02653902351245744,1.3925424312110773e-17,-0.02653902351245744,-2.0648175094777283e-17,0.17844290945494035,-1.6370926469390092e-17,-0.17844290945494032,0.42007646902012497,0.8044075586114093,0.4200764690201249,100.0,135.00000000000023,[0.53871801]
-1.2926543338268277e-17,0.1703359680745665,1.3328632525307854e-17,0.1703359680745665,2.266024892142067e-18,-0.029078392908656173,1.3328632525307854e-17,-0.029078392908656173,-1.9950352295137748e-17,0.1728001590104879,-1.5389032988058074e-17,-0.17280015901048806,0.40873103350945844,0.8160134095053706,0.4087310335094584,100.0,135.00000000000023,[0.54888353]
-1.223197632151975e-17,0.16013300875630496,1.2683105738355146e-17,0.16013300875630496,2.1499019690294227e-18,-0.03345062610985281,1.2683105738355146e-17,-0.03345062610985281,-1.9305707282718022e-17,0.16358950113160695,-1.3818735102299137e-17,-0.16358950113160697,0.3871959440249702,0.8367548039068701,0.38719594402497004,100.0,135.00000000000023,[0.52905283]
-1.1692601622575972e-17,0.1414232643760286,1.1944789139008689e-17,0.1414232643760286,1.837346811492586e-18,-0.0415264438613153,1.1944789139008689e-17,-0.0415264438613153,-1.8768503105701584e-17,0.1473939796821398,-1.1943543497709106e-17,-0.14739397968213988,0.3388768684112637,0.8776815687432143,0.33887686841126374,100.0,135.00000000000023,[0.53271512]
-1.1515704085497832e-17,0.0986921800631501,1.0963374083800249e-17,0.0986921800631501,1.0396800031954503e-18,-0.05916238027751904,1.0963374083800249e-17,-0.05916238027751904,-1.8528660432730608e-17,0.11506664871160119,-1.838451529955574e-17,-0.11506664871160116,0.1717691452225558,0.9700467625321086,0.17176914522255557,100.0,135.00000000000023,[0.49595834]
-1.3217393276531723e-17,-0.06296458646014062,9.082820320191568e-18,-0.06296458646014062,-3.559655960836197e-18,-0.09716387109856095,9.082820320191568e-18,-0.09716387109856095,-1.9795159977333e-17,0.11578150540977727,-1.987023329352292e-17,-0.11578150540977733,0.6915113816838451,0.208863634947298,0.6915113816838453,100.0,135.00000000000023,[0.32207358]
-1.2674762794696937e-17,-0.06973796945429636,8.046904815963847e-18,-0.06973796945429636,-3.5916711592644496e-18,-0.095638083628568,8.046904815963847e-18,-0.095638083628568,-1.8265484649040737e-17,0.11836396167648887,-2.522903921387056e-17,-0.11836396167648894,0.6567303525469711,0.3706892068661595,0.656730352546971,100.0,147.8571428571427,[0.47048431]
-9.269213890701817e-18,0.09043838548148739,7.723056161523823e-18,0.09043838548148739,9.46347560319867e-19,-0.05734388174584838,7.723056161523823e-18,-0.05734388174584838,-1.454358217413594e-17,0.10708605110928295,-4.5078554119059304e-18,-0.1070860511092828,0.30419182929251026,0.902737316157559,0.3041918292925099,100.0,147.8571428571427,[0.51468169]
-7.761786412164781e-18,0.13441047789490487,6.5060716483888574e-18,0.13441047789490487,1.6984334081428809e-18,-0.04003602756571732,6.5060716483888574e-18,-0.04003602756571732,-1.2286239369703228e-17,0.14024642623318284,-7.715872638001183e-18,-0.1402464262331827,0.4664157535313385,0.7516067387374779,0.4664157535313386,100.0,147.8571428571427,[0.55322678]
-6.673269665604201e-18,0.15322081892905806,5.0539246501887395e-18,0.15322081892905806,1.9366481896683518e-18,-0.032028099478716564,5.0539246501887395e-18,-0.032028099478716564,-1.0304552850042589e-17,0.1565324838795762,-8.092376514373405e-18,-0.1565324838795761,0.5090825984926709,0.6940243625579002,0.5090825984926711,100.0,147.8571428571427,[0.51501797]
-5.743201019739377e-18,0.16299573031307657,3.506885146477764e-18,0.16299573031307657,2.0006785865248566e-18,-0.02760330519327405,3.506885146477764e-18,-0.02760330519327405,-8.414570881812029e-18,0.165316516288864,-7.274655703836265e-18,-0.16531651628886387,0.5275036446889998,0.6659427976032496,0.527503644689,100.0,147.8571428571427,[0.51805409]
-4.869565943985371e-18,0.16838530315054054,1.9236928869145463e-18,0.16838530315054054,1.991453868333665e-18,-0.02494205241158613,1.9236928869145463e-18,-0.02494205241158613,-6.572340395982931e-18,0.1702225493158933,-6.01960756364603e-18,-0.17022254931589342,0.5371386265022207,0.6503569726224324,0.5371386265022207,100.0,147.8571428571427,[0.52143731]
-4.0458528725601656e-18,0.17115996323755325,3.1397956255165314e-19,0.17115996323755325,1.936105559186517e-18,-0.023322321889403263,3.1397956255165314e-19,-0.023322321889403263,-4.752357759909057e-18,0.1727416096769782,-4.6760968166219456e-18,-0.1727416096769783,0.542450145903733,0.6414792891575203,0.5424501459037329,100.0,147.8571428571427,[0.53903027]
-3.2557828910087173e-18,0.1720713325785307,-1.3149293151061455e-18,0.1720713325785307,1.8682767489571687e-18,-0.022423990381246667,-1.3149293151061455e-18,-0.022423990381246667,-2.9573361259995845e-18,0.17352630590192814,-3.260374592100792e-18,-0.1735263059019281,0.5450892613193095,0.636989320466787,0.5450892613193098,100.0,147.8571428571427,[0.53903027]
-2.504782304149373e-18,0.17139620524363094,-2.9543516583494932e-18,0.17139620524363094,1.7375028028349853e-18,-0.022113751821176066,-2.9543516583494932e-18,-0.022113751821176066,-1.1650276444992859e-18,0.17281688919641341,-1.9629240105543538e-18,-0.17281688919641341,0.5456632389733901,0.6360057069446292,0.5456632389733902,100.0,147.8571428571427,[0.53903027]
-1.753781717290029e-18,0.16910031325540376,-4.611477321062701e-18,0.16910031325540376,1.6148683139403238e-18,-0.022375147544150202,-4.611477321062701e-18,-0.022375147544150202,6.023198348366126e-19,0.1705742160195912,-6.444280641653097e-19,-0.17057421601959133,0.5442022896851925,0.6385042958373792,0.5442022896851926,100.0,147.8571428571427,[0.52143731]
-1.0570441786141634e-18,0.1648274054277991,-6.28305052035476e-18,0.1648274054277991,1.4358002549348442e-18,-0.023303307305903857,-6.28305052035476e-18,-0.023303307305903857,2.3604425959813198e-18,0.1664665663472802,6.035171897710723e-19,-0.16646656634728016,0.540164969323593,0.6453244237058468,0.540164969323593,100.0,147.8571428571427,[0.52143731]
-3.9286446884838522e-19,0.15770514220583792,-7.973547957700806e-18,0.15770514220583792,1.2285154108739559e-18,-0.025160309581182264,-7.973547957700806e-18,-0.025160309581182264,4.09848802929814e-18,0.1596995712467146,1.4987314887473938e-18,-0.15969957124671463,0.5319771579058977,0.658787224324157,0.5319771579058978,100.0,147.8571428571427,[0.52143731]
1.7906805900547943e-19,0.14573211213333115,-9.705387054881641e-18,0.14573211213333115,9.354949506831713e-19,-0.028557031099502923,-9.705387054881641e-18,-0.028557031099502923,5.801262481295699e-18,0.14850371218275912,1.9110923559359735e-18,-0.14850371218275918,0.5152067843743332,0.6849262286329225,0.5152067843743334,100.0,147.8571428571427,[0.51501797]
5.751883107448733e-19,0.12370098674256043,-1.151112564080735e-17,0.12370098674256043,4.807706069056205e-19,-0.035044821950981554,-1.151112564080735e-17,-0.035044821950981554,7.437293384027579e-18,0.12856933408343957,9.80679439736817e-19,-0.12856933408343965,0.4735096285690475,0.742682478118883,0.4735096285690475,100.0,147.8571428571427,[0.52687445]
4.851116507602988e-19,0.07365661235652636,-1.3518078392278424e-17,0.07365661235652636,-4.883674336513075e-19,-0.04945992463790951,-1.3518078392278424e-17,-0.04945992463790951,8.873636269444258e-18,0.08872192901998513,-9.198467402797037e-18,-0.08872192901998513,0.2873361388772916,0.9137154297647487,0.2873361388772916,100.0,147.8571428571427,[0.46077162]
-1.8633930746206557e-18,-0.10354825840569216,-1.626314425666526e-17,-0.10354825840569216,-5.258089368979078e-18,-0.07958616086967954,-1.626314425666526e-17,-0.07958616086967954,9.17316829541706e-18,0.13059938292666817,2.7410310145349e-17,-0.13059938292666812,0.703965521258553,0.09415460561410048,0.7039655212585532,100.0,147.8571428571427,[0.22185453]
-1.8438583772746034e-18,-0.10898848624302207,-1.6305978150325095e-17,-0.10898848624302207,-5.334600266917783e-18,-0.07526009020991299,-1.6305978150325095e-17,-0.07526009020991299,9.731535061225055e-18,0.13244837225103842,3.121108817422903e-17,-0.1324483722510384,0.6819126232157223,0.2645568910425588,0.6819126232157222,100.0,160.7142857142859,[0.38118645]
1.0266568716314154e-18,0.06701096553386961,-1.4046329166344586e-17,0.06701096553386961,-7.162722360219177e-19,-0.04420010924367207,-1.4046329166344586e-17,-0.04420010924367207,1.0067965959962622e-17,0.08027527115453433,-1.5923907024596197e-18,-0.08027527115453424,0.42855382070883297,0.7954138831524904,0.42855382070883286,100.0,160.7142857142859,[0.47276668]
1.611612531049315e-18,0.11803245071234679,-1.249701739749093e-17,0.11803245071234679,9.984400865760066e-20,-0.030591565727083766,-1.249701739749093e-17,-0.030591565727083766,9.289833849011539e-18,0.12193237189031075,2.6925472914720554e-18,-0.12193237189031075,0.5874857386430961,0.5565258428698092,0.5874857386430962,100.0,160.7142857142859,[0.47337114]
1.6962628862155417e-18,0.14012605031565703,-1.1131623447574147e-17,0.14012605031565703,3.944923602938896e-19,-0.02418114693814288,-1.1131623447574147e-17,-0.02418114693814288,8.341858397246168e-18,0.14219717945272378,4.548776077351415e-18,-0.1421971794527238,0.6179903501599766,0.4859792734451741,0.6179903501599766,100.0,160.7142857142859,[0.50982878]
1.5725431363572105e-18,0.15173740551901627,-9.832837389302587e-18,0.15173740551901627,5.334057636435948e-19,-0.020523969542208965,-9.832837389302587e-18,-0.020523969542208965,7.332565701033465e-18,0.1531191482454493,4.658483971752892e-18,-0.1531191482454494,0.6300996073769699,0.45381600849548837,0.6300996073769697,100.0,160.7142857142859,[0.51169034]
1.372855119042009e-18,0.15825329386610976,-8.568949253894026e-18,0.15825329386610976,5.968935300182648e-19,-0.018211946704012067,-8.568949253894026e-18,-0.018211946704012067,6.29559885024719e-18,0.1592977715544792,4.192786075049642e-18,-0.15929777155447922,0.6363500582482197,0.43602431897197547,0.6363500582482196,100.0,160.7142857142859,[0.51169034]
1.1221598364343378e-18,0.16173705625332846,-7.323340982842274e-18,0.16173705625332846,6.131724444733084e-19,-0.016683729168798945,-7.323340982842274e-18,-0.016683729168798945,5.247779389824217e-18,0.16259527110119223,3.719741205486017e-18,-0.16259527110119212,0.6399399195151207,0.4253866462666189,0.6399399195151206,100.0,160.7142857142859,[0.51169034]
8.269688543162142e-19,0.16307129914818727,-6.0834303318497876e-18,0.16307129914818727,5.9635089953643e-19,-0.015685556737661126,-6.0834303318497876e-18,-0.015685556737661126,4.177169449164184e-18,0.16382394603978992,2.990048174280583e-18,-0.16382394603978986,0.641999120379294,0.4191351319854086,0.641999120379294,100.0,160.7142857142859,[0.50807194]
5.122431748520381e-19,0.1625891420741337,-4.859662937691886e-18,0.1625891420741337,5.3883206846194265e-19,-0.01510397554435382,-4.859662937691886e-18,-0.01510397554435382,3.1111718675997468e-18,0.16328918885721508,2.2272627322002733e-18,-0.1632891888572151,0.6429626458372324,0.4161707247224039,0.6429626458372325,100.0,160.7142857142859,[0.50807194]
1.6170388358676627e-19,0.160266856269848,-3.643254969443869e-18,0.160266856269848,4.927084775059858e-19,-0.014909308621044217,-3.643254969443869e-18,-0.014909308621044217,2.0305232630257698e-18,0.1609588540658067,1.3529865015428296e-18,-0.16095885406580673,0.6429242919707036,0.41628921387412743,0.6429242919707037,100.0,160.7142857142859,[0.50807194]
-2.355016291162972e-19,0.15571630714464366,-2.438276155719497e-18,0.15571630714464366,3.8119791348893727e-19,-0.015146178683074643,-2.438276155719497e-18,-0.015146178683074643,9.455336145971149e-19,0.15645119059778562,4.703545517609274e-19,-0.15645119059778556,0.6416818017158984,0.4201058565329422,0.6416818017158984,100.0,160.7142857142859,[0.50807194]
-6.717765365114653e-19,0.14797132030965257,-1.2422677021479562e-18,0.14797132030965257,2.2953269381611454e-19,-0.01596370981022391,-1.2422677021479562e-18,-0.01596370981022391,-1.5871941593667495e-19,0.1488299420986477,-4.3168307980396885e-19,-0.1488299420986477,0.6385257178322264,0.4296158927852644,0.6385257178322267,100.0,160.7142857142859,[0.51169034]
-1.238282759546982e-18,0.13480867888915113,-7.861359105581464e-20,0.13480867888915113,6.5115657820174346e-21,-0.01772292765268583,-7.861359105581464e-20,-0.01772292765268583,-1.2792513609255084e-18,0.1359686804687778,-1.3538319093605575e-18,-0.13596868046877786,0.6312909705644444,0.4504924205440131,0.6312909705644443,100.0,160.7142857142859,[0.49783202]
-1.983857041587978e-18,0.11045595359611801,1.0450893508112408e-18,0.11045595359611801,-3.7875607632068074e-19,-0.021348486038947463,1.0450893508112408e-18,-0.021348486038947463,-2.439937961570116e-18,0.11250011351542234,-2.2213419685252686e-18,-0.11250011351542234,0.610980971361184,0.5033929928684826,0.6109809713611841,100.0,160.7142857142859,[0.48230444]
-3.266635500645413e-18,0.05520186606706911,2.048548769344219e-18,0.05520186606706911,-1.2822358285755997e-18,-0.02969839708221317,2.048548769344219e-18,-0.02969839708221317,-3.73004193213232e-18,0.0626836566142997,-4.408045974251283e-18,-0.06268365661429975,0.4771153952791282,0.7380527075861743,0.47711539527912833,100.0,160.7142857142859,[0.38693689]
-7.090009875653316e-18,-0.13261243369521128,2.6359293087278178e-18,-0.13261243369521128,-5.980330540301178e-18,-0.04599312967888456,2.6359293087278178e-18,-0.04599312967888456,-5.888897304112017e-18,0.14036176668959932,-6.686757727200371e-18,-0.14036176668959927,0.7071040940214456,0.0027568888662632737,0.7071040940214458,100.0,160.7142857142859,[0.15407387]
-7.474192256792344e-18,-0.13565353556605392,3.979974140624911e-18,-0.13565353556605392,-5.991725780419709e-18,-0.03973127211033251,3.979974140624911e-18,-0.03973127211033251,-6.623076346034483e-18,0.14135223979504513,-8.626206293398212e-18,-0.14135223979504502,0.6965857686775462,0.1718619613289206,0.6965857686775464,100.0,173.57142857142813,[0.21757902]
-4.10988326941667e-18,0.05144728663295246,5.525623153726185e-18,0.05144728663295246,-1.3150649727266042e-18,-0.02206196886939149,5.525623153726185e-18,-0.02206196886939149,-6.209320603635459e-18,0.055978154420159056,-2.382474914924095e-18,-0.05597815442015902,0.6145847287262408,0.4945414264073189,0.6145847287262408,100.0,173.57142857142813,[0.34906347]
-3.301906481964674e-18,0.10719937618519712,6.687428929739577e-18,0.10719937618519712,-4.362749073951681e-19,-0.014852449582728298,6.687428929739577e-18,-0.014852449582728298,-6.64939392440347e-18,0.10822338708940356,-4.736745908408845e-18,-0.10822338708940357,0.6851467468348844,0.24728095479261844,0.6851467468348844,100.0,173.57142857142813,[0.32633191]
-3.04524226405682e-18,0.13154274796498444,7.75408784220375e-18,0.13154274796498444,-7.46116912522831e-20,-0.011313265784057927,7.75408784220375e-18,-0.011313265784057927,-7.208032005452382e-18,0.13202834742917963,-5.864815780633643e-18,-0.13202834742917968,0.6932922571601315,0.1967020394495693,0.6932922571601317,100.0,173.57142857142813,[0.22508408]
-2.9871808025004978e-18,0.14446088813994637,8.789392887139407e-18,0.14446088813994637,1.2073528220823992e-19,-0.00915177407519126,8.789392887139407e-18,-0.00915177407519126,-7.797871339206794e-18,0.1447504859090478,-6.6704231364918684e-18,-0.14475048590904777,0.6962493158566753,0.1745674091525207,0.6962493158566753,100.0,173.57142857142813,[0.21860112]
-3.055009612729846e-18,0.15182582980602913,9.808164659581661e-18,0.15182582980602913,2.6100526176253214e-19,-0.007650252182139635,9.808164659581661e-18,-0.007650252182139635,-8.401276435007077e-18,0.15201844938934111,-7.403021739987974e-18,-0.1520184493893411,0.6977860818920294,0.1618306764354018,0.6977860818920294,100.0,173.57142857142813,[0.21665792]
-3.160279926205795e-18,0.15589517665374966,1.0816812982097185e-17,0.15589517665374966,3.2734183816683475e-19,-0.006519175564823472,1.0816812982097185e-17,-0.006519175564823472,-9.014720194721302e-18,0.15603142553328414,-8.100460084782145e-18,-0.1560314255332841,0.6987392184459654,0.15338516620274395,0.6987392184459653,100.0,173.57142857142813,[0.21702275]
-3.3111312001558655e-18,0.1576408191502911,1.1818339279538626e-17,0.1576408191502911,3.7862041870022204e-19,-0.005621382491422368,1.1818339279538626e-17,-0.005621382491422368,-9.638202618349472e-18,0.15774101496912485,-8.787423430227415e-18,-0.15774101496912488,0.6993929236564065,0.14730606463648438,0.6993929236564064,100.0,173.57142857142813,[0.21702275]
-3.5108192174710664e-18,0.15743807253828354,1.2821289981994886e-17,0.15743807253828354,4.0046129559407223e-19,-0.004885720018051781,1.2821289981994886e-17,-0.004885720018051781,-1.0264126879145898e-17,0.1575138627063175,-9.464009716349262e-18,-0.1575138627063175,0.6998668478909158,0.14273328429791007,0.6998668478909157,100.0,173.57142857142813,[0.21702275]
-3.743065063696355e-18,0.15527849687320264,1.3815626425552017e-17,0.15527849687320264,3.898800011982939e-19,-0.00427515148225379,1.3815626425552017e-17,-0.00427515148225379,-1.0894799156658378e-17,0.1553373377890758,-1.0129048622759386e-17,-0.15533733778907582,0.7002155601475663,0.13927073868713397,0.7002155601475665,100.0,173.57142857142813,[0.21702275]
-4.002442434013383e-18,0.15076719966866403,1.4808826736537805e-17,0.15076719966866403,3.4986100316297837e-19,-0.0037749383694221958,1.4808826736537805e-17,-0.0037749383694221958,-1.1536595359048471e-17,0.15081445108352093,-1.0790505603424767e-17,-0.15081445108352093,0.700458818996395,0.13680236028793805,0.7004588189963948,100.0,173.57142857142813,[0.21702275]
-4.336702810823611e-18,0.14290252248783633,1.5797872532897047e-17,0.14290252248783633,2.828461386563823e-19,-0.0033917017951600767,1.5797872532897047e-17,-0.0033917017951600767,-1.2181783001950032e-17,0.14294276677906392,-1.1427653392202093e-17,-0.1429427667790639,0.7005842729465898,0.13551144970000337,0.7005842729465898,100.0,173.57142857142813,[0.21702275]
-4.778946653518962e-18,0.12936985891831815,1.67878679325995e-17,0.12936985891831815,1.1476634690805727e-19,-0.0031651017000435783,1.67878679325995e-17,-0.0031651017000435783,-1.284189298310205e-17,0.12940857106589643,-1.2016165384178135e-17,-0.1294085710658964,0.7005140666975447,0.13623540185185443,0.7005140666975446,100.0,173.57142857142813,[0.21702275]
-5.423049035456853e-18,0.10415959297998312,1.776806206922381e-17,0.10415959297998312,-2.2193586707042754e-19,-0.0032099515415550416,1.776806206922381e-17,-0.0032099515415550416,-1.353401816268232e-17,0.10420904278734587,-1.2432058763871329e-17,-0.1042090427873459,0.6998885123505391,0.14252066713111464,0.699888512350539,100.0,173.57142857142813,[0.20965816]
-6.649122609162553e-18,0.04683658679128424,1.8733995198497403e-17,0.04683658679128424,-1.0493116942480177e-18,-0.003839968548249209,1.8733995198497403e-17,-0.003839968548249209,-1.4319340127517713e-17,0.04699373597309587,-1.1221396627331384e-17,-0.04699373597309588,0.6938416778241163,0.19278862058853424,0.6938416778241162,100.0,173.57142857142813,[0.16960369]
-1.049691535585302e-17,-0.14454089512879353,1.968122453335025e-17,-0.14454089512879353,-5.685885675095577e-18,-0.003074423993432633,1.968122453335025e-17,-0.003074423993432633,-1.5874383430835752e-17,0.1445735883469878,-1.6708594132285556e-17,-0.14457358834698777,0.7041853500705613,0.09080740879466873,0.704185350070561,100.0,173.57142857142813,[0.22108091]
-1.0110019822304818e-17,-0.1445852948034189,1.9644596975826403e-17,-0.1445852948034189,-5.742929704498459e-18,0.0038870451982943675,1.9644596975826403e-17,0.0038870451982943675,-1.5133964138372186e-17,0.14463753521740175,-1.4074930980751936e-17,-0.14463753521740172,0.7045345219374499,0.0852186293995515,0.7045345219374497,100.0,173.57142857142813,[0.22108091]
-5.483009703699597e-18,0.04670366161976186,1.8004665916506335e-17,0.04670366161976186,-1.1939227176569882e-18,0.004672589311421095,1.8004665916506335e-17,0.004672589311421095,-1.2102558951602153e-17,0.04693682029671826,-1.5603311946047792e-17,-0.046936820296718265,0.6912886692754512,0.21033295382024964,0.6912886692754513,100.0,173.57142857142813,[0.22034283]
-3.474191659947218e-18,0.10393856871544452,1.6383455608809568e-17,0.10393856871544452,-4.593367028731465e-19,0.004061932282953831,1.6383455608809568e-17,0.004061932282953831,-9.84033247283293e-18,0.10401790884499883,-1.1107805271915132e-17,-0.10401790884499883,0.699033038199084,0.1506838511995105,0.699033038199084,100.0,173.57142857142813,[0.20965816]
-2.0687787119951222e-18,0.12906123379901555,1.47798129629622e-17,0.12906123379901555,-2.350946562549211e-19,0.004035913456219898,1.47798129629622e-17,0.004035913456219898,-7.679577894166811e-18,0.12912432252348996,-8.596872978783104e-18,-0.12912432252348993,0.6998427638871019,0.14296926827023013,0.6998427638871019,100.0,173.57142857142813,[0.21702275]
-8.657669337674014e-19,0.14250686458012207,1.3178010173592307e-17,0.14250686458012207,-1.6462052242662825e-19,0.004280832263863668,1.3178010173592307e-17,0.004280832263863668,-5.536865779021699e-18,0.1425711470716589,-6.323525628796998e-18,-0.1425711470716589,0.6999666478159594,0.14175113364829808,0.6999666478159594,100.0,173.57142857142813,[0.21702275]
2.4147056441647984e-19,0.15028514478621102,1.1573731632649039e-17,0.15028514478621102,-1.9765315300832088e-19,0.0046818720206676144,1.1573731632649039e-17,0.0046818720206676144,-3.4166728288727314e-18,0.15035805488576362,-4.133148231465283e-18,-0.15035805488576365,0.6998546814200903,0.14285254561528524,0.6998546814200906,100.0,173.57142857142813,[0.21702275]
1.2806079371300953e-18,0.15471074643670096,9.989174318279956e-18,0.15471074643670096,-2.425558253801494e-19,0.005199366058886878,9.989174318279956e-18,0.005199366058886878,-1.3042123630899085e-18,0.15479808936293593,-1.9702541623984935e-18,-0.1547980893629359,0.6996049803104675,0.14527815751027767,0.6996049803104676,100.0,173.57142857142813,[0.21702275]
2.274978295092341e-18,0.1567853913929844,8.397978259109675e-18,0.1567853913929844,-3.4334943738096094e-19,0.005826686862304445,8.397978259109675e-18,0.005826686862304445,8.0526363504282275e-19,0.1568936239432395,1.8445322486320577e-19,-0.15689362394323955,0.6992356817676648,0.14879154104255285,0.6992356817676649,100.0,173.57142857142813,[0.21702275]
3.2525271081177086e-18,0.15690403335722292,6.80814725474526e-18,0.15690403335722292,-4.577088114276421e-19,0.006578568093950445,6.80814725474526e-18,0.006578568093950445,2.905989716655968e-18,0.15704188371874322,2.33649756286923e-18,-0.15704188371874325,0.6987273425052208,0.1534933277741526,0.698727342505221,100.0,173.57142857142813,[0.21702275]
4.1741849815140925e-18,0.15507517127959985,5.2243106214848624e-18,0.15507517127959985,-5.940447199886321e-19,0.007492043632101736,5.2243106214848624e-18,0.007492043632101736,5.0052235644440675e-18,0.15525604485875116,4.500003645692372e-18,-0.1552560448587512,0.6980215691025882,0.15978666444707218,0.6980215691025882,100.0,173.57142857142813,[0.21665792]
5.048905318231768e-18,0.15092354674329464,3.647884285742022e-18,0.15092354674329464,-7.756902737828269e-19,0.008638266051657918,3.647884285742022e-18,0.008638266051657918,7.094283090697765e-18,0.15117055467899376,6.655542635629509e-18,-0.15117055467899382,0.6969884956357483,0.16856474691593512,0.6969884956357484,100.0,173.57142857142813,[0.21757902]
5.8804865316435776e-18,0.14347732402586763,2.075307234979697e-18,0.14347732402586763,-1.0066473726137577e-18,0.01015439960673063,2.075307234979697e-18,0.01015439960673063,9.17947637476839e-18,0.14383620664143293,8.871296559260016e-18,-0.14383620664143285,0.6953182277363846,0.18183818178552627,0.6953182277363846,100.0,173.57142857142813,[0.22746149]
6.6005571810383396e-18,0.1304789523717843,5.22400539183883e-19,0.1304789523717843,-1.2913927179565617e-18,0.012329975378722076,5.22400539183883e-19,0.012329975378722076,1.1245202790303191e-17,0.1310602354067711,1.1101359136747174e-17,-0.13106023540677106,0.6920958875830604,0.20495503111959015,0.6920958875830603,100.0,173.57142857142813,[0.22508408]
7.119854552154229e-18,0.10605645067048866,-9.959134633949633e-19,0.10605645067048866,-1.7689075419711735e-18,0.015882729835630743,-9.959134633949633e-19,0.015882729835630743,1.3270028433269697e-17,0.10723913388242852,1.3370762609900982e-17,-0.10723913388242849,0.6831857178798084,0.2579041484158442,0.6831857178798084,100.0,173.57142857142813,[0.3412574]
7.079699896498455e-18,0.05022638745320783,-2.426736779379229e-18,0.05022638745320783,-2.7380455825281016e-18,0.023105344074392433,-2.426736779379229e-18,0.023105344074392433,1.518958376276025e-17,0.05528604635344992,1.589099500415131e-17,-0.055286046353449934,0.6052673027401579,0.5170135244529953,0.6052673027401579,100.0,173.57142857142813,[0.34997367]
4.494608281037534e-18,-0.1369511782382099,-3.46794293080484e-18,-0.1369511782382099,-7.515025200550412e-18,0.04078739982047945,-3.46794293080484e-18,0.04078739982047945,1.6249001949732442e-17,0.14289589638946804,1.313026498689675e-17,-0.14289589638946795,0.6960268144610764,0.1763330573157866,0.6960268144610764,100.0,173.57142857142813,[0.22746149]
4.399647946716446e-18,-0.13398462490212,-4.608738732849691e-18,-0.13398462490212,-7.50166292493523e-18,0.04707832103561526,-4.608738732849691e-18,0.04707832103561526,1.6678358318484217e-17,0.14201495703514547,1.2691345641007978e-17,-0.14201495703514558,0.7071061868693896,0.0012965269235040726,0.7071061868693899,100.0,160.7142857142859,[0.15270972]
6.5173990596971586e-18,0.053758775142892984,-6.414282310945992e-18,0.053758775142892984,-2.689514068809003e-18,0.03083387356692662,-6.414282310945992e-18,0.03083387356692662,1.675093514542962e-17,0.061973652982580806,1.4785286554300297e-17,-0.0619736529825808,0.4627611459330103,0.75611126405413,0.46276114593301027,100.0,160.7142857142859,[0.38784495]
6.146239810122164e-18,0.10894350015141332,-7.802937303470799e-18,0.10894350015141332,-1.6930410177296477e-18,0.022533106368407517,-7.802937303470799e-18,0.022533106368407517,1.5957711124202506e-17,0.1112493914942952,1.8832220525151133e-17,-0.1112493914942952,0.606289322094416,0.5146129767394011,0.6062893220944159,100.0,160.7142857142859,[0.48321465]
5.2032836903137644e-18,0.13322849086292618,-9.069835342333287e-18,0.13322849086292618,-1.1975685162068157e-18,0.018955909455737788,-9.069835342333287e-18,0.018955909455737788,1.5034323616145273e-17,0.13457026893376903,1.735925524337828e-17,-0.13457026893376905,0.6278741072870874,0.45994370394308715,0.6278741072870873,100.0,160.7142857142859,[0.49783202]
4.055213248371816e-18,0.14632504940770882,-1.0292479321821765e-17,0.14632504940770882,-8.743642354639712e-19,0.01724435562084057,-1.0292479321821765e-17,0.01724435562084057,1.4065456890829263e-17,0.14733766621250136,1.631422441167517e-17,-0.14733766621250138,0.6355054902869971,0.4384809501337165,0.6355054902869971,100.0,160.7142857142859,[0.51169034]
2.792240801901351e-18,0.154005610773707,-1.1488809962241895e-17,0.154005610773707,-6.2465247060462555e-19,0.016473814658412068,-1.1488809962241895e-17,0.016473814658412068,1.3083329633113416e-17,0.15488419777105164,1.5391484382853767e-17,-0.15488419777105153,0.6388002134607336,0.4287989908629006,0.6388002134607335,100.0,160.7142857142859,[0.51169034]
1.492640797907038e-18,0.1584933905438175,-1.2677840526961093e-17,0.1584933905438175,-4.154514626547582e-19,0.016283270142613687,-1.2677840526961093e-17,0.016283270142613687,1.2081599849241284e-17,0.1593276489897858,1.456435099633275e-17,-0.15932764898978574,0.6400635530758526,0.4250144656924407,0.6400635530758524,100.0,160.7142857142859,[0.51169034]
1.5193653491374012e-19,0.1607545576799343,-1.3845305769327996e-17,0.1607545576799343,-2.3346676480941674e-19,0.01652360360415503,-1.3845305769327996e-17,0.01652360360415503,1.1080005722989613e-17,0.16160153864038113,1.3809223284251113e-17,-0.16160153864038113,0.640048704462878,0.4250591862679636,0.6400487044628778,100.0,160.7142857142859,[0.51169034]
-1.2000273105776296e-18,0.1611772383848868,-1.5011388999686475e-17,0.1611772383848868,-9.312895644489517e-20,0.017150197657512883,-1.5011388999686475e-17,0.017150197657512883,1.0064201460994893e-17,0.1620871106938191,1.312456454621691e-17,-0.1620871106938191,0.6389689275172584,0.4282959483054783,0.6389689275172584,100.0,160.7142857142859,[0.51169034]
-2.6278237659054107e-18,0.15978515083195927,-1.6166445809082047e-17,0.15978515083195927,3.516923810391708e-20,0.018192735661129507,-1.6166445809082047e-17,0.018192735661129507,9.032016541329786e-18,0.16081750544398982,1.2491785472720529e-17,-0.16081750544398984,0.6367219423858667,0.4349371634716195,0.6367219423858665,100.0,160.7142857142859,[0.51169034]
-4.060775210810622e-18,0.15624516342433925,-1.7312693351749082e-17,0.15624516342433925,1.25618956544753e-19,0.019764679810981248,-1.7312693351749082e-17,0.019764679810981248,8.003223062176146e-18,0.1574902970393068,1.21564971602337e-17,-0.15749029703930686,0.6328404970453144,0.44612308906722026,0.6328404970453143,100.0,160.7142857142859,[0.51169034]
-5.5597240880689896e-18,0.14967465710977526,-1.843216547157808e-17,0.14967465710977526,1.7362479698457423e-19,0.02211980182683074,-1.843216547157808e-17,0.02211980182683074,6.95842198380838e-18,0.15130032588790765,1.2020205166560057e-17,-0.15130032588790768,0.6261115917991771,0.4647241646712615,0.626111591799177,100.0,160.7142857142859,[0.51169034]
-7.153429813217757e-18,0.1380102797612326,-1.9522471203008462e-17,0.1380102797612326,1.3979517788268678e-19,0.025819468737361708,-1.9522471203008462e-17,0.025819468737361708,5.878451667336697e-18,0.14040470891552492,1.2502648791154299e-17,-0.14040470891552492,0.6130972856404471,0.4982202692390514,0.613097285640447,100.0,160.7142857142859,[0.50982878]
-8.922812156860535e-18,0.11586524914187239,-2.0548496418844616e-17,0.11586524914187239,-5.895171469058231e-20,0.0322718013331001,-2.0548496418844616e-17,0.0322718013331001,4.733925280729232e-18,0.1202756214699856,1.4656252520163458e-17,-0.12027562146998551,0.5802894622044896,0.5714265308058842,0.5802894622044895,100.0,160.7142857142859,[0.47285639]
-1.1196501704558519e-17,0.06479394715790904,-2.138909462471629e-17,0.06479394715790904,-7.808198275564214e-19,0.0459217763572214,-2.138909462471629e-17,0.0459217763572214,3.428118940598934e-18,0.07941703300995677,1.9645873611541158e-17,-0.07941703300995674,0.4094901810978823,0.8152518526006834,0.4094901810978823,100.0,160.7142857142859,[0.45350517]
-1.5756089985795768e-17,-0.11125356133259336,-2.1520765182923693e-17,-0.11125356133259336,-5.276623591374247e-18,0.07702305591513059,-2.1520765182923693e-17,0.07702305591513059,1.0105136147968305e-18,0.13531410145173503,-3.664561540958582e-17,-0.13531410145173503,0.6816859011637987,0.2657229088900687,0.6816859011637985,100.0,160.7142857142859,[0.38118645]
-1.5965816667024913e-17,-0.10585780179388198,-2.047020501463739e-17,-0.10585780179388198,-5.2357906476161796e-18,0.08140229501443999,-2.047020501463739e-17,0.08140229501443999,-1.0526183487466985e-18,0.13353729005132145,-2.6184927176750496e-17,-0.1335372900513213,0.7039492764642171,0.09439720510169058,0.703949276464217,100.0,147.85714285714295,[0.22185453]
-1.2366006050532942e-17,0.07131031808649688,-1.8629462523332698e-17,0.07131031808649688,-6.284084909710757e-19,0.051350201418199876,-1.8629462523332698e-17,0.051350201418199876,-2.256172757456254e-18,0.08787493756064384,1.4340606972445178e-17,-0.08787493756064395,0.26602697838513195,0.9265307839152207,0.2660269783851319,100.0,147.85714285714295,[0.43741468]
-1.0999119866791115e-17,0.12131879268598984,-1.606198520202821e-17,0.12131879268598984,1.789408799862994e-19,0.03700802015233157,-1.606198520202821e-17,0.03700802015233157,-4.595452764646017e-18,0.1268378611234893,4.952771705236167e-18,-0.12683786112348927,0.4629057706573053,0.7559341869397972,0.4629057706573052,100.0,147.85714285714295,[0.5282519]
-1.0119041054065322e-17,0.14331510355122182,-1.3289170995306611e-17,0.14331510355122182,4.6645872794722805e-19,0.030592475877175538,-1.3289170995306611e-17,0.030592475877175538,-7.13430208873308e-18,0.1465439131666443,-1.8504491833870914e-18,-0.14654391316664434,0.506996537213456,0.6970717484643381,0.5069965372134559,100.0,147.85714285714295,[0.52667822]
-9.406974204277623e-18,0.1552544421463235,-1.0433737058425022e-17,0.1552544421463235,5.9452800026151625e-19,0.027267459617764396,-1.0433737058425022e-17,0.027267459617764396,-9.750357556063699e-18,0.15763075892785797,-6.020918755618388e-18,-0.1576307589278582,0.5246216754775056,0.6704805703660246,0.5246216754775056,100.0,147.85714285714295,[0.51501797]
-8.787731081288788e-18,0.16234413128259773,-7.551743903038006e-18,0.16234413128259773,6.40130157238835e-19,0.025481658654778507,-7.551743903038006e-18,0.025481658654778507,-1.2396698587161723e-17,0.16433177382873954,-9.987056110382807e-18,-0.1643317738287394,0.5331477011732493,0.6568919678815989,0.5331477011732492,100.0,147.85714285714295,[0.52143731]
-8.224819785195427e-18,0.1665855673451128,-4.645054701776548e-18,0.1665855673451128,6.455183083514288e-19,0.024624207317245288,-4.645054701776548e-18,0.024624207317245288,-1.5064134378241072e-17,0.1683956734411422,-1.3665554195836254e-17,-0.16839567344114223,0.5372770757235387,0.6501282087434183,0.5372770757235387,100.0,147.85714285714295,[0.52143731]
-7.659093593477548e-18,0.16885107353037665,-1.7161558044656178e-18,0.16885107353037665,6.086618285930567e-19,0.02443302802400727,-1.7161558044656178e-18,0.02443302802400727,-1.7741880148475283e-17,0.17060966529122135,-1.6971268636647896e-17,-0.17060966529122137,0.5386768154956073,0.6478075153122436,0.5386768154956075,100.0,147.85714285714295,[0.52143731]
-7.15875437482076e-18,0.1694968861600854,1.2178896038214645e-18,0.1694968861600854,5.564760377228519e-19,0.024812986834299923,1.2178896038214645e-18,0.024812986834299923,-2.0433802140047428e-17,0.17130346970684535,-2.0553373571487737e-17,-0.17130346970684535,0.5379178443584453,0.6490676277873729,0.5379178443584451,100.0,147.85714285714295,[0.52143731]
-6.670454769979683e-18,0.1685572612003802,4.1707659855484694e-18,0.1685572612003802,4.741191442025051e-19,0.02578053529945388,4.1707659855484694e-18,0.02578053529945388,-2.314115518594675e-17,0.17051740762661047,-2.4090709646863928e-17,-0.1705174076266104,0.5349636902479833,0.6539324890480054,0.5349636902479833,100.0,147.85714285714295,[0.52143731]
-6.192872117154842e-18,0.165755396535908,7.141109345734691e-18,0.165755396535908,3.6680972711903677e-19,0.027468970909830217,7.141109345734691e-18,0.027468970909830217,-2.5864286908825676e-17,0.1680160582909301,-2.768071662574099e-17,-0.1680160582909301,0.5291630000567096,0.6633046349468438,0.5291630000567096,100.0,147.85714285714295,[0.52143731]
-5.787188003173109e-18,0.16033966767389238,1.0128675924593369e-17,0.16033966767389238,2.0394427515709293e-19,0.030198408870735383,1.0128675924593369e-17,0.030198408870735383,-2.861835704777046e-17,0.16315867408169987,-3.1383465641520346e-17,-0.16315867408169987,0.5187497919842842,0.6795566986150047,0.5187497919842841,100.0,147.85714285714295,[0.51501797]
-5.4438046513870334e-18,0.15053965553515916,1.317251921943921e-17,0.15053965553515916,-1.63552218665516e-20,0.03469086545977806,1.317251921943921e-17,0.03469086545977806,-3.141734681628963e-17,0.15448509324524753,-3.623495502747365e-17,-0.15448509324524748,0.4989539259987232,0.7085830646162251,0.498953925998723,100.0,147.85714285714295,[0.55439879]
-5.245371467061075e-18,0.13170529622856172,1.6295412753306714e-17,0.13170529622856172,-4.3091855103736927e-19,0.042765949236463666,1.6295412753306714e-17,0.042765949236463666,-3.430262331002181e-17,0.13847458780855418,-4.1356140788814e-17,-0.13847458780855418,0.45327073490470876,0.7675228216528094,0.45327073490470887,100.0,147.85714285714295,[0.55470865]
-5.4696135136793004e-18,0.08771036414277782,1.9656110916362835e-17,0.08771036414277782,-1.338124648554263e-18,0.06014054876736565,1.9656110916362835e-17,0.06014054876736565,-3.7462903236227604e-17,0.10634845360464136,-4.2292670742042946e-17,-0.10634845360464135,0.2810501880567025,0.9176173405001586,0.28105018805670284,100.0,147.85714285714295,[0.51468169]
-7.607424997285342e-18,-0.07248726758458789,2.391210698143996e-17,-0.07248726758458789,-6.039534493379801e-18,0.09850153696276548,2.391210698143996e-17,0.09850153696276548,-4.2095195523429436e-17,0.12229863754722163,1.5502302054511846e-18,-0.12229863754722166,0.6578693022784592,0.3666278252387653,0.6578693022784592,100.0,147.85714285714295,[0.47048431]
-6.6862249683580064e-18,-0.06573276004898143,2.4428124193686165e-17,-0.06573276004898143,-6.1220779161282784e-18,0.10010301517987942,2.4428124193686165e-17,0.10010301517987942,-4.2053362104720486e-17,0.11975562363313103,-2.459245730258514e-18,-0.11975562363313112,0.6923924330138166,0.20294195576670326,0.6923924330138167,100.0,134.9999999999996,[0.22545093]
-3.316184446517952e-18,0.09591642708362365,2.106827865997113e-17,0.09591642708362365,-1.5698808555557085e-18,0.06219756587481999,2.106827865997113e-17,0.06219756587481999,-3.6736397328462333e-17,0.11431753227410331,-5.1667513950560866e-17,-0.11431753227410345,0.14747895855534035,0.978008135736541,0.1474789585553403,100.0,134.9999999999996,[0.49227956]
-1.8379742279872074e-18,0.13864020978662295,1.8602919732117246e-17,0.13864020978662295,-8.129812818567308e-19,0.04465640078199772,1.8602919732117246e-17,0.04465640078199772,-3.2923888280993044e-17,0.14565473524908568,-4.15505270960913e-17,-0.14565473524908568,0.3226253126748721,0.8898459502873979,0.32262531267487216,100.0,134.9999999999996,[0.52636566]
-7.322967924386013e-19,0.15734344923688476,1.6387562431303923e-17,0.15734344923688476,-5.567812673688839e-19,0.036674655294924044,1.6387562431303923e-17,0.036674655294924044,-2.941635028221682e-17,0.16156110719712724,-3.522822609093761e-17,-0.1615611071971272,0.3734462954463616,0.8491617801307226,0.3734462954463615,100.0,134.9999999999996,[0.5264773]
2.393848285019274e-19,0.16754084417531345,1.4256977365550206e-17,0.16754084417531345,-5.03119140051031e-19,0.03239588792862563,1.4256977365550206e-17,0.03239588792862563,-2.6012323287151228e-17,0.17064415613099887,-3.016113621752465e-17,-0.17064415613099893,0.3959847184656569,0.8284879030398385,0.39598471846565697,100.0,134.9999999999996,[0.52905283]
1.1454081611404469e-18,0.17365867053255366,1.2178046058436459e-17,0.17365867053255366,-4.953050491475781e-19,0.029949357807993623,1.2178046058436459e-17,0.029949357807993623,-2.2659587590520934e-17,0.17622229678518336,-2.5997328629317548e-17,-0.17622229678518345,0.4077500842579006,0.8169943314217976,0.4077500842579006,100.0,134.9999999999996,[0.54619939]
2.0107511648439148e-18,0.17739007558570852,1.0114048217737346e-17,0.17739007558570852,-5.424322945298973e-19,0.02859533740796975,1.0114048217737346e-17,0.02859533740796975,-1.9340779016907234e-17,0.17968008303030977,-2.202466948697486e-17,-0.17968008303030975,0.41405462327351394,0.8106278664662699,0.4140546232735141,100.0,134.9999999999996,[0.53871801]
2.862528406501513e-18,0.17947382749357313,8.080269701733147e-18,0.17947382749357313,-6.248368801824366e-19,0.028010695967981433,8.080269701733147e-18,0.028010695967981433,-1.6046800027138116e-17,0.1816465079317616,-1.80191382878045e-17,-0.18164650793176157,0.41691726763745374,0.8076880486248634,0.41691726763745357,100.0,134.9999999999996,[0.62595335]
3.688242427828484e-18,0.18021552017282638,6.054751463024691e-18,0.18021552017282638,-7.176807436593365e-19,0.028068624057313814,6.054751463024691e-18,0.028068624057313814,-1.2768430142323027e-17,0.18238827091573942,-1.435283614750068e-17,-0.1823882709157395,0.4170961634528585,0.807503300838958,0.4170961634528586,100.0,134.9999999999996,[0.76265464]
4.483620013780379e-18,0.17965316989756,4.052406831348576e-18,0.17965316989756,-8.551623232181067e-19,0.028769082001720656,4.052406831348576e-18,0.028769082001720656,-9.509056563672793e-18,0.18194208290954375,-1.04361734147493e-17,-0.18194208290954378,0.41464867688376683,0.8100203389527222,0.41464867688376694,100.0,134.9999999999996,[0.76265464]
5.2486102927495264e-18,0.17756933836151098,2.0599514282388684e-18,0.17756933836151098,-1.0090552953768995e-18,0.030238800802827388,2.0599514282388684e-18,0.030238800802827388,-6.28184231967255e-18,0.18012566446827571,-6.608056807741519e-18,-0.18012566446827566,0.40896597937222434,0.815777944928787,0.40896597937222434,100.0,134.9999999999996,[0.54110384]
5.997287742858515e-18,0.17335921422967587,9.880855947644327e-20,0.17335921422967587,-1.2139650712546008e-18,0.032800836223604274,9.880855947644327e-20,0.032800836223604274,-3.086384676761559e-18,0.1764350079074398,-2.745802760132051e-18,-0.17643500790743982,0.39832904952686293,0.8262372156990098,0.39832904952686293,100.0,134.9999999999996,[0.54108928]
6.68900594957741e-18,0.16558601005356555,-1.8244916622163847e-18,0.16558601005356555,-1.5012200825758907e-18,0.03719484977639593,-1.8244916622163847e-18,0.03719484977639593,3.798413372843503e-20,0.16971206078339915,1.0944441991095001e-18,-0.16971206078339915,0.3782617442876727,0.8448882207824268,0.3782617442876726,100.0,134.9999999999996,[0.53730672]
7.283593300047876e-18,0.1504419641794741,-3.6483771044413445e-18,0.1504419641794741,-1.9425895695143788e-18,0.04529154233744654,-3.6483771044413445e-18,0.04529154233744654,3.027914122693541e-18,0.15711177038491686,5.4451028361892964e-18,-0.15711177038491708,0.33463572329562646,0.8809301137938388,0.33463572329562624,100.0,134.9999999999996,[0.53271512]
7.551500143251244e-18,0.11444241642301924,-5.230255710718949e-18,0.11444241642301924,-2.9058392214832715e-18,0.06294741411428464,-5.230255710718949e-18,0.06294741411428464,5.644779296446273e-18,0.1306118050576402,8.579059429531565e-18,-0.13061180505763997,0.19712996955370218,0.9603538671799645,0.19712996955370185,100.0,134.9999999999996,[0.48924012]
6.354313164101969e-18,-0.0283210317330098,-5.913416094228476e-18,-0.0283210317330098,-7.668866241276373e-18,0.1009678157410176,-5.913416094228476e-18,0.1009678157410176,6.374095860535423e-18,0.10486458245725405,-2.6271601400322204e-18,-0.10486458245725402,0.6164562164100067,0.48986066028914615,0.6164562164100064,100.0,134.9999999999996,[0.46001544]
7.046964016961516e-18,-0.021544388460238408,-6.5621968093781636e-18,-0.021544388460238408,-7.631684925106512e-18,0.09947341417001657,-6.5621968093781636e-18,0.09947341417001657,7.519362005104451e-18,0.10177976616580187,-3.2757525943614114e-18,-0.10177976616580187,0.6647906471800326,0.34074446561009164,0.6647906471800327,100.0,122.14285714285755,[0.37975419]
9.020053234925585e-18,0.12271741994094802,-7.035061915460295e-18,0.12271741994094802,-2.8161303208291593e-18,0.061222874216420954,-7.035061915460295e-18,0.061222874216420954,9.70297489281786e-18,0.1371415527266725,1.5497570631178333e-17,-0.1371415527266724,0.06935236858371834,0.9951786261489222,0.06935236858371817,100.0,122.14285714285755,[0.5269647]
9.566600830551116e-18,0.15749222351608153,-6.61666705338039e-18,0.15749222351608153,-1.799126866666088e-18,0.0439573263785742,-6.61666705338039e-18,0.0439573263785742,9.9643150593309e-18,0.1635116112402782,1.3641826235663651e-17,-0.16351161124027838,0.20139731282333492,0.9585813709722715,0.20139731282333487,100.0,122.14285714285755,[0.52967059]
9.814676225363679e-18,0.17255139504350694,-5.959657855689755e-18,0.17255139504350694,-1.2879912091060759e-18,0.035990356878113354,-5.959657855689755e-18,0.035990356878113354,9.817190130642804e-18,0.1762648283682096,1.2318905215956949e-17,-0.17626482836820945,0.24602827240243927,0.9375180949492881,0.24602827240243927,100.0,122.14285714285755,[0.54417589]
9.967808243057711e-18,0.18076811775048288,-5.213667592273524e-18,0.18076811775048288,-9.480599728218681e-19,0.031605131667124954,-5.213667592273524e-18,0.031605131667124954,9.51798877011987e-18,0.1835102088243288,1.1311201259763993e-17,-0.1835102088243286,0.26746649523810706,0.9257015436144023,0.2674664952381071,100.0,122.14285714285755,[1.08805435]
1.0080234496012856e-17,0.18572637126804845,-4.428200431391232e-18,0.18572637126804845,-6.798950621920803e-19,0.028982004197454073,-4.428200431391232e-18,0.028982004197454073,9.148917376109748e-18,0.18797404488837874,1.0527282657058272e-17,-0.18797404488837868,0.2793932278255315,0.9186287871008949,0.2793932278255314,100.0,122.14285714285755,[1.09010882]
1.0177458616875348e-17,0.18878566541770955,-3.616306265192201e-18,0.18878566541770955,-4.551440345408449e-19,0.027398896752791117,-3.616306265192201e-18,0.027398896752791117,8.737247369625276e-18,0.19076353689968503,9.700827181457333e-18,-0.19076353689968512,0.2863096284605668,0.9143596629891021,0.2863096284605667,100.0,122.14285714285755,[1.09010882]
1.0252981757765088e-17,0.1905379450199926,-2.7896248884505917e-18,0.1905379450199926,-2.7380794969332163e-19,0.02653562540354469,-2.7896248884505917e-18,0.02653562540354469,8.292476903748882e-18,0.192376838283612,9.070032326715956e-18,-0.19237683828361196,0.2900219860778062,0.9120167186970696,0.29002198607780616,100.0,122.14285714285755,[1.09010882]
1.0304069569769705e-17,0.19122942795625522,-1.943688608205126e-18,0.19122942795625522,-1.0549950066676253e-19,0.026258821905226052,-1.943688608205126e-18,0.026258821905226052,7.81840121237793e-18,0.19302388412921087,8.528509155221915e-18,-0.1930238841292109,0.2912560809566286,0.9112298231574577,0.2912560809566285,100.0,122.14285714285755,[1.09010882]
1.0353529490328818e-17,0.19089435690869208,-1.0896286356313914e-18,0.19089435690869208,3.2280154718210775e-20,0.02655196426864786,-1.0896286356313914e-18,0.02655196426864786,7.321803176535355e-18,0.19273209983317952,7.721785392083389e-18,-0.19273209983317952,0.2901323322959153,0.9119465222879384,0.29013233229591523,100.0,122.14285714285755,[1.09010882]
1.0372589386003265e-17,0.18936592225905918,-2.137357348525053e-19,0.18936592225905918,1.4115917286339258e-19,0.027510117977316766,-2.137357348525053e-19,0.027510117977316766,6.790473610379875e-18,0.19135375382821707,6.766130275680287e-18,-0.19135375382821707,0.2862193192590834,0.9144162086083851,0.2862193192590834,100.0,122.14285714285755,[1.09010882]
1.0384599324714499e-17,0.18617285453392868,6.8317694327765e-19,0.18617285453392868,1.9888890914468682e-19,0.029395296328432474,6.8317694327765e-19,0.029395296328432474,6.2162751763342866e-18,0.18847921692204614,6.059133973704912e-18,-0.1884792169220461,0.27822269465523924,0.9193390366766522,0.2782226946552393,100.0,122.14285714285755,[1.09010882]
1.034721293237621e-17,0.18018660498013014,1.6171175278857806e-18,0.18018660498013014,1.8145769978461417e-19,0.03281830964609123,1.6171175278857806e-18,0.03281830964609123,5.549556125485546e-18,0.1831509051637261,5.086463220125817e-18,-0.18315090516372606,0.26283083849854366,0.9283533274935277,0.26283083849854366,100.0,122.14285714285755,[1.08805435]
1.0272923427972516e-17,0.16838045827102985,2.619143267933794e-18,0.16838045827102985,1.4519604689719864e-22,0.039330438772564674,2.619143267933794e-18,0.039330438772564674,4.709195320449675e-18,0.17291287442409975,4.117927631098323e-18,-0.17291287442409978,0.23015765465329005,0.9455447678502557,0.23015765465329016,100.0,122.14285714285755,[0.54594203]
9.963115337249968e-18,0.1397102868878825,3.830643185866622e-18,0.1397102868878825,-7.014219658823298e-19,0.05376784624262341,3.830643185866622e-18,0.05376784624262341,3.39484043058016e-18,0.14969951754052116,2.6597636443434446e-18,-0.1496995175405214,0.13605504550388292,0.9813144496978901,0.13605504550388284,100.0,122.14285714285755,[0.54007608]
8.532228431756112e-18,0.012510531935821167,5.773849573624024e-18,0.012510531935821167,-5.191371520473525e-18,0.08391422638468723,5.773849573624024e-18,0.08391422638468723,-1.811983075767449e-19,0.08484168078873577,4.313754264671915e-19,-0.08484168078873579,0.536705432886614,0.6510718521177093,0.5367054328866141,100.0,122.14285714285755,[0.44396288]
8.537493643150165e-18,0.01796731920117328,5.529174760314932e-18,0.01796731920117328,-5.2149615063155356e-18,0.07961850457769758,5.529174760314932e-18,0.07961850457769758,-4.0222696431035495e-19,0.08162065198505646,4.057702007404835e-18,-0.08162065198505647,0.5996441979996359,0.5299562921701624,0.5996441979996362,100.0,109.28571428571402,[0.36613804]
9.511155017489263e-18,0.14641697976543316,3.4680242723858573e-18,0.14641697976543316,-7.841252897517973e-19,0.04859906177735514,3.4680242723858573e-18,0.04859906177735514,3.2062795176180512e-18,0.15427184049355996,1.931726333855736e-18,-0.15427184049355996,0.01139744468772971,0.9998700898162621,0.011397444687729767,100.0,109.28571428571402,[0.49982477]
9.332816118193749e-18,0.17415266898290177,2.126830635125006e-18,0.17415266898290177,-1.4817786498439038e-19,0.03502876370838147,2.126830635125006e-18,0.03502876370838147,4.5501176836089766e-18,0.17764055393069958,3.952921092647259e-18,-0.17764055393069964,0.09734794363672575,0.9904780440471164,0.0973479436367257,100.0,109.28571428571402,[0.46166203]
9.006873249237895e-18,0.18593814476186613,9.600972020309678e-19,0.18593814476186613,-2.6646389124825496e-20,0.02865429268761362,9.600972020309678e-19,0.02865429268761362,5.369775334060079e-18,0.18813309694711375,5.2750207936136985e-18,-0.18813309694711372,0.12916303878578175,0.9831753754154164,0.12916303878578175,100.0,109.28571428571402,[1.00988089]
8.613648439835166e-18,0.19232722841619143,-1.3273170814868602e-19,0.19232722841619143,-6.410869144018747e-20,0.025030714546946775,-1.3273170814868602e-19,0.025030714546946775,6.015245420366735e-18,0.19394921876868854,6.086945828799299e-18,-0.19394921876868854,0.14545269644095812,0.9786148507947899,0.14545269644095818,100.0,109.28571428571402,[0.9902073]
8.19219836677575e-18,0.19616717354743085,-1.197194464164467e-18,0.19616717354743085,-1.8459597456102634e-19,0.02274988303563634,-1.197194464164467e-18,0.02274988303563634,6.5738951594924065e-18,0.1974819413407792,6.808472161149035e-18,-0.19748194134077926,0.15510033075513963,0.9756473619086418,0.15510033075513965,100.0,109.28571428571402,[0.94974145]
7.762596118586894e-18,0.1985245385374291,-2.2425415512067648e-18,0.1985245385374291,-3.465980664521408e-19,0.02125038935525815,-2.2425415512067648e-18,0.02125038935525815,7.076112388332418e-18,0.19965863730189404,7.491873539677862e-18,-0.19965863730189404,0.16117940823500349,0.9736746873170872,0.16117940823500349,100.0,109.28571428571402,[0.94974145]
7.318896076121932e-18,0.1998602509907719,-3.2733680399732558e-18,0.1998602509907719,-5.539132480082293e-19,0.020278415802089944,-3.2733680399732558e-18,0.020278415802089944,7.538987317501669e-18,0.20088637104974744,8.172218642011003e-18,-0.20088637104974752,0.16497648528114642,0.9724019326433689,0.16497648528114645,100.0,109.28571428571402,[0.94792623]
6.860528053444874e-18,0.2003641745065411,-4.292403377684945e-18,0.2003641745065411,-7.688288332199193e-19,0.019720453892362388,-4.292403377684945e-18,0.019720453892362388,7.967133895833494e-18,0.20133230919901673,8.816898751328397e-18,-0.20133230919901662,0.16704528754232878,0.9716952937108428,0.16704528754232878,100.0,109.28571428571402,[0.95742985]
6.386964257626122e-18,0.20005998793618934,-5.304921651771601e-18,0.20005998793618934,-1.0195621370551996e-18,0.019546775382514713,-5.304921651771601e-18,0.019546775382514713,8.365704993255003e-18,0.2010126244813562,9.380870007023067e-18,-0.20101262448135618,0.16753420668345803,0.9715269317841315,0.16753420668345798,100.0,109.28571428571402,[0.95742985]
5.919905668638427e-18,0.19881274498204174,-6.308785724798419e-18,0.19881274498204174,-1.2944462067201872e-18,0.019801955323851345,-6.308785724798419e-18,0.019801955323851345,8.717339613822963e-18,0.19979645893243994,9.951204071166291e-18,-0.1997964589324399,0.16624364931396043,0.9719702146287992,0.16624364931396038,100.0,109.28571428571402,[0.95742985]
5.436021295413216e-18,0.19624499568873147,-7.297432629463128e-18,0.19624499568873147,-1.6176286948081828e-18,0.02063507382728606,-7.297432629463128e-18,0.02063507382728606,9.027732198121159e-18,0.19732689782370713,1.0497787460595717e-17,-0.19732689782370705,0.1624673009544179,0.973246501273533,0.1624673009544179,100.0,109.28571428571402,[0.94974145]
4.94019057298636e-18,0.19144998639480426,-8.26085814616948e-18,0.19144998639480426,-2.0241093998756745e-18,0.022407115952787885,-8.26085814616948e-18,0.022407115952787885,9.236382626900493e-18,0.19275677974040867,1.1054958194206263e-17,-0.19275677974040878,0.15437393300989524,0.9758777472686385,0.15437393300989524,100.0,109.28571428571402,[0.94974145]
4.39605937872525e-18,0.18196609745485862,-9.18048499712519e-18,0.18196609745485862,-2.587143569448504e-18,0.026042696670697103,-9.18048499712519e-18,0.026042696670697103,9.238291372013353e-18,0.1838202455466563,1.1779259576169666e-17,-0.1838202455466563,0.13662939131130744,0.9811548393907064,0.13662939131130736,100.0,109.28571428571402,[1.00317898]
3.715178944090814e-18,0.1585053262210801,-9.976088723270563e-18,0.1585053262210801,-3.66459594005764e-18,0.034399783020338075,-9.976088723270563e-18,0.034399783020338075,8.68074491087907e-18,0.16219520187816092,1.2740723562388888e-17,-0.16219520187816078,0.08667593227128792,0.9924588482802729,0.08667593227128781,100.0,109.28571428571402,[0.44735823]
2.171511804038429e-18,0.04191372202765561,-1.0358777280846806e-17,0.04191372202765561,-8.546164271499983e-18,0.05069875580589054,-1.0358777280846806e-17,0.05069875580589054,5.609462742645139e-18,0.06578087818262159,1.4691069281738934e-17,-0.06578087818262164,0.36559325018048366,0.8559691296097894,0.36559325018048355,100.0,109.28571428571402,[0.24278626]
1.8638657566419414e-18,0.04496757673704966,-1.1456404946872043e-17,0.04496757673704966,-8.671327238269717e-18,0.04445156418781028,-1.1456404946872043e-17,0.04445156418781028,5.576900144521832e-18,0.06322993370505355,1.309558306105008e-17,-0.0632299337050536,0.43767630580997186,0.7854163880802796,0.4376763058099719,100.0,96.42857142857196,[0.31084156]
2.5312376597891384e-18,0.162309618749659,-1.2703804587400203e-17,0.162309618749659,-4.050121053435105e-18,0.026807587809305474,-1.2703804587400203e-17,0.026807587809305474,8.846776060593436e-18,0.16450853808484614,1.2639539806025758e-17,-0.16450853808484617,0.036389892152051365,0.9986748978012436,0.03638989215205142,100.0,96.42857142857196,[0.49766131]
2.358079185874891e-18,0.1853076292972383,-1.3570329826069466e-17,0.1853076292972383,-3.2270575223547333e-18,0.01962072556226789,-1.3570329826069466e-17,0.01962072556226789,9.581752620948676e-18,0.18634347412064783,1.2321217011502126e-17,-0.18634347412064775,0.004745264663567782,0.9999774822097471,0.0047452646635677,100.0,96.42857142857196,[1.06440152]
2.053057265574151e-18,0.19483545312807835,-1.4337241634292462e-17,0.19483545312807835,-2.9018582532266467e-18,0.01610155806289603,-1.4337241634292462e-17,0.01610155806289603,9.75239242037058e-18,0.19549965209093448,1.2010108651602545e-17,-0.1954996520909345,0.021029988406681487,0.999557641747203,0.021029988406681393,100.0,96.42857142857196,[1.07587857]
1.7122217334723156e-18,0.19990909072289456,-1.5072707568915255e-17,0.19990909072289456,-2.7500307478262245e-18,0.013957426986412383,-1.5072707568915255e-17,0.013957426986412383,9.704352665525644e-18,0.2003957442705197,1.175634734367801e-17,-0.2003957442705197,0.030038742138774648,0.9990972665068405,0.03003874213877455,100.0,96.42857142857196,[1.05155734]
1.3632467441429579e-18,0.2028905676813285,-1.579390507741121e-17,0.2028905676813285,-2.684482151428258e-18,0.012470588256635202,-1.579390507741121e-17,0.012470588256635202,9.564879674491546e-18,0.2032734562738536,1.1476791277906411e-17,-0.20327345627385368,0.035914306346134586,0.9987093296847448,0.035914306346134475,100.0,96.42857142857196,[1.05090229]
9.860486108072325e-19,0.20465221040185397,-1.6507930881528718e-17,0.20465221040185397,-2.65447717637192e-18,0.011351496936376552,-1.6507930881528718e-17,0.011351496936376552,9.366532865916114e-18,0.20496678683401687,1.1167259374156213e-17,-0.2049667868340168,0.040134489435849005,0.9983879233621806,0.04013448943584889,100.0,96.42857142857196,[1.09154028]
6.327262186722377e-19,0.20556569641976774,-1.7216802623415805e-17,0.20556569641976774,-2.667069820203845e-18,0.010462974280302424,-1.7216802623415805e-17,0.010462974280302424,9.113920889506884e-18,0.20583179874677873,1.0842886617361389e-17,-0.20583179874677862,0.0433503897403411,0.9981189745810475,0.04335038974034097,100.0,96.42857142857196,[1.09037695]
2.4630124749500124e-19,0.20577873047922682,-1.7913050986541335e-17,0.20577873047922682,-2.6913303441766677e-18,0.009733854360664698,-1.7913050986541335e-17,0.009733854360664698,8.842047120730259e-18,0.20600881980720373,1.0514463665277377e-17,-0.20600881980720373,0.04588191254103498,0.9978926295965683,0.04588191254103487,100.0,96.42857142857196,[1.09037695]
-1.3415902768269188e-19,0.2052997422221387,-1.8613895115874805e-17,0.2052997422221387,-2.7470648933555027e-18,0.009127091799287959,-1.8613895115874805e-17,0.009127091799287959,8.530018696297859e-18,0.20550252543749728,1.0161421526954088e-17,-0.20550252543749725,0.04788508024577462,0.9977043841638221,0.04788508024577449,100.0,96.42857142857196,[1.09154028]
-5.157045638240546e-19,0.20400058536237267,-1.9310696277179796e-17,0.20400058536237267,-2.82776210067555e-18,0.008627943677206566,-1.9310696277179796e-17,0.008627943677206566,8.172950882048013e-18,0.20418295776163045,9.786057232289152e-18,-0.2041829577616304,0.049408537478345824,0.9975558093903828,0.0494085374783457,100.0,96.42857142857196,[1.0384744]
-9.086474597342674e-19,0.2015393383667575,-2.0003309473126633e-17,0.2015393383667575,-2.975746945002706e-18,0.008243030863954521,-2.0003309473126633e-17,0.008243030863954521,7.75294058146823e-18,0.20170783937947098,9.371837999986945e-18,-0.20170783937947095,0.05038964000590998,0.997457652414452,0.05038964000590983,100.0,96.42857142857196,[1.05155734]
-1.3227571837366763e-18,0.1971006834720833,-2.0698331254227337e-17,0.1971006834720833,-3.1685003938189715e-18,0.008012016651047562,-2.0698331254227337e-17,0.008012016651047562,7.237424136610046e-18,0.19726345793374658,8.902707999470068e-18,-0.19726345793374658,0.0505663749106943,0.9974397643250354,0.05056637491069418,100.0,96.42857142857196,[1.05155734]
-1.7710547477449963e-18,0.18846023577610002,-2.1374666761141968e-17,0.18846023577610002,-3.55443214886245e-18,0.008049719547120656,-2.1374666761141968e-17,0.008049719547120656,6.502143406433934e-18,0.18863207164628845,8.309587059228055e-18,-0.1886320716462885,0.049113250166515576,0.9975849724791178,0.04911325016651544,100.0,96.42857142857196,[1.05155734]
-2.288815372379128e-18,0.1670539015814158,-2.204460953517063e-17,0.1670539015814158,-4.437143898480633e-18,0.0086698553310407,-2.204460953517063e-17,0.0086698553310407,5.1745830950728915e-18,0.16727872675577882,7.432892596882608e-18,-0.1672787267557788,0.04264637702804997,0.9981796296522799,0.042646377028049784,100.0,96.42857142857196,[0.49766131]
-3.585795488578332e-18,0.05401066619761985,-2.2696815737715048e-17,0.05401066619761985,-9.122611853251954e-18,0.007891650266723123,-2.2696815737715048e-17,0.007891650266723123,1.2467359250218145e-18,0.05458415710664575,7.615236748275771e-18,-0.05458415710664575,0.023250010316824957,0.9994592908370682,0.02325001031682555,100.0,96.42857142857196,[0.33422894]
-4.330487996086347e-18,0.05405166913803138,-2.2208130787069762e-17,0.05405166913803138,-9.086928136272012e-18,0.0009301984443495466,-2.2208130787069762e-17,0.0009301984443495466,4.756124378527106e-19,0.05405967263823454,1.2384012161479279e-18,-0.05405967263823454,0.09124971833966,0.9916385318279365,0.09124971833966057,100.0,83.57142857142804,[0.31872221]
-4.48871141384822e-18,0.16718825028575274,-1.995391946790853e-17,0.16718825028575274,-4.308386137246888e-18,0.0001575949108046667,-1.995391946790853e-17,0.0001575949108046667,2.8823752223571363e-18,0.167188324561757,2.9199865460000663e-18,-0.16718832456175708,0.0798331464855692,0.9936062285656363,0.07983314648556937,100.0,83.57142857142804,[0.47566661]
-5.4500258250752564e-18,0.18868606810929106,-1.771100224180214e-17,0.18868606810929106,-3.33693920134019e-18,0.0007787454958435681,-1.771100224180214e-17,0.0007787454958435681,2.6750161905350596e-18,0.18868767512238663,2.8210681082956153e-18,-0.18868767512238666,0.08207016365081,0.9932416505949893,0.08207016365081013,100.0,83.57142857142804,[1.03249522]
-6.494369058973975e-18,0.19741720885525563,-1.5494233783788498e-17,0.19741720885525563,-2.8724445281313508e-18,0.0008128611387579692,-1.5494233783788498e-17,0.0008128611387579692,1.8683217915264617e-18,0.197418882317347,1.9957709611986535e-18,-0.19741888231734708,0.08206333485049752,0.9932427790557705,0.08206333485049765,100.0,83.57142857142804,[1.03249522]
-7.556065870039807e-18,0.20194598517078147,-1.3280637018163341e-17,0.20194598517078147,-2.579013849364638e-18,0.0005736480608575507,-1.3280637018163341e-17,0.0005736480608575507,8.559704399024798e-19,0.2019467999218983,9.313521302649984e-19,-0.20194679992189826,0.08116649168632172,0.9933901556058768,0.08116649168632181,100.0,83.57142857142804,[1.02956264]
-8.636763226571136e-18,0.20449680531467998,-1.1071059573217778e-17,0.20449680531467998,-2.364128667887221e-18,0.0001759210077136017,-1.1071059573217778e-17,0.0001759210077136017,-2.640914726279675e-19,0.20449688098382104,-2.450496694245962e-19,-0.20449688098382107,0.07977528364318338,0.9936155233485933,0.07977528364318348,100.0,83.57142857142804,[1.0164797]
-9.743502606929896e-18,0.20588496006532878,-8.861771162465023e-18,0.20588496006532878,-2.191297150034782e-18,-0.0003406546997412212,-8.861771162465023e-18,-0.0003406546997412212,-1.4365188163932113e-18,0.20588524188665508,-1.4658670258768698e-18,-0.20588524188665508,0.07800811994687808,0.9938961044519226,0.07800811994687815,100.0,83.57142857142804,[1.07102201]
-1.0836676225242785e-17,0.2064523275215393,-6.656977006541615e-18,0.2064523275215393,-2.0460041291354587e-18,-0.0009694504114646695,-6.656977006541615e-18,-0.0009694504114646695,-2.6539834303255826e-18,0.206454603661825,-2.7166797589593158e-18,-0.206454603661825,0.0758704786729979,0.9942270067403421,0.07587047867299794,100.0,83.57142857142804,[1.07278502]
-1.1929854082856314e-17,0.20632700501871057,-4.454184363552089e-18,0.20632700501871057,-1.9328616993285564e-18,-0.001725195616171278,-4.454184363552089e-18,-0.001725195616171278,-3.908346387110139e-18,0.20633421747229672,-3.983376554658416e-18,-0.20633421747229674,0.07329300728992322,0.9946136285838831,0.07329300728992326,100.0,83.57142857142804,[1.08231365]
-1.3049073964297275e-17,0.20550051328077562,-2.2603796340696048e-18,0.20550051328077562,-1.8330138488047514e-18,-0.0026449168188873713,-2.2603796340696048e-18,-0.0026449168188873713,-5.197166379491205e-18,0.20551753342146034,-5.256578971636076e-18,-0.20551753342146042,0.07012136205184667,0.9950708463059238,0.0701213620518467,100.0,83.57142857142804,[1.08519197]
-1.416232491043805e-17,0.20382510071349907,-6.667737643226159e-20,0.20382510071349907,-1.7828165548906843e-18,-0.0037997560530402394,-6.667737643226159e-20,-0.0037997560530402394,-6.534824175062562e-18,0.20386051561528692,-6.540441608451258e-18,-0.20386051561528695,0.06606019527483856,0.995626486791357,0.06606019527483858,100.0,83.57142857142804,[1.02979954]
-1.5284264303239143e-17,0.20092905046323137,2.1181557674745506e-18,0.20092905046323137,-1.770603792139487e-18,-0.005326864083912378,2.1181557674745506e-18,-0.005326864083912378,-7.924435659794119e-18,0.20099964875845994,-7.81695635617098e-18,-0.20099964875845994,0.06052122033053784,0.9963304490877537,0.06052122033053784,100.0,83.57142857142804,[1.04288249]
-1.643387361131317e-17,0.19594001501453248,4.284844505927795e-18,0.19594001501453248,-1.82499865607722e-18,-0.007515756177178347,4.284844505927795e-18,-0.007515756177178347,-9.421218784338366e-18,0.19608410459496714,-9.102389073270164e-18,-0.19608410459496717,0.05218020908600601,0.9972735089028892,0.052180209086005985,100.0,83.57142857142804,[1.04288249]
-1.7620381792151963e-17,0.18649599888754784,6.416549839994991e-18,0.18649599888754784,-2.066736826346558e-18,-0.011084152606957502,6.416549839994991e-18,-0.011084152606957502,-1.1114703868809984e-17,0.18682509478139864,-1.038439507481808e-17,-0.1868250947813986,0.03734320148427981,0.9986045116089796,0.03734320148427976,100.0,83.57142857142804,[1.04288249]
-1.8898051893939e-17,0.163581224550529,8.461942748089052e-18,0.163581224550529,-2.8025403152827584e-18,-0.01832472614273629,8.461942748089052e-18,-0.01832472614273629,-1.3384191739661809e-17,0.1646044124975295,-1.158970519658153e-17,-0.16460441249752952,0.0004544177502394844,0.9999997935044871,0.00045441775023938785,100.0,83.57142857142804,[0.49950444]
-2.105369811533472e-17,0.046322903546627624,1.0115165935846535e-17,0.046322903546627624,-7.345304004585795e-18,-0.03602709514183822,1.0115165935846535e-17,-0.03602709514183822,-1.818165936776144e-17,0.058683583542156185,-6.883680264320218e-18,-0.05868358354215628,0.3688833793348113,0.8531413159032093,0.368883379334811,100.0,83.57142857142804,[0.2985692]
-2.237548025992435e-17,0.043337224623422176,1.1385389706060581e-17,0.043337224623422176,-7.163476028385964e-18,-0.042323753193399975,1.1385389706060581e-17,-0.042323753193399975,-1.9765189711550645e-17,0.06057569745728714,-8.813022360122172e-18,-0.06057569745728717,0.2992437616606378,0.906038819374966,0.29924376166063826,100.0,70.71428571428592,[0.30474829]
-2.2627881861039353e-17,0.16000300109845284,1.2831319769873116e-17,0.16000300109845284,-2.2520367897700037e-18,-0.02607034094645638,1.2831319769873116e-17,-0.02607034094645638,-1.8391313450967137e-17,0.1621129946598234,-1.4491217148225206e-17,-0.16211299465982354,0.12317013783983363,0.9847122596418878,0.12317013783983352,100.0,70.71428571428592,[0.46955421]
-2.3752301244714456e-17,0.18353488950121194,1.387475321011119e-17,0.18353488950121194,-1.1297854109374853e-18,-0.0177627802151234,1.387475321011119e-17,-0.0177627802151234,-1.9534564337994742e-17,0.1843924402604208,-1.690374867296028e-17,-0.18439244026042095,0.16816232794989217,0.9713098696692761,0.16816232794989205,100.0,70.71428571428592,[0.97238544]
-2.4994458725045792e-17,0.1930878453657839,1.4782392842357526e-17,0.1930878453657839,-5.321220504187464e-19,-0.01418090557837903,1.4782392842357526e-17,-0.01418090557837903,-2.123116212896079e-17,0.193607887522755,-1.9102025856122148e-17,-0.19360788752275507,0.18402928529936316,0.9655394576631301,0.18402928529936305,100.0,70.71428571428592,[0.99769242]
-2.6275138730286756e-17,0.19795008887185966,1.5645129272319456e-17,0.19795008887185966,-1.0999819351396606e-19,-0.01246677956779511,1.5645129272319456e-17,-0.01246677956779511,-2.3137757386484323e-17,0.19834227556718498,-2.1190577838672787e-17,-0.198342275567185,0.19112977636678755,0.9627766185216402,0.19112977636678738,100.0,70.71428571428592,[0.99628467]
-2.7582416107738903e-17,0.2005832782261286,1.6484803575608045e-17,0.2005832782261286,2.531145984912813e-19,-0.011695769876626098,1.6484803575608045e-17,-0.011695769876626098,-2.513131076845962e-17,0.20092397203158094,-2.3220870523316167e-17,-0.20092397203158094,0.19429572450207142,0.9615083685961505,0.1942957245020713,100.0,70.71428571428592,[0.97442343]
-2.8896205050973065e-17,0.20189416112731717,1.731750774001577e-17,0.20189416112731717,5.656284228468846e-19,-0.011506857966306438,1.731750774001577e-17,-0.011506857966306438,-2.7188349797159267e-17,0.20222180910465581,-2.522265026375847e-17,-0.20222180910465581,0.1951861701901697,0.9611476046544507,0.1951861701901696,100.0,70.71428571428592,[0.96945669]
-3.022464501721677e-17,0.20226016835495383,1.8136154052308105e-17,0.20226016835495383,8.549450590603409e-19,-0.011750921370022635,1.8136154052308105e-17,-0.011750921370022635,-2.928486625323755e-17,0.2026012335994495,-2.718210534714721e-17,-0.20260123359944948,0.1944385218162682,0.9614506344414202,0.19443852181626808,100.0,70.71428571428592,[0.97442343]
-3.156773176716937e-17,0.20181622385404865,1.8942624563251685e-17,0.20181622385404865,1.0935252153096645e-18,-0.012383336271604284,1.8942624563251685e-17,-0.012383336271604284,-3.141013788555244e-17,0.2021957843970123,-2.909175862668574e-17,-0.20219578439701227,0.19222811305341514,0.9623391840218536,0.19222811305341495,100.0,70.71428571428592,[0.97995138]
-3.2920581626494363e-17,0.20053862760564917,1.974585571859424e-17,0.20053862760564917,1.3291230235592166e-18,-0.013433777017529598,1.974585571859424e-17,-0.013433777017529598,-3.356973619496918e-17,0.20098807807159588,-3.093559980504479e-17,-0.20098807807159594,0.188410425021751,0.9638480292485151,0.18841042502175093,100.0,70.71428571428592,[0.99769242]
-3.4271269442493293e-17,0.1982374990811829,2.0532620635384747e-17,0.1982374990811829,1.5272793285621684e-18,-0.01501569424885943,2.0532620635384747e-17,-0.01501569424885943,-3.5770435583909427e-17,0.19880537496691883,-3.267778722765998e-17,-0.19880537496691886,0.18246500927374196,0.9661330347221684,0.18246500927374185,100.0,70.71428571428592,[0.99648184]
-3.562357667133645e-17,0.194451902114969,2.1298527795595292e-17,0.194451902114969,1.6768702054409071e-18,-0.01738284581329898,2.1298527795595292e-17,-0.01738284581329898,-3.801793579208276e-17,0.19522731767019277,-3.420799113098286e-17,-0.1952273176701929,0.1731879930982798,0.9695420764944555,0.17318799309827967,100.0,70.71428571428592,[0.99788281]
-3.7063251647055645e-17,0.1881152874330952,2.2036115831383435e-17,0.1881152874330952,1.7534783423380265e-18,-0.021096583174517274,2.2036115831383435e-17,-0.021096583174517274,-4.0360399514052666e-17,0.18929455139458007,-3.544796797684195e-17,-0.18929455139458023,0.15770402203208583,0.9748122295446477,0.1577040220320856,100.0,70.71428571428592,[0.96399212]
-3.8500484785606584e-17,0.17638045713821943,2.270539979159712e-17,0.17638045713821943,1.6667552341154555e-18,-0.027565011814207705,2.270539979159712e-17,-0.027565011814207705,-4.288613456161195e-17,0.17852141478434647,-3.589441929678603e-17,-0.17852141478434658,0.12768625184232762,0.9835611024135286,0.1276862518423275,100.0,70.71428571428592,[0.48563193]
-4.013713038693117e-17,0.14869381642288781,2.3188832149391663e-17,0.14869381642288781,1.0587679842366327e-18,-0.041233101666470456,2.3188832149391663e-17,-0.041233101666470456,-4.591488594618176e-17,0.15430495687255458,-3.4068247735023135e-17,-0.15430495687255472,0.04670153645903995,0.9978165828371115,0.04670153645903988,100.0,70.71428571428592,[0.47548138]
-4.2866362463430093e-17,0.020292566842590187,2.2964334684909917e-17,0.020292566842590187,-3.3378642299875074e-18,-0.07235455361638751,2.2964334684909917e-17,-0.07235455361638751,-5.1224856936210174e-17,0.0751463219198896,-3.224082570792077e-17,-0.07514632191988968,0.5795646819575111,0.5728957661346241,0.5795646819575112,100.0,70.71428571428592,[0.35654264]
-4.223087857969197e-17,0.014866511977059658,2.2275930087792313e-17,0.014866511977059658,-3.2819526237679077e-18,-0.07673899736646307,2.2275930087792313e-17,-0.07673899736646307,-5.04861450220791e-17,0.0781657654934312,-3.118192582418225e-17,-0.07816576549343127,0.5162449058573987,0.6833611009946141,0.5162449058573989,100.0,57.857142857142705,[0.34509222]
-3.772088163733365e-17,0.14209770815809789,2.151502530233618e-17,0.14209770815809789,1.2414251411458885e-18,-0.046677078334549656,2.151502530233618e-17,-0.046677078334549656,-4.4187112338314045e-17,0.14956773818452174,-3.050916757320161e-17,-0.1495677381845218,0.1705645021931587,0.9704717930899383,0.17056450219315858,100.0,57.857142857142705,[0.4151885]
-3.4340658315357917e-17,0.1707957049896655,2.0026554386520506e-17,0.1707957049896655,1.977311031488266e-18,-0.03232703063344328,2.0026554386520506e-17,-0.03232703063344328,-4.014379668718652e-17,0.17382810403525784,-3.2879355829876474e-17,-0.17382810403525792,0.25829515673675996,0.9308959254463762,0.2582951567367599,100.0,57.857142857142705,[0.45215849]
-3.117394313078161e-17,0.18262693200058275,1.8328238089057787e-17,0.18262693200058275,2.1815531175152723e-18,-0.025905521663716333,1.8328238089057787e-17,-0.025905521663716333,-3.657888187390723e-17,0.18445512284730603,-3.1372956775099687e-17,-0.18445512284730603,0.2883878728388619,0.9130525010090893,0.28838787283886175,100.0,57.857142857142705,[0.85963095]
-2.8049544645187143e-17,0.18863573598960215,1.6557073649408748e-17,0.18863573598960215,2.228162638307013e-18,-0.022576430906882983,1.6557073649408748e-17,-0.022576430906882983,-3.318888908360815e-17,0.18998193631193497,-2.914976103175437e-17,-0.18998193631193505,0.30238854596488207,0.903948192397379,0.30238854596488207,100.0,57.857142857142705,[0.85963095]
-2.4985386621677617e-17,0.1918489044188771,1.4749349348567945e-17,0.1918489044188771,2.199008967810311e-18,-0.020788442814276168,1.4749349348567945e-17,-0.020788442814276168,-2.9883417349805795e-17,0.19297191889330906,-2.663493465520711e-17,-0.19297191889330897,0.30951487209588174,0.8991112767076943,0.3095148720958817,100.0,57.857142857142705,[0.85812022]
-2.1934794360213954e-17,0.1933950223543134,1.2918648170740097e-17,0.1933950223543134,2.1330242533590732e-18,-0.01993068944408965,1.2918648170740097e-17,-0.01993068944408965,-2.6625764927215134e-17,0.1944193073054786,-2.3933831107915287e-17,-0.19441930730547852,0.31284388619070513,0.8968039951662761,0.312843886190705,100.0,57.857142857142705,[0.85606382]
-1.8898581806518916e-17,0.1937453855754043,1.1073210786455485e-17,0.1937453855754043,2.0146057489502295e-18,-0.019741089640784342,1.1073210786455485e-17,-0.019741089640784342,-2.34033156571335e-17,0.19474851745768856,-2.1116324911177665e-17,-0.19474851745768848,0.3135747493446151,0.8962933410144939,0.31357474934461504,100.0,57.857142857142705,[0.85606382]
-1.5871602449616348e-17,0.19306682817402182,9.210561444140743e-18,0.19306682817402182,1.8801807051524194e-18,-0.020124504048898154,9.210561444140743e-18,-0.020124504048898154,-2.0203790405259068e-17,0.1941128429661247,-1.8269383181988263e-17,-0.19411284296612472,0.3121039359840036,0.897319489527886,0.31210393598400366,100.0,57.857142857142705,[0.85812022]
-1.2853576495664056e-17,0.19132513357223932,7.337263111098138e-18,0.19132513357223932,1.7262252033091965e-18,-0.021097376822485466,7.337263111098138e-18,-0.021097376822485466,-1.7035672012171145e-17,0.19248482029818662,-1.536059090027822e-17,-0.19248482029818667,0.30831349685960846,0.8999364284817015,0.30831349685960857,100.0,57.857142857142705,[0.85812022]
-9.863207739082777e-18,0.18827411394962554,5.4479053798867194e-18,0.18827411394962554,1.546151370227035e-18,-0.02279299611796512,5.4479053798867194e-18,-0.02279299611796512,-1.3890952438962026e-17,0.1896487876458749,-1.2501831047916249e-17,-0.18964878764587492,0.3015186958826911,0.9045291327903169,0.3015186958826911,100.0,57.857142857142705,[0.85963095]
-6.9032093322816915e-18,0.18332186164767694,3.526583454332866e-18,0.18332186164767694,1.310800236283434e-18,-0.02553146609693071,3.526583454332866e-18,-0.02553146609693071,-1.0796498253433495e-17,0.18509122269580675,-9.716489053111784e-18,-0.18509122269580672,0.2900192180465068,0.91201847915894,0.2900192180465069,100.0,57.857142857142705,[0.85963095]
-3.971732940182045e-18,0.175108918250603,1.5764847586047765e-18,0.175108918250603,9.971746553351652e-19,-0.03003479090928885,1.5764847586047765e-18,-0.03003479090928885,-7.77007212526436e-18,0.177666040412514,-7.139839533792094e-18,-0.17766604041251413,0.2695733132244655,0.9244784787080598,0.26957331322446537,100.0,57.857142857142705,[0.44317335]
-1.1512414388201708e-18,0.16005139219558917,-4.769517918984502e-19,0.16005139219558917,5.154353682334568e-19,-0.03812256785052616,-4.769517918984502e-19,-0.03812256785052616,-4.899177458951121e-18,0.16452895891989433,-4.747740770768253e-18,-0.16452895891989433,0.2272364694006244,0.9469567962418761,0.22723646940062428,100.0,57.857142857142705,[0.43254598]
1.4156381410941704e-18,0.12527632157900812,-2.7579716203144224e-18,0.12527632157900812,-4.688433345568536e-19,-0.05551168332340857,-2.7579716203144224e-18,-0.05551168332340857,-2.433837607950114e-18,0.13702446399736598,-3.953590188525095e-18,-0.13702446399736606,0.1013920310617014,0.9896662629767501,0.10139203106170154,100.0,57.857142857142705,[0.41520839]
2.5004412602946946e-18,-0.018986874296429413,-5.937943097989925e-18,-0.018986874296429413,-5.25584889859119e-18,-0.09388905425720415,-5.937943097989925e-18,-0.09388905425720415,-1.8854713523503085e-18,0.09578964403765489,3.3437526957239664e-18,-0.09578964403765493,0.6614138598886696,0.3536430571838538,0.6614138598886695,100.0,57.857142857142705,[0.33870784]
3.6933465457982426e-18,-0.02578198018017204,-6.289320710956626e-18,-0.02578198018017204,-5.2729799124747395e-18,-0.09549229497229164,-6.289320710956626e-18,-0.09549229497229164,-7.385921538880126e-19,0.09891152056806092,-1.1926675213524634e-17,-0.09891152056806093,0.6130442361818463,0.49835080913793345,0.6130442361818466,100.0,45.00000000000011,[0.39172829]
5.624398858622673e-18,0.11695979676483727,-3.663268972718456e-18,0.11695979676483727,-5.561220561194675e-19,-0.05757397611252406,-3.663268972718456e-18,-0.05757397611252406,3.9227520605951776e-19,0.13036240556493867,-2.9426099212944107e-19,-0.13036240556493855,0.22777203441037508,0.946699424675603,0.2277720344103749,100.0,45.00000000000011,[0.39533359]
6.053178682487498e-18,0.1529344158721913,-1.9483934370459173e-18,0.1529344158721913,3.9710800878835883e-19,-0.04002178312281812,-1.9483934370459173e-18,-0.04002178312281812,-3.621888894221624e-19,0.1580844036662006,-1.008982556956203e-18,-0.15808440366620058,0.35712768031118003,0.8630872724766082,0.35712768031118,100.0,45.00000000000011,[0.41403186]
6.1568211045179424e-18,0.16805095536452896,-4.772087994997099e-19,0.16805095536452896,8.163324490121245e-19,-0.03203079615658031,-4.772087994997099e-19,-0.03203079615658031,-1.4939676990071496e-18,0.17107628561947258,-1.3975102058009138e-18,-0.17107628561947258,0.39754241423764614,0.8269945935519819,0.39754241423764597,100.0,45.00000000000011,[0.42235957]
6.164757075314776e-18,0.1757942827962305,9.059009228325587e-19,0.1757942827962305,1.0717079195256207e-18,-0.027744564790573974,9.059009228325587e-19,-0.027744564790573974,-2.7651601494172836e-18,0.17797019621065602,-2.283452160570729e-18,-0.17797019621065605,0.41593963809090745,0.8086955143498756,0.41593963809090756,100.0,45.00000000000011,[0.43606505]
6.133420164988817e-18,0.17997226014404288,2.2454489165764782e-18,0.17997226014404288,1.2532941231108646e-18,-0.025292348508335748,2.2454489165764782e-18,-0.025292348508335748,-4.096054670731162e-18,0.18174079705564788,-3.2192464981138673e-18,-0.18174079705564786,0.4255508783433608,0.7986318926028364,0.4255508783433607,100.0,45.00000000000011,[0.45290695]
6.0740699560381375e-18,0.18202174871254034,3.5549164227214215e-18,0.18202174871254034,1.4022377117732348e-18,-0.023934421274744506,3.5549164227214215e-18,-0.023934421274744506,-5.466527302813865e-18,0.183588598573354,-4.317994785879994e-18,-0.18358859857335405,0.43054778092505186,0.7932573458096855,0.4305477809250518,100.0,45.00000000000011,[0.78866727]
5.967070007901341e-18,0.18254762583743991,4.8502935533663775e-18,0.18254762583743991,1.5067619083366605e-18,-0.02334765307849131,4.8502935533663775e-18,-0.02334765307849131,-6.865208241350699e-18,0.1840346396827498,-5.442732837257741e-18,-0.18403463968274983,0.4325271944276005,0.7911007850844147,0.4325271944276004,100.0,45.00000000000011,[0.7162599]
5.842468483510028e-18,0.181767393816246,6.126237729880625e-18,0.181767393816246,1.5895427319209409e-18,-0.023405233942454307,6.126237729880625e-18,-0.023405233942454307,-8.278616510308579e-18,0.18326808350242357,-6.44937234205274e-18,-0.18326808350242352,0.4320505699828992,0.7916215067536403,0.4320505699828991,100.0,45.00000000000011,[0.72905371]
5.715764266001605e-18,0.1796431007595691,7.393867048103399e-18,0.1796431007595691,1.6517120757967779e-18,-0.02410712218998591,7.393867048103399e-18,-0.02410712218998591,-9.717519933311416e-18,0.18125340545985769,-7.490194498091312e-18,-0.18125340545985774,0.4290567070311663,0.794871489174913,0.4290567070311664,100.0,45.00000000000011,[0.45290695]
5.5566039627984396e-18,0.17586921910577524,8.637338711632926e-18,0.17586921910577524,1.6758718501403439e-18,-0.025580045385286816,8.637338711632926e-18,-0.025580045385286816,-1.117483887829152e-17,0.17771978210314268,-8.412491131709137e-18,-0.17771978210314265,0.4228262378615376,0.8015210197815881,0.4228262378615376,100.0,45.00000000000011,[0.43606505]
5.360307385994706e-18,0.16970705109178055,9.852588290981245e-18,0.16970705109178055,1.6382099032604983e-18,-0.028147054619642484,9.852588290981245e-18,-0.028147054619642484,-1.26653176328725e-17,0.1720254047343861,-9.077962549115382e-18,-0.17202540473438618,0.41145084556176986,0.8132751092791474,0.4114508455617698,100.0,45.00000000000011,[0.44869412]
5.088347771380134e-18,0.15946352861761384,1.102710666978684e-17,0.15946352861761384,1.5467597098687795e-18,-0.03254780609288968,1.102710666978684e-17,-0.03254780609288968,-1.4206727345334438e-17,0.16275127231650421,-9.172023599633795e-18,-0.16275127231650421,0.3899070056973486,0.8342332130862782,0.3899070056973485,100.0,45.00000000000011,[0.42235957]
4.692566663691887e-18,0.1407124786103867,1.2111472611108933e-17,0.1407124786103867,1.288238678280897e-18,-0.04065299664178518,1.2111472611108933e-17,-0.04065299664178518,-1.5858935419306017e-17,0.14646729250121174,-7.267023002335455e-18,-0.1464672925012118,0.34157619854881033,0.8755863185145639,0.3415761985488103,100.0,45.00000000000011,[0.42718195]
3.923421870096192e-18,0.09793939317487706,1.294850026601713e-17,0.09793939317487706,5.136506226642971e-19,-0.05831913190636434,1.294850026601713e-17,-0.05831913190636434,-1.781335475725446e-17,0.11398791989406189,2.6370151099072274e-19,-0.11398791989406194,0.17379149170076405,0.9693260724982314,0.1737914917007637,100.0,45.00000000000011,[0.40347348]
1.2561217366373006e-18,-0.06376001868746503,1.2885653163951579e-17,-0.06376001868746503,-4.065870850179102e-18,-0.09635161446802662,1.2885653163951579e-17,-0.09635161446802662,-2.1269224159838474e-17,0.11553775830273459,-1.391727903631411e-17,-0.11553775830273463,0.6928974367667908,0.19946499503427081,0.6928974367667908,100.0,45.00000000000011,[0.18209585]
6.551584780052749e-19,-0.0705789178360376,1.2782685320635369e-17,-0.0705789178360376,-4.149944660458379e-18,-0.09485496521491149,1.2782685320635369e-17,-0.09485496521491149,-2.3093149345506928e-17,0.1182321786521258,-1.916594722095476e-17,-0.11823217865212592,0.6592290831844378,0.3617098723668055,0.6592290831844377,100.0,32.14285714285738,[0.32891882]
2.7615821796776854e-18,0.08954898391248428,1.250363812526441e-17,0.08954898391248428,2.598013003809612e-19,-0.056587844100706004,1.250363812526441e-17,-0.056587844100706004,-2.3884830261301323e-17,0.10593018748083176,-1.2803838303703507e-17,-0.10593018748083191,0.3051690939678414,0.9020774069744202,0.30516909396784136,100.0,32.14285714285738,[0.38167008]
2.9462800299322008e-18,0.13347198968680474,1.132760737595573e-17,0.13347198968680474,8.803331707641539e-19,-0.03930752943713301,1.132760737595573e-17,-0.03930752943713301,-2.6147260226501238e-17,0.13913969204150775,-1.8184843126299297e-17,-0.13913969204150756,0.4680570248713279,0.7495633681932451,0.4680570248713278,100.0,32.14285714285738,[0.41776214]
2.7160690480137927e-18,0.15223267774749977,9.917989041769414e-18,0.15223267774749977,9.918606919837597e-19,-0.03132755954644274,9.917989041769414e-18,-0.03132755954644274,-2.868163284911316e-17,0.15542266295913865,-2.3508148905710508e-17,-0.15542266295913867,0.5106069053181498,0.6917811622781037,0.5106069053181499,100.0,32.14285714285738,[0.43187723]
2.3547449759220545e-18,0.16195744077155,8.415503527952682e-18,0.16195744077155,9.199451959380932e-19,-0.026931098988218046,8.415503527952682e-18,-0.026931098988218046,-3.130716739267333e-17,0.1641812922168155,-2.7545657674362525e-17,-0.16418129221681552,0.5289049727298135,0.6637160986772512,0.5289049727298134,100.0,32.14285714285738,[0.43187723]
1.8857087531861112e-18,0.16729644457789777,6.87774809264185e-18,0.16729644457789777,7.894425650568273e-19,-0.024298509275031282,6.87774809264185e-18,-0.024298509275031282,-3.398097909191424e-17,0.16905182022502568,-3.1299172053704685e-17,-0.1690518202250256,0.5384342101181819,0.6482107703122642,0.5384342101181817,100.0,32.14285714285738,[0.43187723]
1.40500597509072e-18,0.17002019337965296,5.3097346490177675e-18,0.17002019337965296,5.986740362867852e-19,-0.022707721992364007,5.3097346490177675e-18,-0.022707721992364007,-3.667629252399785e-17,0.17152990058569112,-3.4594798841092096e-17,-0.1715299005856911,0.5436516760610379,0.6394417176194002,0.5436516760610378,100.0,32.14285714285738,[0.46122627]
8.848946582520775e-19,0.17088039120523832,3.72182934696877e-18,0.17088039120523832,3.87268592004464e-19,-0.02183856182909352,3.72182934696877e-18,-0.02183856182909352,-3.939137805426332e-17,0.17227022633414757,-3.7747733558222014e-17,-0.17227022633414757,0.5462030350987686,0.6350783328832648,0.5462030350987686,100.0,32.14285714285738,[0.46780812]
3.251713162394956e-19,0.170153917615219,2.127401880886156e-18,0.170153917615219,1.4384794929389034e-19,-0.021557667871969888,2.127401880886156e-18,-0.021557667871969888,-4.2125014764126513e-17,0.1715141064865654,-4.091259627290935e-17,-0.17151410648656548,0.5466911043488375,0.6342378677213278,0.5466911043488375,100.0,32.14285714285738,[0.46122627]
-2.46761211614369e-19,0.1678065934378645,5.1551803459592385e-19,0.1678065934378645,-1.18022129799066e-19,-0.021848523964624073,5.1551803459592385e-19,-0.021848523964624073,-4.486997888529801e-17,0.16922296180085464,-4.396055364127233e-17,-0.16922296180085458,0.5451412380098752,0.6369003542487013,0.5451412380098754,100.0,32.14285714285738,[0.43019393]
-8.501663074146513e-19,0.16348225942343506,-1.115745774567025e-18,0.16348225942343506,-4.1789329982301474e-19,-0.0228061998928718,-1.115745774567025e-18,-0.0228061998928718,-4.762342160774817e-17,0.16506535644933185,-4.71277068302933e-17,-0.1650653564493318,0.5410041901168653,0.6439168677337077,0.5410041901168654,100.0,32.14285714285738,[0.43019393]
-1.512311152873549e-18,0.15630867085687486,-2.7647595355068665e-18,0.15630867085687486,-7.546633426117288e-19,-0.024692711877520396,-2.7647595355068665e-18,-0.024692711877520396,-5.04070481507504e-17,0.1582470555963335,-4.990262323677144e-17,-0.15824705559633356,0.532688169759849,0.657637154969064,0.5326881697598489,100.0,32.14285714285738,[0.43187723]
-2.2599202992214256e-18,0.14428451377105322,-4.450937125501432e-18,0.14428451377105322,-1.1794073522679077e-18,-0.028118872331729817,-4.450937125501432e-18,-0.028118872331729817,-5.321726358736253e-17,0.1469989520212895,-5.299295540010816e-17,-0.14699895202128943,0.5157060192734074,0.6841743954360989,0.5157060192734075,100.0,32.14285714285738,[0.43187723]
-3.179000677829095e-18,0.1222025595510167,-6.2085893242751736e-18,0.1222025595510167,-1.778234003377709e-18,-0.03463596521553183,-6.2085893242751736e-18,-0.03463596521553183,-5.6104769953231e-17,0.12701620230203436,-5.58637719970961e-17,-0.1270162023020343,0.47344736271422544,0.7427618659287036,0.47344736271422533,100.0,32.14285714285738,[0.38467266]
-4.575867195692293e-18,0.07210775640340081,-8.17921126926715e-18,0.07210775640340081,-2.8704135056906747e-18,-0.049080165365070316,-8.17921126926715e-18,-0.049080165365070316,-5.918114564118309e-17,0.0872260922304493,-4.740533559029651e-17,-0.08722609223044932,0.2832701174962774,0.9162511015367407,0.28327011749627684,100.0,32.14285714285738,[0.3257369]
-8.237266371872513e-18,-0.10514703949230464,-1.0875383159730227e-17,-0.10514703949230464,-7.75880194451469e-18,-0.07923522558922912,-1.0875383159730227e-17,-0.07923522558922912,-6.339711316979846e-17,0.13165910864111263,-2.837625387950786e-17,-0.13165910864111263,0.7045670431934576,0.08467917861703969,0.7045670431934576,100.0,32.14285714285738,[0.16731975]
-8.737300360883268e-18,-0.11063851895085715,-1.1034763906566638e-17,-0.11063851895085715,-7.786136955037117e-18,-0.07493389175199762,-1.1034763906566638e-17,-0.07493389175199762,-6.268677595467161e-17,0.13362623248725997,-3.480425935341151e-17,-0.13362623248726,0.683573197183161,0.25584246751777223,0.6835731971831611,100.0,19.285714285714306,[0.30909278]
-5.6181246936764585e-18,0.06530830618521696,-9.0305306664557e-18,0.06530830618521696,-2.949162754366948e-18,-0.04389454458279897,-9.0305306664557e-18,-0.04389454458279897,-5.754413122070288e-17,0.07868866437367822,-5.1595824459570915e-17,-0.07868866437367818,0.4236599660998262,0.800640035377065,0.42365996609982604,100.0,19.285714285714306,[0.33893558]
-4.782745066891805e-18,0.11627776726057266,-7.742463679850696e-18,0.11627776726057266,-1.900291947385421e-18,-0.03030624364100121,-7.742463679850696e-18,-0.03030624364100121,-5.351170845256813e-17,0.12016233837077091,-5.434285300023317e-17,-0.12016233837077087,0.5869479862190629,0.5576595044888718,0.5869479862190626,100.0,19.285714285714306,[0.40277153]
-4.44088786333589e-18,0.1383200371613165,-6.637710411841465e-18,0.1383200371613165,-1.3844538455912275e-18,-0.023915630030012968,-6.637710411841465e-18,-0.023915630030012968,-4.9640582595158766e-17,0.1403723264751299,-5.0595587999314155e-17,-0.14037232647512987,0.6178790058953579,0.48626234498213844,0.6178790058953582,100.0,19.285714285714306,[0.45072505]
-4.28162581691738e-18,0.1498808489280713,-5.597695503895507e-18,0.1498808489280713,-1.0094961826433903e-18,-0.02027777445598048,-5.597695503895507e-18,-0.02027777445598048,-4.5842237051125487e-17,0.15124634545101232,-4.664829756941953e-17,-0.15124634545101237,0.6300892576029037,0.45384474758097987,0.6300892576029037,100.0,19.285714285714306,[0.46255184]
-4.219494626747297e-18,0.15634707165824427,-4.589661879972687e-18,0.15634707165824427,-7.22173342511871e-19,-0.017984544542378206,-4.589661879972687e-18,-0.017984544542378206,-4.205867818772221e-17,0.15737805011660605,-4.257186847325407e-17,-0.15737805011660594,0.6363656899765393,0.4359786889761542,0.6363656899765393,100.0,19.285714285714306,[0.46255184]
-4.2251922468065624e-18,0.15978213715745745,-3.603494568747553e-18,0.15978213715745745,-4.681544482029618e-19,-0.016474546121211246,-3.603494568747553e-18,-0.016474546121211246,-3.830089427220609e-17,0.16062920663598035,-3.864532023877789e-17,-0.16062920663598035,0.6399539384797845,0.4253444642268474,0.6399539384797847,100.0,19.285714285714306,[0.46255184]
-4.2618198043304105e-18,0.16106874181234965,-2.627281135423576e-18,0.16106874181234965,-2.5795296530221147e-19,-0.015493974923990392,-2.627281135423576e-18,-0.015493974923990392,-3.455308119179368e-17,0.16181224566749755,-3.4772612752561375e-17,-0.16181224566749755,0.641997222731252,0.41914094528060414,0.641997222731252,100.0,19.285714285714306,[0.45425777]
-4.314726276309302e-18,0.16054009372735362,-1.6624247885123756e-18,0.16054009372735362,-8.607476018104295e-20,-0.014929334077538374,-1.6624247885123756e-18,-0.014929334077538374,-3.080804909260067e-17,0.16123277182380213,-3.0887126942990536e-17,-0.16123277182380208,0.6429340957416446,0.4162589303135102,0.6429340957416446,100.0,19.285714285714306,[0.45425777]
-4.4026324143665375e-18,0.15817255101708483,-7.084676835449033e-19,0.15817255101708483,8.261549085934619e-20,-0.014750904892127088,-7.084676835449033e-19,-0.014750904892127088,-2.7076718413073997e-17,0.15885888420352476,-2.700560276060528e-17,-0.15885888420352473,0.6428570702764378,0.41649678797223666,0.6428570702764378,100.0,19.285714285714306,[0.45425777]
-4.550227905425599e-18,0.15357806389873463,2.400927917086962e-19,0.15357806389873463,2.0267248496529265e-19,-0.015003269868337719,2.400927917086962e-19,-0.015003269868337719,-2.3353052389103233e-17,0.15430916958374832,-2.3136051914766725e-17,-0.15430916958374832,0.64155706129376,0.4204867110958794,0.64155706129376,100.0,19.285714285714306,[0.45425777]
-4.7347222692494266e-18,0.14579054034741115,1.1706235213432071e-18,0.14579054034741115,2.8366008437913446e-19,-0.015835514600062557,1.1706235213432071e-18,-0.015835514600062557,-1.9640238974769167e-17,0.14664803161801696,-1.919224327929918e-17,-0.14664803161801696,0.6383050199162973,0.4302713133585734,0.6383050199162972,100.0,19.285714285714306,[0.46255184]
-5.0177040655262676e-18,0.13258684304275764,2.0820646801987958e-18,0.13258684304275764,2.866445520292258e-19,-0.017608628197890202,2.0820646801987958e-18,-0.017608628197890202,-1.5952115247358585e-17,0.13375101769727357,-1.5299979168990436e-17,-0.1337510176972736,0.6308705818769904,0.451668703636166,0.6308705818769905,100.0,19.285714285714306,[0.43229421]
-5.488164693277027e-18,0.10819461906982805,2.9452880335825966e-18,0.10819461906982805,1.254832989242943e-19,-0.021247230110314305,2.9452880335825966e-18,-0.021247230110314305,-1.2292479620244328e-17,0.11026114629834863,-1.0869719528831255e-17,-0.11026114629834871,0.6099138664609995,0.5059744568623871,0.6099138664609995,100.0,19.285714285714306,[0.41629073]
-6.5598598949007306e-18,0.05290266289790654,3.68413030620833e-18,0.05290266289790654,-5.49413362857721e-19,-0.02960930043486642,3.68413030620833e-18,-0.02960930043486642,-8.774741864129868e-18,0.060625097228224845,-6.337082089902318e-18,-0.06062509722822491,0.4683472371759119,0.7492007280157834,0.4683472371759121,100.0,19.285714285714306,[0.27112149]
-1.0091841701163353e-17,-0.134947806532168,4.013837674131913e-18,-0.134947806532168,-5.02163813651957e-18,-0.045915278612655146,4.013837674131913e-18,-0.045915278612655146,-6.114631584555288e-18,0.14254516230977884,-8.998208512060032e-18,-0.14254516230977887,0.7070803804165577,0.008641253378529255,0.707080380416558,100.0,19.285714285714306,[0.10779086]
-1.051672136843999e-17,-0.138025507170114,4.853176807713705e-18,-0.138025507170114,-5.0328977190176416e-18,-0.03966067341431675,4.853176807713705e-18,-0.03966067341431675,-4.407380431082592e-18,0.14361061814937043,-7.2846119326669e-18,-0.14361061814937037,0.6971981712396615,0.16682152151369142,0.6971981712396617,100.0,6.428571428571418,[0.1693053]
-7.526284783048484e-18,0.04903810151572309,5.648503522057928e-18,0.04903810151572309,-5.698976635469842e-19,-0.021994892858241067,5.648503522057928e-18,-0.021994892858241067,-3.9073464420718364e-18,0.053744866844303026,5.812925257184934e-19,-0.05374486684430309,0.6087239893307375,0.5088322018372506,0.6087239893307373,100.0,6.428571428571418,[0.2758489]
-7.044971545661029e-18,0.10475452843551683,6.055874877694115e-18,0.10475452843551683,7.46116912522831e-20,-0.014788303052875656,6.055874877694115e-18,-0.014788303052875656,-4.264397299119126e-18,0.10579321875683334,-2.6735388568516245e-18,-0.1057932187568334,0.6846949425666073,0.24977123783058136,0.6846949425666072,100.0,6.428571428571418,[0.27774736]
-7.160009207810003e-18,0.12906384006863172,6.371736689729633e-18,0.12906384006863172,2.0945536598822748e-19,-0.011251446880810973,6.371736689729633e-18,-0.011251446880810973,-4.742454753615572e-18,0.1295533475838161,-3.674788146198378e-18,-0.1295533475838161,0.6931298643626667,0.19784332755284537,0.6931298643626668,100.0,6.428571428571418,[0.16966545]
-7.470936473901336e-18,0.14194957122051863,6.654319991746377e-18,0.14194957122051863,1.9941670207428394e-19,-0.009091673851727372,6.654319991746377e-18,-0.009091673851727372,-5.2399112478376125e-18,0.1422404278083952,-4.404151629487623e-18,-0.14224042780839521,0.6961634110338696,0.1752512775285107,0.6961634110338695,100.0,6.428571428571418,[0.1703274]
-7.873025660940912e-18,0.14928380046940762,6.926220256151998e-18,0.14928380046940762,9.984400865760066e-20,-0.007591256203262872,6.926220256151998e-18,-0.007591256203262872,-5.765041896633227e-18,0.14947668799292246,-5.067974318362366e-18,-0.1494766879929225,0.6977331808073121,0.16228621876493993,0.6977331808073121,100.0,6.428571428571418,[0.1693053]
-8.331005787609472e-18,0.1533241736717621,7.180934395765757e-18,0.1533241736717621,-5.779014631540473e-20,-0.006460665548094738,7.180934395765757e-18,-0.006460665548094738,-6.29451358928352e-18,0.15346023078131027,-5.6951853625596e-18,-0.1534602307813103,0.6987045794542025,0.15370042712839702,0.6987045794542025,100.0,6.428571428571418,[0.1693053]
-8.855186833061875e-18,0.15504261998832328,7.433664542680309e-18,0.15504261998832328,-2.319745309843711e-19,-0.005562737978540852,7.433664542680309e-18,-0.005562737978540852,-6.836330125395554e-18,0.15514237998258731,-6.305328154224943e-18,-0.15514237998258731,0.6993700902081725,0.14752272314604498,0.6993700902081725,100.0,6.428571428571418,[0.1693053]
-9.405956772124183e-18,0.15481448973978473,7.682460618601558e-18,0.15481448973978473,-4.3139123305865504e-19,-0.0048263200686458905,7.682460618601558e-18,-0.0048263200686458905,-7.377604031025753e-18,0.15488970139681635,-6.900549852813257e-18,-0.15488970139681638,0.6998525013850123,0.1428739045812182,0.6998525013850123,100.0,6.428571428571418,[0.1693053]
-9.977346669496213e-18,0.1526313743155955,7.9268478218579e-18,0.1526313743155955,-6.709625907887131e-19,-0.004214376381783822,7.9268478218579e-18,-0.004214376381783822,-7.926746078642556e-18,0.15268954579064922,-7.49106782197472e-18,-0.15268954579064925,0.7002077530439377,0.13934922014248877,0.7002077530439377,100.0,6.428571428571418,[0.1693053]
-1.0602999615051721e-17,0.14809840871240237,8.170488908201719e-18,0.14809840871240237,-9.219291886373017e-19,-0.0037121713423096457,8.170488908201719e-18,-0.0037121713423096457,-8.48104311583679e-18,0.14814492525638673,-8.073406436519822e-18,-0.1481449252563868,0.7004561719891408,0.13682946409541388,0.7004561719891408,100.0,6.428571428571418,[0.1693053]
-1.1287799283127222e-17,0.1402139580281591,8.409076748183452e-18,0.1402139580281591,-1.2241743670192776e-18,-0.003326330714389878,8.409076748183452e-18,-0.003326330714389878,-9.050262491281481e-18,0.14025340816516316,-8.65307129218139e-18,-0.1402534081651632,0.7005853381818389,0.1355004348674826,0.700585338181839,100.0,6.428571428571418,[0.16588203]
-1.2074613481787662e-17,0.12666343536516225,8.646274097555483e-18,0.12666343536516225,-1.6151396291812412e-18,-0.0030965207837366014,8.646274097555483e-18,-0.0030965207837366014,-9.624094225821767e-18,0.12670127978623089,-9.203183475715079e-18,-0.12670127978623086,0.7005158655822923,0.1362169010621818,0.700515865582292,100.0,6.428571428571418,[0.16256815]
-1.3067627263545322e-17,0.10143724018725149,8.876959881145496e-18,0.10143724018725149,-2.1650956225207968e-18,-0.0031375630270168244,8.876959881145496e-18,-0.0031375630270168244,-1.022641406065838e-17,0.10148575268753071,-9.680574197451724e-18,-0.10148575268753073,0.6998770856692337,0.1426328500391144,0.6998770856692337,100.0,6.428571428571418,[0.15584591]
-1.466838718495794e-17,0.04410024594266471,9.0906375905705e-18,0.04410024594266471,-3.228651366916978e-18,-0.0037631843344126826,9.0906375905705e-18,-0.0037631843344126826,-1.0934818154693693e-17,0.044260515683149045,-9.415780818066629e-18,-0.04426051568314905,0.6933848870482838,0.1960479452227875,0.6933848870482838,100.0,6.428571428571418,[0.12771685]
-1.8874858680141202e-17,-0.14728927563835,9.285543676764533e-18,-0.14728927563835,-8.084651548856479e-18,-0.0029926672415771863,9.285543676764533e-18,-0.0029926672415771863,-1.2410230434802478e-17,0.14731967545202057,-1.2790312122385032e-17,-0.14731967545202054,0.7041239309400579,0.09175499852891761,0.7041239309400577,100.0,6.428571428571418,[0.16792731]
-1.867734118475334e-17,-0.14734668856834424,9.065066129114036e-18,-0.14734668856834424,-8.222479691242515e-18,0.003975297296161058,9.065066129114036e-18,0.003975297296161058,-1.1868142583449525e-17,0.14740030400460336,-1.1384486366780481e-17,-0.1474003040046034,0.7045402459565836,0.0851239311526058,0.7045402459565836,100.0,6.428571428571418,[0.16465689]
-1.408451678650371e-17,0.04392813544288272,7.798380055283515e-18,0.04392813544288272,-3.6350815978112325e-18,0.004768479792240415,7.798380055283515e-18,0.004768479792240415,-9.322391677921626e-18,0.04418619108972001,-1.104709642723401e-17,-0.04418619108972001,0.690013023419479,0.21854989138185016,0.6900130234194791,100.0,6.428571428571418,[0.18090366]
-1.2124535486116462e-17,0.10115068278695206,6.548074639123381e-18,0.10115068278695206,-2.8558642258964795e-18,0.004165508118086376,6.548074639123381e-18,0.004165508118086376,-7.54744737184004e-18,0.10123641679824726,-8.094021040612668e-18,-0.10123641679824728,0.698807990066716,0.15275727818284976,0.698807990066716,100.0,6.428571428571418,[0.15584591]
-1.0750595106110783e-17,0.1262627767299966,5.316795204232579e-18,0.1262627767299966,-2.572611114378721e-18,0.0041472057450719305,5.316795204232579e-18,0.0041472057450719305,-5.8680060305613775e-18,0.1263308675782009,-6.2218181078490924e-18,-0.1263308675782009,0.6996828859737046,0.14452583904276817,0.6996828859737043,100.0,6.428571428571418,[0.16256815]
-9.59262165787535e-18,0.13969963806641314,4.089602455158095e-18,0.13969963806641314,-2.4657129094572683e-18,0.004399855962283822,4.089602455158095e-18,0.004399855962283822,-4.216781474338123e-18,0.13976890787430404,-4.479472936098427e-18,-0.13976890787430402,0.6998201430317326,0.14319055420694216,0.6998201430317326,100.0,6.428571428571418,[0.1693053]
-8.527980652515499e-18,0.1474709606781162,2.868616042219597e-18,0.1474709606781162,-2.433697711029016e-18,0.004808625735378978,2.868616042219597e-18,0.004808625735378978,-2.583463724015417e-18,0.14754933793409392,-2.7770821489087386e-18,-0.14754933793409386,0.6997072195367652,0.14429003380780525,0.6997072195367652,100.0,6.428571428571418,[0.1693053]
-7.519773217266467e-18,0.1518914237727753,1.6455438933665465e-18,0.1518914237727753,-2.453775038856903e-18,0.0053338319084365845,1.6455438933665465e-18,0.0053338319084365845,-9.534017565837193e-19,0.1519850465623124,-1.0773926368150624e-18,-0.15198504656231243,0.6994493459556866,0.1467692913532142,0.6994493459556866,100.0,6.428571428571418,[0.1693053]
-6.5625730473099045e-18,0.15396275339861246,4.3244257961720994e-19,0.15396275339861246,-2.4982707383673555e-18,0.00596883040563158,4.3244257961720994e-19,0.00596883040563158,6.712339060296305e-19,0.15407840981296872,6.253617494568683e-19,-0.15407840981296864,0.6990662091087833,0.15037576455183738,0.6990662091087831,100.0,6.428571428571418,[0.1693053]
-5.6498685768637934e-18,0.15407990442555822,-7.824731548057617e-19,0.15407990442555822,-2.5715258534150516e-18,0.006728338326791803,-7.824731548057617e-19,0.006728338326791803,2.28338906756078e-18,0.15422674049732404,2.3400957975340493e-18,-0.15422674049732407,0.6985377246614274,0.1552098400542695,0.6985377246614274,100.0,6.428571428571418,[0.1693053]
-4.7642956305094224e-18,0.1522513739429566,-1.993251331804743e-18,0.1522513739429566,-2.6632304048451304e-18,0.007649373051459791,-1.993251331804743e-18,0.007649373051459791,3.892831076682756e-18,0.1524434117159492,4.068334426842835e-18,-0.1524434117159492,0.697802808893694,0.16168636244328452,0.697802808893694,100.0,6.428571428571418,[0.1693053]
-3.90802473017413e-18,0.14810189865793036,-3.1995867217337023e-18,0.14810189865793036,-2.788578046148966e-18,0.008803070787742735,-3.1995867217337023e-18,0.008803070787742735,5.501730455322897e-18,0.14836329209537605,5.836952868695045e-18,-0.14836329209537608,0.6967250944972267,0.17072868943344388,0.6967250944972267,100.0,6.428571428571418,[0.1693053]
-3.124466314404699e-18,0.14065963497513412,-4.394899930000392e-18,0.14065963497513412,-2.963305061299767e-18,0.010326579622052263,-4.394899930000392e-18,0.010326579622052263,7.095436180471664e-18,0.14103819042383006,7.686887117307184e-18,-0.14103819042383006,0.6949779003643716,0.18442189677546117,0.6949779003643715,100.0,6.428571428571418,[0.17918777]
-2.448348734038555e-18,0.1276670213000564,-5.574341196673414e-18,0.1276670213000564,-3.2221398011349606e-18,0.01250941473345264,-5.574341196673414e-18,0.01250941473345264,8.672320360683552e-18,0.12827842291126973,9.64424316049119e-18,-0.12827842291126973,0.6915910585756267,0.20833534360853945,0.6915910585756267,100.0,6.428571428571418,[0.27101737]
-1.964322344241926e-18,0.10325206277045927,-6.723666471604607e-18,0.10325206277045927,-3.642135794075085e-18,0.016069297017701423,-6.723666471604607e-18,0.016069297017701423,1.0213390929094345e-17,0.10449502750369499,1.19018877171956e-17,-0.10449502750369499,0.6821275871760296,0.26344621771210913,0.6821275871760296,100.0,6.428571428571418,[0.32177962]
-2.05548426519017e-18,0.047431311302841374,-7.775759147072027e-18,0.047431311302841374,-4.557010786448534e-18,0.02329889239333586,-7.775759147072027e-18,0.02329889239333586,1.1648648553547354e-17,0.0528447507200412,1.4802099913052792e-17,-0.052844750720041224,0.5957738912716227,0.5386157637482746,0.595773891271623,100.0,6.428571428571418,[0.27312048]
-4.666622143779161e-18,-0.13973519345851035,-8.447128710722116e-18,-0.13973519345851035,-9.289833849011539e-18,0.04098776786259894,-8.447128710722116e-18,0.04098776786259894,1.2220038450919384e-17,0.14562253055501276,5.945030030224938e-18,-0.14562253055501267,0.6965368367496997,0.17225814959369642,0.6965368367496996,100.0,6.428571428571418,[0.1693053]
-5.011735130226085e-18,-0.13675889047454967,-8.413180391202327e-18,-0.13675889047454967,-9.155261489516512e-18,0.04728389102422212,-8.413180391202327e-18,0.04728389102422212,1.1600354440664058e-17,0.14470231675484818,5.583595077533095e-18,-0.14470231675484807,0.7071018916659952,0.003718817653725967,0.7071018916659954,100.0,19.28571428571425,[0.1031338]
-3.3447742900296222e-18,0.05099300717086719,-8.244320568136365e-18,0.05099300717086719,-4.132673749653731e-18,0.03104264129904255,-8.244320568136365e-18,0.03104264129904255,1.0059283872253266e-17,0.0596986797102678,1.4978027620364255e-17,-0.05969867971026774,0.4486581002529401,0.7729241994884398,0.44865810025294,100.0,19.28571428571425,[0.27361343]
-4.173913666273175e-18,0.10618803444449011,-7.659025764667319e-18,0.10618803444449011,-2.9193519922711495e-18,0.02274437304922384,-7.659025764667319e-18,0.02274437304922384,7.64946190242498e-18,0.10859652464322465,1.0305037053265e-17,-0.10859652464322456,0.6037109227413382,0.520640224651922,0.6037109227413381,100.0,19.28571428571425,[0.41629073]
-5.571729787479584e-18,0.13048512239996324,-6.947806775007487e-18,0.13048512239996324,-2.2312965413046407e-18,0.019168965577124407,-6.947806775007487e-18,0.019168965577124407,5.11320703032919e-18,0.1318856186588605,6.920531127191989e-18,-0.13188561865886061,0.6263945558955292,0.46396090426768233,0.6263945558955293,100.0,19.28571428571425,[0.4186282]
-7.177916013710551e-18,0.14359555974899385,-6.199281939721515e-18,0.14359555974899385,-1.685410276578846e-18,0.01745848281744736,-6.199281939721515e-18,0.01745848281744736,2.5340843501684513e-18,0.1446529757796706,3.790259485056917e-18,-0.1446529757796705,0.6343606434747606,0.4417840513424794,0.6343606434747607,100.0,19.28571428571425,[0.46255184]
-8.875264160889762e-18,0.1512917643495489,-5.420505455073252e-18,0.1512917643495489,-1.230685932801295e-18,0.01668828760414347,-5.420505455073252e-18,0.01668828760414347,-6.891407119301784e-20,0.15220938506924614,1.0592337056207776e-18,-0.15220938506924614,0.6377969236572938,0.4317755995266334,0.6377969236572939,100.0,19.28571428571425,[0.46255184]
-1.063121640010713e-17,0.15579693098929095,-4.6316903065110466e-18,0.15579693098929095,-8.09604678897501e-19,0.01649735847609732,-4.6316903065110466e-18,0.01649735847609732,-2.6805945802638436e-18,0.15666794995266498,-1.780828799531604e-18,-0.15666794995266503,0.6391232819120133,0.4278350862610901,0.6391232819120133,100.0,19.28571428571425,[0.46255184]
-1.2415385424379909e-17,0.15807720422012703,-3.829614625549003e-18,0.15807720422012703,-4.297633416131507e-19,0.01673657387372696,-3.829614625549003e-18,0.01673657387372696,-5.298244024634852e-18,0.1589607354005462,-4.626727360268869e-18,-0.15896073540054623,0.6391275269595307,0.42782240306602554,0.6391275269595306,100.0,19.28571428571425,[0.46255184]
-1.4249476452981484e-17,0.15852068230449043,-3.0173985374576724e-18,0.15852068230449043,-7.05419626385222e-20,0.017361315273524476,-3.0173985374576724e-18,0.017361315273524476,-7.923490295751547e-18,0.15946856112195879,-7.347627211944626e-18,-0.1594685611219588,0.6380333917501719,0.4310763064975195,0.6380333917501718,100.0,19.28571428571425,[0.46255184]
-1.6107443222783792e-17,0.1571510520333869,-2.2018588376651035e-18,0.1571510520333869,2.669741970627148e-19,0.01840126684631056,-2.2018588376651035e-18,0.01840126684631056,-1.0566100742286956e-17,0.15822471291410012,-1.0204775580075738e-17,-0.15822471291410012,0.6357367623008562,0.4378099337822848,0.6357367623008563,100.0,19.28571428571425,[0.46255184]
-1.7997967821496187e-17,0.15363514709815024,-1.367225327792973e-18,0.15363514709815024,5.654209620718472e-19,0.019969893537976586,-1.367225327792973e-18,0.019969893537976586,-1.3208711188822366e-17,0.15492758008756335,-1.3018349877977567e-17,-0.15492758008756347,0.6317552892397221,0.44918872318355135,0.6317552892397221,100.0,19.28571428571425,[0.46255184]
-1.9929732336828026e-17,0.14709031052266217,-5.203148032693306e-19,0.14709031052266217,8.17201505643188e-19,0.022320971734064037,-5.203148032693306e-19,0.022320971734064037,-1.5877367898485843e-17,0.14877427609908267,-1.5864800990034348e-17,-0.14877427609908261,0.6248327848953033,0.4681538014797697,0.6248327848953031,100.0,19.28571428571425,[0.46255184]
-2.197219347045416e-17,0.1354531491851668,3.6681820572031544e-19,0.1354531491851668,9.875874769393108e-19,0.026015875013011395,3.6681820572031544e-19,0.026015875013011395,-1.8568815088386382e-17,0.1379288997160193,-1.8950932479893677e-17,-0.1379288997160192,0.611396021193644,0.5023841264780987,0.611396021193644,100.0,19.28571428571425,[0.45072505]
-2.4203490011758802e-17,0.11333683693011341,1.3134709956862146e-18,0.11333683693011341,1.0006106085033457e-18,0.03246273255904086,1.3134709956862146e-18,0.03246273255904086,-2.1322122153216087e-17,0.11789430694704021,-2.2290886947160387e-17,-0.11789430694704016,0.5773184310361194,0.5774139402300456,0.5773184310361194,100.0,19.28571428571425,[0.40277153]
-2.6925324508642092e-17,0.062295708975291436,2.44678867140328e-18,0.062295708975291436,4.959642603969945e-19,0.04610653130516162,2.44678867140328e-18,0.04610653130516162,-2.4246900450305585e-17,0.07750204891309682,-2.198912890052805e-17,-0.07750204891309681,0.3975373250352738,0.8269994863405888,0.39753732503527356,100.0,19.28571428571425,[0.33352033]
-3.1937059638868174e-17,-0.1137202191085696,4.29410631799958e-18,-0.1137202191085696,-3.792987068025155e-18,0.07720094528671449,4.29410631799958e-18,0.07720094528671449,-2.8276474408410707e-17,0.13744916946734645,-2.8092797461033747e-17,-0.13744916946734653,0.6833767899344938,0.25688971555446255,0.683376789934494,100.0,19.28571428571425,[0.31576708]
-3.1659232832168763e-17,-0.10829400185951968,4.9385139295835035e-18,-0.10829400185951968,-3.709421973822598e-18,0.08156936411296477,4.9385139295835035e-18,0.08156936411296477,-2.8890732113847684e-17,0.13557710721409813,-3.5316094480583554e-17,-0.1355771072140981,0.7045801841629377,0.08446021649179843,0.7045801841629378,100.0,32.142857142857125,[0.16731975]
-2.6608428307250577e-17,0.06890357815667128,3.988605356726596e-18,0.06890357815667128,7.596826745687006e-19,0.05150222192191512,3.988605356726596e-18,0.05150222192191512,-2.5596965089110536e-17,0.0860243102017487,-3.3474677682942046e-17,-0.08602431020174882,0.25433437878027715,0.9330745133915622,0.2543343787802773,100.0,32.142857142857125,[0.34616002]
-2.3793261367491703e-17,0.11894299432286103,3.7775560136979785e-18,0.11894299432286103,1.4238623843344789e-18,0.03714397501374033,3.7775560136979785e-18,0.03714397501374033,-2.3427528422735057e-17,0.12460782791746879,-2.5092594081080158e-17,-0.12460782791746874,0.45936425994270874,0.7602426937331102,0.45936425994270863,100.0,32.142857142857125,[0.38791672]
-2.1481655514875514e-17,0.1409716663658682,3.763379792360045e-18,0.1409716663658682,1.588822050812254e-18,0.030711381752956995,3.763379792360045e-18,0.030711381752956995,-2.147080290523882e-17,0.1442782023978172,-2.2926906334654756e-17,-0.1442782023978172,0.5049234702979336,0.70007469478948,0.5049234702979336,100.0,32.142857142857125,[0.43187723]
-1.9328497762955083e-17,0.15294472063786313,3.8288685086364805e-18,0.15294472063786313,1.5801399631028975e-18,0.02736836966278568,3.8288685086364805e-18,0.02736836966278568,-1.9571596218817067e-17,0.1553741137673611,-2.106098971494837e-17,-0.1553741137673612,0.5230965538351484,0.6728595624137205,0.5230965538351486,100.0,32.142857142857125,[0.43187723]
-1.7270842975837574e-17,0.16006941185008572,3.92203137948649e-18,0.16006941185008572,1.4954896079366706e-18,0.025563665099206292,3.92203137948649e-18,0.025563665099206292,-1.771254418805109e-17,0.1620978642158395,-1.9066428170453075e-17,-0.1620978642158395,0.5319029135467865,0.6589071111476028,0.5319029135467865,100.0,32.142857142857125,[0.43187723]
-1.5254428105339508e-17,0.1643470656210444,4.046666818282918e-18,0.1643470656210444,1.3695993361510003e-18,0.02468644381522648,4.046666818282918e-18,0.02468644381522648,-1.5874112115594834e-17,0.16619078941532894,-1.6997974708803115e-17,-0.166190789415329,0.5361998463541849,0.6519044788460171,0.5361998463541849,100.0,32.142857142857125,[0.43187723]
-1.327491210760621e-17,0.16664993202305028,4.182867069223449e-18,0.16664993202305028,1.2089807135279036e-18,0.024474671768625327,4.182867069223449e-18,0.024474671768625327,-1.4048703174702614e-17,0.16843755341808192,-1.5318024006665048e-17,-0.168437553418082,0.5377062635548306,0.6494181613319773,0.5377062635548309,100.0,32.142857142857125,[0.43187723]
-1.1299737153727587e-17,0.16733417221692226,4.333175712691685e-18,0.16733417221692226,1.0136337400673805e-18,0.024833260431909452,4.333175712691685e-18,0.024833260431909452,-1.2239573148265437e-17,0.16916682894468899,-1.3487333469996597e-17,-0.16916682894468885,0.5370124690904372,0.6505653050100237,0.5370124690904371,100.0,32.142857142857125,[0.43187723]
-9.370143160323087e-18,0.166433965296816,4.5013911620604685e-18,0.166433965296816,7.965815473334662e-19,0.025778708399267988,4.5013911620604685e-18,0.025778708399267988,-1.0443466253392294e-17,0.16841854592400524,-1.1869517226785928e-17,-0.16841854592400518,0.5340863104672365,0.6553652614710286,0.5340863104672364,100.0,32.142857142857125,[0.43187723]
-7.464424908119318e-18,0.16367243086719294,4.6823923421574844e-18,0.16367243086719294,5.534830914714819e-19,0.02744436159058747,4.6823923421574844e-18,0.02744436159058747,-8.662553012010526e-18,0.16595739697009887,-1.0007941565821288e-17,-0.16595739697009884,0.5282682107397538,0.6647295653449143,0.5282682107397538,100.0,32.142857142857125,[0.43187723]
-5.6194812698810454e-18,0.158297865066755,4.8906267895615836e-18,0.158297865066755,2.669741970627148e-19,0.030150384782109272,4.8906267895615836e-18,0.030150384782109272,-6.909856555684168e-18,0.16114359989525434,-8.755205990832223e-18,-0.1611435998952544,0.5177625300432036,0.6810608819823095,0.5177625300432038,100.0,32.142857142857125,[0.43187723]
-3.83097120175359e-18,0.14853976865680257,5.145086571136984e-18,0.14853976865680257,-1.0201453058493981e-19,0.034618844723644314,5.145086571136984e-18,0.034618844723644314,-5.20274105983193e-18,0.1525205798658536,-7.31501892606175e-18,-0.15252057986585366,0.49770763515674493,0.7103338791113382,0.49770763515674493,100.0,32.142857142857125,[0.43069808]
-2.1943976685398752e-18,0.12974799708204357,5.476972939589185e-18,0.12974799708204357,-6.381334466377085e-19,0.04266940111293128,5.476972939589185e-18,0.04266940111293128,-3.580275919145919e-18,0.13658411524821687,-6.922169381287318e-18,-0.13658411524821684,0.4512304890526569,0.7699234322311538,0.451230489052657,100.0,32.142857142857125,[0.40051515]
-9.74564345375276e-19,0.08579624385635558,6.0525343087903194e-18,0.08579624385635558,-1.6756429279058198e-18,0.060018994089259405,6.0525343087903194e-18,0.060018994089259405,-2.2443196728686755e-18,0.10470565940456997,-5.900178021071021e-20,-0.10470565940456984,0.2749512469401056,0.9213053910686522,0.2749512469401057,100.0,32.142857142857125,[0.36360722]
-1.6669608401964633e-18,-0.07435769870733354,7.524928206843897e-18,-0.07435769870733354,-6.518077347799452e-18,0.09835454834938102,7.524928206843897e-18,0.09835454834938102,-2.372380466581685e-18,0.12329916681819594,1.8691268068230985e-17,-0.12329916681819592,0.6611650072108001,0.3545725123016241,0.6611650072108002,100.0,32.142857142857125,[0.328821]
-7.683647622780572e-19,-0.06756126128215968,7.489996369575783e-18,-0.06756126128215968,-6.6439676195851224e-18,0.09992663191429255,7.489996369575783e-18,0.09992663191429255,-1.9350202982228474e-18,0.120622783054325,9.59442877174918e-18,-0.12062278305432493,0.6942630942324575,0.18973010297142615,0.6942630942324575,100.0,45.0,[0.1895554]
1.096113573306268e-18,0.09412814820030938,5.80845233518001e-18,0.09412814820030938,-2.0468021774808134e-18,0.06198783983401954,5.80845233518001e-18,0.06198783983401954,-3.3208985488288913e-19,0.11270581427285577,-1.601452571621288e-17,-0.11270581427285573,0.142584961448748,0.9794585532513962,0.14258496144874822,100.0,45.0,[0.39020408]
1.0830904417422332e-18,0.13689259180649094,5.021739879734914e-18,0.13689259180649094,-1.2589027178567039e-18,0.04441302787816585,5.021739879734914e-18,0.04441302787816585,-2.3007532429794933e-19,0.14391698557434174,-3.240080336272621e-18,-0.14391698557434165,0.3212948199243441,0.8908082158240161,0.32129481992434406,100.0,45.0,[0.41997417]
6.967375386758654e-19,0.1556368433776373,4.489453291460103e-18,0.1556368433776373,-9.74564345375276e-19,0.03639740654411178,4.489453291460103e-18,0.03639740654411178,-4.384454293225072e-19,0.15983616055102354,-2.657310452209228e-18,-0.1598361605510235,0.37300519614102434,0.8495494378219505,0.3730051961410243,100.0,45.0,[0.41269264]
1.6278914455043585e-19,0.16587551570684114,4.0396126220190655e-18,0.16587551570684114,-8.551856393716231e-19,0.03208460811690677,4.0396126220190655e-18,0.03208460811690677,-7.477448039683353e-19,0.16895001861209116,-2.172651906204972e-18,-0.16895001861209116,0.39594818837255613,0.8285228205963802,0.39594818837255624,100.0,45.0,[0.42235957]
-4.167402100491158e-19,0.1720348004480199,3.642339280505773e-18,0.1720348004480199,-8.161162446795185e-19,0.029603963834937456,3.642339280505773e-18,0.029603963834937456,-1.1091367048703029e-18,0.17456336167687175,-2.2348563340183877e-18,-0.1745633616768717,0.4079631465757729,0.8167815754973843,0.40796314657577276,100.0,45.0,[0.44869412]
-1.0418505251227894e-18,0.175807762542586,3.2646854223513193e-18,0.175807762542586,-8.269688543162142e-19,0.028215816333034768,3.2646854223513193e-18,0.028215816333034768,-1.4987453908276794e-18,0.17805757962403582,-2.5851582183351436e-18,-0.17805757962403584,0.4144500518348838,0.8102236167059833,0.41445005183488387,100.0,45.0,[0.43606505]
-1.7060302348885679e-18,0.17793308997773843,2.905684487009936e-18,0.17793308997773843,-8.616972051536405e-19,0.0275971027920668,2.905684487009936e-18,0.0275971027920668,-1.915485600876795e-18,0.18006050258605266,-2.8959621794434103e-18,-0.18006050258605258,0.4174596455816973,0.8071275541211609,0.41745964558169735,100.0,45.0,[0.43606505]
-2.3788920323637025e-18,0.1787162988713184,2.5625215788571056e-18,0.1787162988713184,-9.268128629738148e-19,0.027621079266838038,2.5625215788571056e-18,0.027621079266838038,-2.355016291162972e-18,0.180838158313248,-3.151663996612477e-18,-0.180838158313248,0.4177636540147493,0.8068129019596116,0.41776365401474913,100.0,45.0,[0.44859339]
-3.0647769614028722e-18,0.17819533024559828,2.2327548607245717e-18,0.17819533024559828,-1.0092926962127022e-18,0.02828776890633924,2.2327548607245717e-18,0.02828776890633924,-2.8108258959041923e-18,0.18042664324050456,-3.4342279220461293e-18,-0.1804266432405045,0.41542523500654993,0.8092241643942089,0.4154252350065499,100.0,45.0,[0.43606505]
-3.802754416698181e-18,0.1761526732400907,1.9276778295155205e-18,0.1761526732400907,-1.1308419241436943e-18,0.02972396269615269,1.9276778295155205e-18,0.02972396269615269,-3.2905112418461436e-18,0.1786428790856004,-3.987534309658622e-18,-0.17864287908560036,0.4098364046007502,0.8149038243423946,0.4098364046007501,100.0,45.0,[0.43845087]
-4.545072915848169e-18,0.171983446790398,1.6444416752003196e-18,0.171983446790398,-1.2958015906214693e-18,0.032252773395718436,1.6444416752003196e-18,0.032252773395718436,-3.815777548262216e-18,0.17498156291912947,-4.422529709302702e-18,-0.17498156291912934,0.3992725606733164,0.8253259020452138,0.3992725606733165,100.0,45.0,[0.44869412]
-5.339483941254296e-18,0.16425079663958647,1.4065490805234377e-18,0.16425079663958647,-1.5389000464834535e-18,0.03661391640817101,1.4065490805234377e-18,0.03661391640817101,-4.397477424789107e-18,0.16828221258197001,-5.072908139471133e-18,-0.1682822125819699,0.3792346150941051,0.8440155291396316,0.37923461509410505,100.0,45.0,[0.43061346]
-6.2554441945914156e-18,0.14914689733229208,1.2627180884321047e-18,0.14914689733229208,-1.949128690750552e-18,0.044678143301881044,1.2627180884321047e-18,0.044678143301881044,-5.122431748520381e-18,0.15569500143791604,-6.047819702881292e-18,-0.155695001437916,0.3354916762439168,0.8802787458198079,0.33549167624391685,100.0,45.0,[0.42718195]
-7.470936473901336e-18,0.11318702794631802,1.3610698632646597e-18,0.11318702794631802,-2.869429987942349e-18,0.0623020017127188,1.3610698632646597e-18,0.0623020017127188,-6.2250568876086675e-18,0.12920078448961594,-5.518329733813523e-18,-0.12920078448961608,0.1969222804436182,0.9604390823627339,0.1969222804436182,100.0,45.0,[0.37930554]
-1.0166724707656553e-17,-0.029537267670153126,2.3565424393931322e-18,-0.029537267670153126,-7.58597413605031e-18,0.10029088639872279,2.3565424393931322e-18,0.10029088639872279,-9.205183493845312e-18,0.10455004579654566,-1.2453049434197425e-17,-0.10455004579654566,0.6208899913899678,0.47853028867933906,0.6208899913899676,100.0,45.0,[0.39172829]
-1.0053857567434918e-17,-0.022724295084123918,2.594511341481522e-18,-0.022724295084123918,-7.557757350994902e-18,0.09876331227492462,2.594511341481522e-18,0.09876331227492462,-9.328903243703644e-18,0.10134389689855335,-1.0067445381367933e-17,-0.10134389689855335,0.6678346534100555,0.32862402743765085,0.6678346534100555,100.0,57.8571428571429,[0.33870524]
-7.735740149036711e-18,0.12157113092523751,2.210642668589804e-18,0.12157113092523751,-2.7956322424128183e-18,0.0604781422934142,2.210642668589804e-18,0.0604781422934142,-5.9819584317466826e-18,0.1357834510155922,-7.580466499684879e-18,-0.13578345101559197,0.0701539304333226,0.9950662551255133,0.07015393043332259,100.0,57.8571428571429,[0.42453068]
-6.8545082465370195e-18,0.15637909061475316,2.7226823570111542e-18,0.15637909061475316,-1.8384320724562555e-18,0.04317879324159376,2.7226823570111542e-18,0.04317879324159376,-4.547243437775508e-18,0.16223078674313793,-6.377140756594212e-18,-0.16223078674313776,0.20327930415188447,0.957786536242315,0.2032793041518845,100.0,57.8571428571429,[0.43178128]
-6.2684673261554504e-18,0.1714709133018637,3.471436114531651e-18,0.1714709133018637,-1.3891340334970526e-18,0.0351788875788054,3.471436114531651e-18,0.0351788875788054,-3.52709813192611e-18,0.1750423612725145,-4.8045866635076916e-18,-0.17504236127251452,0.24819990075454776,0.9363725853157308,0.24819990075454768,100.0,57.8571428571429,[0.45794033]
-5.773588326722125e-18,0.1797197419763237,4.307307500190467e-18,0.1797197419763237,-1.0896020075242506e-18,0.030761622565305093,4.307307500190467e-18,0.030761622565305093,-2.6458662294264173e-18,0.18233338443325908,-4.2190563024059015e-18,-0.1823333844332592,0.2697995181944467,0.9243464934558302,0.2697995181944467,100.0,57.8571428571429,[0.63591611]
-5.326460809690261e-18,0.18470951918418155,5.183986393803515e-18,0.18470951918418155,-8.85572946354371e-19,0.028107378157475958,5.183986393803515e-18,0.028107378157475958,-1.8492846820929512e-18,0.18683584020240568,-3.529023293808181e-18,-0.18683584020240587,0.2818505901280031,0.9171262125187531,0.2818505901280032,100.0,57.8571428571429,[0.85963095]
-4.8836743365130754e-18,0.18779972073144469,6.085910322723798e-18,0.18779972073144469,-7.227838018039352e-19,0.02649409849115301,6.085910322723798e-18,0.02649409849115301,-1.0852609636695723e-18,0.18965935875054385,-3.0051467338754483e-18,-0.1896593587505439,0.28887710430246577,0.912743138686698,0.2888771043024657,100.0,57.8571428571429,[0.85963095]
-4.4799572580279945e-18,0.1895822603928029,7.006031449638424e-18,0.1895822603928029,-5.86040920381569e-19,0.02560161701098354,7.006031449638424e-18,0.02560161701098354,-3.6681820572031544e-19,0.1913031004694425,-2.3425809145516154e-18,-0.19130310046944238,0.29269360675135925,0.9103081374643212,0.29269360675135936,100.0,57.8571428571429,[0.85963095]
-4.08492226725227e-18,0.19030332787458304,7.937363407093769e-18,0.19030332787458304,-4.8402638979662925e-19,0.02529657856035995,7.937363407093769e-18,0.02529657856035995,3.3208985488288913e-19,0.19197727336068077,-1.7939560386494852e-18,-0.1919772733606808,0.2940300981666862,0.9094463165817858,0.2940300981666863,100.0,57.8571428571429,[0.85963095]
-3.694228320331224e-18,0.1899971404434655,8.885230756692837e-18,0.1899971404434655,-3.906939469210461e-19,0.02556247015968501,8.885230756692837e-18,0.02556247015968501,1.004951652358024e-18,0.19170903280064483,-1.4573337741568696e-18,-0.19170903280064483,0.29301025171887995,0.9101043812526544,0.29301025171888,100.0,57.8571428571429,[0.85963095]
-3.3295806365382482e-18,0.18849686572268004,9.851513628269174e-18,0.18849686572268004,-3.4294246451958485e-19,0.02649436244186502,9.851513628269174e-18,0.02649436244186502,1.6452556209230718e-18,0.1903497297830364,-1.2235747709335119e-18,-0.19034972978303627,0.2892063822042162,0.912534567556045,0.28920638220421613,100.0,57.8571428571429,[0.85963095]
-2.973615040454628e-18,0.18533121402745578,1.083760039278216e-17,0.18533121402745578,-3.407719425922457e-19,0.02835427022153403,1.083760039278216e-17,0.02835427022153403,2.2421491509413364e-18,0.1874876623479166,-1.117920205193508e-18,-0.18748766234791664,0.28132973987813503,0.9174459956423602,0.2813297398781351,100.0,57.8571428571429,[0.85963095]
-2.6784240583365045e-18,0.1793716188241933,1.1864441673991387e-17,0.1793716188241933,-4.1456968812177667e-19,0.03175300194357379,1.1864441673991387e-17,0.03175300194357379,2.745710238084018e-18,0.18216045337020959,-1.7253546050428985e-18,-0.18216045337020959,0.2660782303916566,0.9265013494989034,0.2660782303916566,100.0,57.8571428571429,[0.63557145]
-2.4223024709104854e-18,0.1675913493409484,1.2958121888730678e-17,0.1675913493409484,-6.511565782017434e-19,0.03824183341035905,1.2958121888730678e-17,0.03824183341035905,3.0799706148942462e-18,0.17189909306481366,-2.6425079675507647e-18,-0.17189909306481363,0.23357965423540325,0.9438649745882822,0.23357965423540347,100.0,57.8571428571429,[0.45873588]
-2.3832330762183808e-18,0.13894626483980976,1.4262720028178765e-17,0.13894626483980976,-1.4021571650610874e-18,0.05265691919558304,1.4262720028178765e-17,0.05265691919558304,2.928034079980506e-18,0.1485894197179083,-7.36724549290792e-18,-0.14858941971790843,0.13961348059192197,0.9803143128986835,0.1396134805919222,100.0,57.8571428571429,[0.42741646]
-3.4684940398879535e-18,0.0117707953409497,1.6291081247878474e-17,0.0117707953409497,-5.947230080909256e-18,0.08278194298169304,1.6291081247878474e-17,0.08278194298169304,5.274368283434121e-19,0.08361460223419592,-6.484244764439141e-18,-0.08361460223419594,0.5398023260211634,0.6459310316467874,0.5398023260211635,100.0,57.8571428571429,[0.36089359]
-2.4092793393464505e-18,0.01724921302295056,1.5548966235159175e-17,0.01724921302295056,-5.971105822109987e-18,0.07846534061748144,1.5548966235159175e-17,0.07846534061748144,1.0700673101781983e-18,0.08033893843043056,-5.6209916708668344e-18,-0.08033893843043054,0.6017182669236761,0.525233523778457,0.6017182669236761,100.0,70.71428571428567,[0.3974795]
3.1255515753683683e-19,0.14571809705302524,1.2425983675978244e-17,0.14571809705302524,-1.4651023009539226e-18,0.0474256069668959,1.2425983675978244e-17,0.0474256069668959,5.04863400299085e-18,0.15324148265053236,-2.9740111396040705e-18,-0.15324148265053217,0.015519821874468941,0.9997591061140525,0.015519821874468973,100.0,70.71428571428567,[0.49980261]
1.9100592960584473e-18,0.1734725264505348,1.0006284135660309e-17,0.1734725264505348,-7.488300649320049e-19,0.03383610113643453,1.0006284135660309e-17,0.03383610113643453,6.745982150170062e-18,0.17674161698153196,2.9621117696048135e-18,-0.17674161698153193,0.10144817660056066,0.9896547554217293,0.10144817660056074,100.0,70.71428571428567,[0.48169132]
3.3469448119569614e-18,0.18527625413588014,7.770171748829384e-18,0.18527625413588014,-5.534830914714819e-19,0.027443475316727976,7.770171748829384e-18,0.027443475316727976,7.933257644424574e-18,0.1872977167081412,5.514884460778047e-18,-0.18729771670814124,0.13322850200405686,0.982089778231863,0.1332285020040569,100.0,70.71428571428567,[1.00391854]
4.731737801599335e-18,0.19168309735970623,5.606220737481208e-18,0.19168309735970623,-5.209252625613947e-19,0.023802763222595384,5.606220737481208e-18,0.023802763222595384,8.93386825292792e-18,0.19315532959367582,7.446160028402959e-18,-0.19315532959367593,0.14951475528964667,0.9773897256986868,0.14951475528964664,100.0,70.71428571428567,[0.96399212]
6.060097221130892e-18,0.19554030650269513,3.471902437601978e-18,0.19554030650269513,-5.621651791808385e-19,0.02150578480352073,3.471902437601978e-18,0.02150578480352073,9.860681115901734e-18,0.19671936927304162,9.05043767522762e-18,-0.19671936927304165,0.15917831722896567,0.9743328623464927,0.15917831722896575,100.0,70.71428571428567,[0.96399212]
7.388456640662448e-18,0.19791443749794815,1.3564405469665067e-18,0.19791443749794815,-6.576681439837608e-19,0.019991096071584478,1.3564405469665067e-18,0.019991096071584478,1.0718037277200696e-17,0.1989215133973009,1.0397464106503022e-17,-0.19892151339730085,0.1652856010788413,0.9722969403181376,0.16528560107884127,100.0,70.71428571428567,[0.96288182]
8.716816060194005e-18,0.1992664162057807,-7.494066098189544e-19,0.1992664162057807,-7.8572893769677045e-19,0.0190048430213768,-7.494066098189544e-19,0.0190048430213768,1.1542835609589571e-17,0.20017064891177866,1.1656242906350292e-17,-0.20017064891177871,0.16911998784778068,0.9709772702904701,0.1691199878477807,100.0,70.71428571428567,[0.97238544]
1.0032152348161526e-17,0.19978610513213205,-2.8452829315007012e-18,0.19978610513213205,-9.268128629738148e-19,0.018433480014827967,-2.8452829315007012e-18,0.018433480014827967,1.233073506921368e-17,0.20063469537775458,1.2811473228699293e-17,-0.20063469537775463,0.17123444093618748,0.9702358128179679,0.17123444093618748,100.0,70.71428571428567,[0.97238544]
1.1321442373000978e-17,0.19949718263771404,-4.929068767759067e-18,0.19949718263771404,-1.096113573306268e-18,0.01824724104338674,-4.929068767759067e-18,0.01824724104338674,1.30969293095644e-17,0.20032994705255855,1.3978039790835195e-17,-0.20032994705255852,0.1717785857269015,0.9700434191165522,0.1717785857269014,100.0,70.71428571428567,[0.97552143]
1.2628096573259145e-17,0.1982647024943466,-7.002307224026769e-18,0.1982647024943466,-1.306654200258165e-18,0.01849066300597666,-7.002307224026769e-18,0.01849066300597666,1.3813201545586318e-17,0.1991250784646986,1.5076570092951774e-17,-0.1991250784646985,0.1705565790675891,0.9704745780665884,0.17055657906758903,100.0,70.71428571428567,[0.97238544]
1.3900022422679882e-17,0.19571121534705213,-9.056265340986778e-18,0.19571121534705213,-1.5540936999748277e-18,0.01931278767698737,-9.056265340986778e-18,0.01931278767698737,1.4477381255352095e-17,0.19666180000314398,1.6235553974635833e-17,-0.19666180000314393,0.1668704172455469,0.9717553847016203,0.1668704172455468,100.0,70.71428571428567,[0.97238544]
1.5165436706318603e-17,0.1909299686341824,-1.1100998739755596e-17,0.1909299686341824,-1.8861835548577167e-18,0.02107456177982388,-1.1100998739755596e-17,0.02107456177982388,1.504388747838761e-17,0.1920895366147295,1.7474165252491677e-17,-0.19208953661472944,0.15890796638556753,0.9744211186332155,0.15890796638556745,100.0,70.71428571428567,[0.96399212]
1.6378758463701185e-17,0.18145934429309563,-1.3092808709342967e-17,0.18145934429309563,-2.3832330762183808e-18,0.02470056211108841,-1.3092808709342967e-17,0.02470056211108841,1.5412876206035266e-17,0.18313276986897775,1.889527587636048e-17,-0.1831327698689777,0.14138745213803575,0.9798056831616305,0.14138745213803566,100.0,70.71428571428567,[0.9846134]
1.7468360471225436e-17,0.15801134171863127,-1.495901667958814e-17,0.15801134171863127,-3.386014206649066e-18,0.0330487178418214,-1.495901667958814e-17,0.0330487178418214,1.5217529232574743e-17,0.1614304861626526,2.135542624691956e-17,-0.1614304861626526,0.09195778762748219,0.9915077057639632,0.09195778762748204,100.0,70.71428571428567,[0.46626514]
1.7702776839378064e-17,0.041432012739031264,-1.6415419935630148e-17,0.041432012739031264,-8.191549753777932e-18,0.049339372332848956,-1.6415419935630148e-17,0.049339372332848956,1.2508717867255492e-17,0.06442814091533874,2.7534584070036868e-17,-0.06442814091533879,0.36093322048761584,0.8599153567048773,0.36093322048761556,100.0,70.71428571428567,[0.28329227]
1.8206337926520745e-17,0.04449665968450562,-1.728010160843388e-17,0.04449665968450562,-8.24581280196141e-18,0.043084829486714604,-1.728010160843388e-17,0.043084829486714604,1.2239573148265437e-17,0.061937510887813206,3.480089169914682e-17,-0.06193751088781325,0.43190589407308516,0.7917793867800915,0.4319058940730851,100.0,83.57142857142856,[0.31681155]
1.874896840835553e-17,0.16184826943668673,-1.6988946440524402e-17,0.16184826943668673,-3.5639970046908755e-18,0.02543445620159642,-1.6988946440524402e-17,0.02543445620159642,1.46662166630306e-17,0.16383459305629341,2.0063341161614122e-17,-0.1638345930562934,0.030873381135060832,0.999046379641395,0.03087338113506097,100.0,83.57142857142856,[0.48898645]
1.8434242728891355e-17,0.1848556976145403,-1.630869130273427e-17,0.1848556976145403,-2.6784240583365045e-18,0.018241724672812883,-1.630869130273427e-17,0.018241724672812883,1.4566372654373e-17,0.18575357186228508,1.7801335035733545e-17,-0.18575357186228503,0.009784139945509356,0.9999042660230298,0.009784139945509217,100.0,83.57142857142856,[1.06234867]
1.8010990953060222e-17,0.19439278436122556,-1.5538834306631166e-17,0.19439278436122556,-2.298582721052154e-18,0.014717171951010301,-1.5538834306631166e-17,0.014717171951010301,1.3900022422679882e-17,0.19494909530937948,1.625961105763847e-17,-0.19494909530937954,0.02589938971042655,0.9993289964897721,0.025899389710426424,100.0,83.57142857142856,[1.068229]
1.7544328738682306e-17,0.19947552536972302,-1.4733028041106508e-17,0.19947552536972302,-2.085871572172918e-18,0.012568096808486307,-1.4733028041106508e-17,0.012568096808486307,1.3014449476325513e-17,0.19987106413614378,1.4886721326673735e-17,-0.19987106413614378,0.03483014422121511,0.9987861243064299,0.034830144221214984,100.0,83.57142857142856,[1.04288249]
1.7064643392740355e-17,0.20246594123966424,-1.3913452527105293e-17,0.20246594123966424,-1.95346973460523e-18,0.011076712644952419,-1.3913452527105293e-17,0.011076712644952419,1.2033373565168218e-17,0.20276871288510476,1.3564107900716861e-17,-0.20276871288510473,0.04066815123261557,0.9983447315184482,0.04066815123261547,100.0,83.57142857142856,[1.04288249]
1.6574105437161708e-17,0.20423635311499105,-1.3091028203074447e-17,0.20423635311499105,-1.8666488575116644e-18,0.009953431835149,-1.3091028203074447e-17,0.009953431835149,1.1004546171609463e-17,0.204478748868943,1.2292279961907025e-17,-0.20447874886894296,0.04487350858028015,0.9979843367785847,0.04487350858028007,100.0,83.57142857142856,[1.02979954]
1.6083567481583062e-17,0.2051584329157585,-1.2252206264170653e-17,0.2051584329157585,-1.814556331255525e-18,0.009061031783037292,-1.2252206264170653e-17,0.009061031783037292,9.919285207939891e-18,0.20535843029547873,1.1014274026384507e-17,-0.20535843029547873,0.048090234737302846,0.9976846488975473,0.04809023473730275,100.0,83.57142857142856,[1.08519197]
1.558217691636772e-17,0.2053798792315074,-1.1417352310665277e-17,0.2053798792315074,-1.784169024272777e-18,0.008328299682689975,-1.1417352310665277e-17,0.008328299682689975,8.80580745921491e-18,0.2055486690999319,9.740411012341456e-18,-0.20554866909993186,0.05063583852346653,0.9974327163844441,0.05063583852346644,100.0,83.57142857142856,[1.08519197]
1.5078615829225038e-17,0.20490911460756908,-1.0579073002243319e-17,0.20490911460756908,-1.7819985023454377e-18,0.007718136617982693,-1.0579073002243319e-17,0.007718136617982693,7.653260315797824e-18,0.20505441931865726,8.457695275404944e-18,-0.20505441931865726,0.05266697490915119,0.997222332034255,0.05266697490915111,100.0,83.57142857142856,[1.08519197]
1.4566372654373e-17,0.20361798389060726,-9.734078641608655e-18,0.20361798389060726,-1.799362677764151e-18,0.007215731882361872,-9.734078641608655e-18,0.007215731882361872,6.4638142996159734e-18,0.20374579787144995,7.16372524788158e-18,-0.2037457978714499,0.05423619138683096,0.9970540963697518,0.054236191386830876,100.0,83.57142857142856,[1.02979954]
1.403025373832023e-17,0.2011645529591948,-8.883437532522399e-18,0.2011645529591948,-1.87750146714836e-18,0.0068276068114874675,-8.883437532522399e-18,0.0068276068114874675,5.204911581759269e-18,0.20128038548762017,5.817891636843485e-18,-0.20128038548762014,0.055290415326504826,0.9969382829172754,0.05529041532650474,100.0,83.57142857142856,[1.04288249]
1.350498743190416e-17,0.19673348254982936,-8.038561872305637e-18,0.19673348254982936,-2.027267480134761e-18,0.006593247150247084,-8.038561872305637e-18,0.006593247150247084,3.85701746488166e-18,0.19684393326736851,4.404572885999459e-18,-0.19684393326736846,0.05559094289246936,0.9969048571135828,0.055590942892469304,100.0,83.57142857142856,[1.04288249]
1.2931969643086625e-17,0.18810034058119154,-7.178475601394943e-18,0.18810034058119154,-2.341993159598937e-18,0.006627066879304093,-7.178475601394943e-18,0.006627066879304093,2.281218545633441e-18,0.1882170453019147,2.7990902884014536e-18,-0.18821704530191466,0.05438127529795967,0.9970382910369766,0.0543812752979596,100.0,83.57142857142856,[1.04288249]
1.2276472021030202e-17,0.16670088801181204,-6.3008216686348496e-18,0.16670088801181204,-3.1667914919878124e-18,0.007241506710209856,-6.3008216686348496e-18,0.007241506710209856,1.2371974985833124e-19,0.16685809984343197,6.925325345701636e-19,-0.16685809984343192,0.04860134231307406,0.997635113180533,0.04860134231307401,100.0,83.57142857142856,[0.48898645]
1.0846098070913706e-17,0.053663538237415175,-5.4144347765577256e-18,0.053663538237415175,-7.794344241074868e-18,0.006450732519642625,-5.4144347765577256e-18,0.006450732519642625,-4.6449169245057695e-18,0.054049859261597465,-3.151512446595904e-18,-0.05404985926159746,0.005256044004195148,0.9999723736198176,0.0052560440041953,100.0,83.57142857142856,[0.31698156]
