stress_11,stress_12,stress_13,stress_21,stress_22,stress_23,stress_31,stress_32,stress_33,e1,e2,e3,anev1,anev2,anev3,temp,miss,velo
1.803703721618829e-18,0.04310313542641192,-3.1667067059750257e-18,0.04310313542641192,-4.501662477301386e-18,-0.04376985021324114,-3.1667067059750257e-18,-0.04376985021324114,-9.231229756973382e-18,0.061430286270512974,-8.271312154665305e-18,-0.061430286270512946,0.3116822941025691,0.8976125528789797,0.3116822941025694,1000.0,109.28571428571416,[0.16845377]
1.2697553274933996e-18,0.15977777185592157,-9.938616418855255e-19,0.15977777185592157,1.9534697346052304e-19,-0.02750528404773259,-9.938616418855255e-19,-0.02750528404773259,-7.366751421389057e-18,0.16212796498380344,-7.626157212267834e-18,-0.16212796498380339,0.11692714773212504,0.9862332808450845,0.11692714773212506,1000.0,109.28571428571416,[0.2950379]
-1.1937870600365295e-19,0.18331800545490043,7.653887732292445e-19,0.18331800545490043,1.096113573306268e-18,-0.019193104714060796,7.653887732292445e-19,-0.019193104714060796,-8.021163782481809e-18,0.1843200108304246,-7.796351545085038e-18,-0.1843200108304246,0.1627743728197779,0.9731438779061684,0.1627743728197779,1000.0,109.28571428571416,[0.56755688]
-1.677813449833159e-18,0.1928793316964045,2.4022505788864343e-18,0.1928793316964045,1.4889780421546532e-18,-0.015608339216046473,2.4022505788864343e-18,-0.015608339216046473,-9.232315017937052e-18,0.1935098365684153,-8.762347536136739e-18,-0.1935098365684153,0.17894758328493343,0.9674479442703693,0.1789475832849334,1000.0,109.28571428571416,[0.58602793]
-3.251441847154039e-18,0.1977501056632162,3.987079208496435e-18,0.1977501056632162,1.7190533664526027e-18,-0.013891837888508306,3.987079208496435e-18,-0.013891837888508306,-1.0648580575525844e-17,0.19823745218735478,-1.0043955576099634e-17,-0.19823745218735478,0.18619735255520367,0.9647077753407332,0.18619735255520367,1000.0,109.28571428571416,[0.57048553]
-4.844604941820971e-18,0.20039202738925752,5.5547641063209685e-18,0.20039202738925752,1.8579667698023078e-18,-0.013118582995255796,5.5547641063209685e-18,-0.013118582995255796,-1.2151667010208201e-17,0.200820969674435,-1.1403254928820539e-17,-0.200820969674435,0.1894442630475739,0.9634426513273758,0.1894442630475739,1000.0,109.28571428571416,[0.56796306]
-6.457302733833956e-18,0.20171186222609438,7.105296793758755e-18,0.20171186222609438,1.964322344241926e-18,-0.012927386055864822,7.105296793758755e-18,-0.012927386055864822,-1.3720954363674404e-17,0.2021256853370107,-1.2787569949221104e-17,-0.20212568533701072,0.19037772472698208,0.9630745785532681,0.19037772472698203,1000.0,109.28571428571416,[0.56299996]
-8.083023657410975e-18,0.2020870503894143,8.653794616889662e-18,0.2020870503894143,2.0294380020621002e-18,-0.013169028657859596,8.653794616889662e-18,-0.013169028657859596,-1.532497006797803e-17,0.20251567655587852,-1.4173138719755843e-17,-0.20251567655587852,0.18964740169098132,0.9633627178086763,0.18964740169098127,1000.0,109.28571428571416,[0.56796306]
-9.706574059060655e-18,0.20165252202015968,1.0190485987740022e-17,0.20165252202015968,2.070677918681544e-18,-0.013798821094675378,1.0190485987740022e-17,-0.013798821094675378,-1.6960458340228076e-17,0.20212408837319173,-1.5519634945003553e-17,-0.2021240883731917,0.18743313208085097,0.964229040216444,0.1874331320808509,1000.0,109.28571428571416,[0.57048553]
-1.134097707034703e-17,0.20038458194525602,1.1714357713457036e-17,0.20038458194525602,2.0967241818096137e-18,-0.014846385264374486,1.1714357713457036e-17,-0.014846385264374486,-1.8636101268133896e-17,0.2009338095911021,-1.687330374929982e-17,-0.20093380959110216,0.18359011442515794,0.965706653063297,0.1835901144251579,1000.0,109.28571428571416,[0.57376054]
-1.2992744257052121e-17,0.19809335396695318,1.3222022592829876e-17,0.19809335396695318,2.083701050245579e-18,-0.016425125597423162,1.3222022592829876e-17,-0.016425125597423162,-2.0343216763986133e-17,0.1987731411352342,-1.8146583286242702e-17,-0.19877314113523423,0.17759275126787566,0.9679471211766753,0.1775927512678756,1000.0,109.28571428571416,[0.58602793]
-1.4653193531466565e-17,0.1943179061399277,1.4713171156911867e-17,0.1943179061399277,2.0229264362800828e-18,-0.01878875652409743,1.4713171156911867e-17,-0.01878875652409743,-2.2108936351876527e-17,0.19522414302111202,-1.9245299288007942e-17,-0.1952241430211121,0.16822402846612575,0.9712885011639211,0.1682240284661257,1000.0,109.28571428571416,[0.5725224]
-1.633968906900908e-17,0.18799169352011522,1.6174981640919346e-17,0.18799169352011522,1.890524598712395e-18,-0.022498587117880095,1.6174981640919346e-17,-0.022498587117880095,-2.395713577300581e-17,0.189333206952351,-2.0056319049439837e-17,-0.189333206952351,0.1525771090020637,0.9764427538863427,0.15257710900206364,1000.0,109.28571428571416,[0.56727612]
-1.8084788698589753e-17,0.17626752277041638,1.7566251222113463e-17,0.17626752277041638,1.588822050812254e-18,-0.028962680554361696,1.7566251222113463e-17,-0.028962680554361696,-2.5986573775067912e-17,0.17863111836551118,-2.001960950358414e-17,-0.17863111836551118,0.12223802137366858,0.984944532581049,0.12223802137366846,1000.0,109.28571428571416,[0.30315709]
-2.0003530082357557e-17,0.14859180394212876,1.8774212383837607e-17,0.14859180394212876,7.813878938420922e-19,-0.04262596403658659,1.8774212383837607e-17,-0.04262596403658659,-2.8531510734873056e-17,0.15458491843910385,-1.8274524260644278e-17,-0.15458491843910394,0.04044910326951653,0.9983625293896922,0.040449103269516395,1000.0,109.28571428571416,[0.29447698]
-2.3033578692923003e-17,0.020201743787370444,1.92751610019613e-17,0.020201743787370444,-3.83205646271726e-18,-0.07374209502988309,1.92751610019613e-17,-0.07374209502988309,-3.3352239935493296e-17,0.07645918539617633,-1.0014392627813659e-17,-0.07645918539617637,0.5820026281865314,0.5679312296114207,0.5820026281865313,1000.0,109.28571428571416,[0.23907006]
3.583531702036928e-18,0.04608622770965953,-4.132266776792355e-18,0.04608622770965953,-4.603677007886326e-18,-0.03743423857880637,-4.132266776792355e-18,-0.03743423857880637,-7.781321109510833e-18,0.0593739219058467,-7.189048392914188e-18,-0.05937392190584669,0.3815628144012721,0.841914269585901,0.38156281440127227,1000.0,96.42857142857144,[0.1534558]
6.337924027830303e-18,0.16333680844470327,-4.450638254806359e-18,0.16333680844470327,-1.3023131564034868e-19,-0.019742414550620913,-4.450638254806359e-18,-0.019742414550620913,-2.7413691942293397e-18,0.16452560872153082,-3.6387974644429104e-18,-0.1645256087215308,0.005717683198733181,0.9999673075644413,0.0057176831987331535,1000.0,96.42857142857144,[0.2919686]
8.213254973051323e-18,0.18624459895041043,-5.15688878411689e-18,0.18624459895041043,5.578241353261602e-19,-0.012505284834248929,-5.15688878411689e-18,-0.012505284834248929,-2.3224584622528847e-19,0.18666395685023107,-8.81545160147176e-19,-0.1866639568502311,0.03191923084442796,0.9989806431581146,0.031919230844428,1000.0,96.42857142857144,[0.57275026]
9.993082953469422e-18,0.19568182480721696,-5.949281902418694e-18,0.19568182480721696,7.401479772226483e-19,-0.008938284176975432,-5.949281902418694e-18,-0.008938284176975432,1.7016891910338896e-18,0.19588585830506178,1.1736733028124314e-18,-0.19588585830506172,0.04702592664119829,0.9977861115725521,0.047025926641198326,1000.0,96.42857142857144,[0.57105441]
1.1738182583050094e-17,0.2006641278844452,-6.7785908506878214e-18,0.2006641278844452,7.401479772226483e-19,-0.006750002394049365,-6.7785908506878214e-18,-0.006750002394049365,3.431595167123188e-18,0.2007776251277634,2.9844233321217336e-18,-0.20077762512776337,0.05550312989165294,0.9969146428578832,0.055503129891652986,1000.0,96.42857142857144,[0.57105441]
1.3463747515284716e-17,0.2035534668093245,-7.623110409650879e-18,0.2035534668093245,6.706912755477957e-19,-0.00522310569354983,-7.623110409650879e-18,-0.00522310569354983,5.052975046845529e-18,0.203620467250178,4.6678758212914634e-18,-0.20362046725017796,0.06112071336232897,0.9962572543254881,0.06112071336232902,1000.0,96.42857142857144,[0.56294387]
1.5180630359809977e-17,0.20522217859737088,-8.476566414361653e-18,0.20522217859737088,5.534830914714819e-19,-0.004068232139627005,-8.476566414361653e-18,-0.004068232139627005,6.62443292223907e-18,0.20526249803847038,6.2915516186579185e-18,-0.20526249803847038,0.06522879653591208,0.995736113739455,0.06522879653591214,1000.0,96.42857142857144,[0.60309206]
1.6891001638553223e-17,0.2060419792555708,-9.33555046710612e-18,0.2060419792555708,4.058876004124201e-19,-0.003148299066099706,-9.33555046710612e-18,-0.003148299066099706,8.14596879330381e-18,0.20606603068570686,7.862785800557807e-18,-0.20606603068570686,0.06842627455514183,0.9953068320377435,0.0684262745551419,1000.0,96.42857142857144,[0.60496502]
1.8584008741877756e-17,0.20616062417847406,-1.0194093632584095e-17,0.20616062417847406,2.4092793393464505e-19,-0.002392191676554248,-1.0194093632584095e-17,-0.002392191676554248,9.645799445095159e-18,0.20617450264927384,9.410474975189094e-18,-0.20617450264927378,0.0710127136293914,0.9949444150333123,0.07101271362939146,1000.0,96.42857142857144,[0.60496502]
2.0287868454838985e-17,0.20558659949170405,-1.106442205383942e-17,0.20558659949170405,4.123991661944375e-20,-0.0017628836886737546,-1.106442205383942e-17,-0.0017628836886737546,1.1095708092557707e-17,0.20559415762482672,1.090664490370105e-17,-0.20559415762482675,0.07314290943924485,0.994635727086819,0.07314290943924492,1000.0,96.42857142857144,[0.60121372]
2.1978705036236178e-17,0.2041918177434653,-1.1935564420817498e-17,0.2041918177434653,-1.9100592960584473e-19,-0.0012456188210383638,-1.1935564420817498e-17,-0.0012456188210383638,1.2508717867255492e-17,0.2041956169941654,1.2363451616505065e-17,-0.20419561699416539,0.07488304939394975,0.9943767182647263,0.07488304939394981,1000.0,96.42857142857144,[0.55900641]
2.3667371095706033e-17,0.20163441528826168,-1.2804095378601746e-17,0.20163441528826168,-4.623211705232378e-19,-0.000846958067133023,-1.2804095378601746e-17,-0.000846958067133023,1.3863123549915118e-17,0.20163619408877634,1.3755733626434943e-17,-0.20163619408877634,0.07621866730238194,0.9941737421141729,0.07621866730238204,1000.0,96.42857142857144,[0.56711695]
2.532999089204782e-17,0.19709912534936105,-1.3681664525349054e-17,0.19709912534936105,-8.182867666068576e-19,-0.000606413856498294,-1.3681664525349054e-17,-0.000606413856498294,1.5115514701989803e-17,0.19710005822233667,1.503142307524786e-17,-0.1971000582223366,0.07700860346918019,0.9940519855538006,0.07700860346918029,1000.0,96.42857142857144,[0.56711695]
2.6962223381406858e-17,0.18836158985868437,-1.4555045243064698e-17,0.18836158985868437,-1.3305299414588957e-18,-0.0006384148862482881,-1.4555045243064698e-17,-0.0006384148862482881,1.6153024183257914e-17,0.18836267174697388,1.605448888814579e-17,-0.18836267174697383,0.07678886799675079,0.994085981947012,0.07678886799675089,1000.0,96.42857142857144,[0.56711695]
2.852065812523636e-17,0.16685764497687355,-1.5459372855447484e-17,0.16685764497687355,-2.3615278569449893e-18,-0.0012554052197338678,-1.5459372855447484e-17,-0.0012554052197338678,1.659364013450776e-17,0.16686236762522016,1.6361697241481066e-17,-0.16686236762522008,0.07388206401271857,0.9945264608015421,0.07388206401271867,1000.0,96.42857142857144,[0.28243009]
2.92825113217324e-17,0.05371578022993621,-1.6374620906277195e-17,0.05371578022993621,-7.190939145274586e-18,-0.00047154311094678924,-1.6374620906277195e-17,-0.00047154311094678924,1.4433970816805312e-17,0.05371784990686324,1.414764688681973e-17,-0.05371784990686322,0.07299973249259276,0.994656763970376,0.07299973249259313,1000.0,96.42857142857144,[0.16346313]
-2.351977560464697e-17,0.014788545160432312,1.9041984629245676e-17,0.014788545160432312,-3.837482767535608e-18,-0.07812051045406854,1.9041984629245676e-17,-0.07812051045406854,-3.3226349663707626e-17,0.07950795697014465,-1.888528340890147e-17,-0.07950795697014473,0.518302278584408,0.6802392932111622,0.5183022785844079,1000.0,122.14285714285735,[0.21581295]
-2.0993288081224207e-17,0.14203452379807638,1.84721632731102e-17,0.14203452379807638,7.79217371914753e-19,-0.04805186029045781,1.84721632731102e-17,-0.04805186029045781,-2.862484317774864e-17,0.1499426131155516,-1.6751680832284515e-17,-0.14994261311555168,0.1644900044425551,0.9725667467464515,0.16449000444255513,1000.0,122.14285714285735,[0.27631613]
-1.9604154047727154e-17,0.17074793039816827,1.7164224564758317e-17,0.17074793039816827,1.5899073117759236e-18,-0.03369450567567344,1.7164224564758317e-17,-0.03369450567567344,-2.6280679496222366e-17,0.17404072927905617,-1.982608153316468e-17,-0.17404072927905617,0.25317202407638073,0.9337065130168777,0.2531720240763805,1000.0,122.14285714285735,[0.2932502]
-1.8403855421908607e-17,0.18259520537872842,1.566087529343632e-17,0.18259520537872842,1.8948656425670733e-18,-0.02726507694470132,1.566087529343632e-17,-0.02726507694470132,-2.4422712726420055e-17,0.1846195911817065,-1.9771249878184076e-17,-0.1846195911817066,0.2836572519735763,0.9160115320265341,0.28365725197357616,1000.0,122.14285714285735,[0.5431259]
-1.7264331410055556e-17,0.18862070607686857,1.4072260968355394e-17,0.18862070607686857,2.025096958207422e-18,-0.023927416079914235,1.4072260968355394e-17,-0.023927416079914235,-2.273838771080488e-17,0.19013230130937175,-1.9040345140852637e-17,-0.19013230130937184,0.297865428267753,0.9069467312283208,0.2978654282677529,1000.0,122.14285714285735,[0.54303135]
-1.6174729402531306e-17,0.19185123009464455,1.2451707752257725e-17,0.19185123009464455,2.0945536598822746e-18,-0.022130169714049366,1.2451707752257725e-17,-0.022130169714049366,-2.1130030962646573e-17,0.19312337740522464,-1.821248043382962e-17,-0.19312337740522478,0.3051170181954404,0.9021126373214414,0.3051170181954403,1000.0,122.14285714285735,[0.54544216]
-1.5104662092353107e-17,0.1934153722033555,1.080970791422566e-17,0.1934153722033555,2.1054062695189703e-18,-0.021262431901345788,1.080970791422566e-17,-0.021262431901345788,-1.9574852001708076e-17,0.19458056741340318,-1.7184415004882195e-17,-0.19458056741340304,0.3085261873567291,0.8997906331087477,0.308526187356729,1000.0,122.14285714285735,[0.54416593]
-1.4036765304102248e-17,0.19378443738357232,9.147300082915842e-18,0.19378443738357232,2.08044526735457e-18,-0.02106208345693689,9.147300082915842e-18,-0.02106208345693689,-1.8053316130643335e-17,0.19492567694281487,-1.601630024472758e-17,-0.19492567694281482,0.3093076225701816,0.8992539069917707,0.3093076225701816,1000.0,122.14285714285735,[0.54416593]
-1.2990573735124782e-17,0.19312526836583976,7.476820623188732e-18,0.19312526836583976,2.0381200897714568e-18,-0.021433947148042354,7.476820623188732e-18,-0.021433947148042354,-1.6557826522706665e-17,0.19431104799193133,-1.4938048574329476e-17,-0.19431104799193147,0.30786397774585544,0.9002441571112798,0.3078639777458555,1000.0,122.14285714285735,[0.54416593]
-1.1957405297711348e-17,0.19140365656465444,5.785789033962129e-18,0.19140365656465444,1.9708339100239433e-18,-0.022394429602881082,5.785789033962129e-18,-0.022394429602881082,-1.5088383177898064e-17,0.19270928940650106,-1.3771803864502135e-17,-0.19270928940650112,0.3040778763965498,0.9028140950230723,0.3040778763965499,1000.0,122.14285714285735,[0.54544216]
-1.0941601035716628e-17,0.1883734214155441,4.083625041256634e-18,0.1883734214155441,1.8796719890756992e-18,-0.024076782021601316,4.083625041256634e-18,-0.024076782021601316,-1.3649327140072212e-17,0.18990586438631604,-1.258243122869057e-17,-0.18990586438631615,0.29725980895753795,0.9073440427737739,0.2972598089575379,1000.0,122.14285714285735,[0.54303135]
-9.936649383358604e-18,0.183442661680367,2.351692679461734e-18,0.183442661680367,1.7364175418713157e-18,-0.02680107241491678,2.351692679461734e-18,-0.02680107241491678,-1.2262363628502498e-17,0.18539014970317916,-1.1632963188409054e-17,-0.18539014970317927,0.28569647762749184,0.9147431581282738,0.28569647762749184,1000.0,122.14285714285735,[0.5431259]
-9.001154432675433e-18,0.17525192441025225,5.777149339259165e-19,0.17525192441025225,1.515024305282723e-18,-0.03128926984189894,5.777149339259165e-19,-0.03128926984189894,-1.093617473089828e-17,0.1780231878625252,-1.0856511321122399e-17,-0.17802318786252533,0.26511566256731345,0.9270530572318872,0.26511566256731334,1000.0,122.14285714285735,[0.28986327]
-8.148139315231149e-18,0.16021732243737677,-1.2799805206354739e-18,0.16021732243737677,1.1080514439066333e-18,-0.039360937836655764,-1.2799805206354739e-18,-0.039360937836655764,-9.764092890135142e-18,0.16498143482338684,-9.948348438637135e-18,-0.1649814348233867,0.2224975250023225,0.9492047738689906,0.22249752500232248,1000.0,122.14285714285735,[0.28428072]
-7.557757350994902e-18,0.1254658970342174,-3.377857792218987e-18,0.1254658970342174,2.1488167080657534e-19,-0.056732930657464035,-3.377857792218987e-18,-0.056732930657464035,-9.001154432675433e-18,0.13769646596621665,-1.2517747413936804e-17,-0.13769646596621654,0.09610498685764117,0.9907207795348724,0.09610498685764118,1000.0,122.14285714285735,[0.27520114]
-8.452012385058629e-18,-0.018772930683699025,-6.368972665712787e-18,-0.018772930683699025,-4.478871997064325e-18,-0.09509213500567601,-6.368972665712787e-18,-0.09509213500567601,-1.0154786837056188e-17,0.09692748354513635,3.69624457200588e-19,-0.09692748354513638,0.6602505641648836,0.35796422312838155,0.6602505641648838,1000.0,122.14285714285735,[0.21607186]
-8.04395426271887e-18,-0.025540762328429688,-7.30419630115504e-18,-0.025540762328429688,-4.5537550035575254e-18,-0.09667701824104744,-7.30419630115504e-18,-0.09667701824104744,-9.026115434839833e-18,0.09999388179432354,-1.251864586796194e-17,-0.09999388179432359,0.6111262928109212,0.5030400664662408,0.6111262928109215,1000.0,135.00000000000023,[0.25693064]
-5.738859975884698e-18,0.11723141563018452,-6.038731145908647e-18,0.11723141563018452,2.930204601907845e-20,-0.05874028019646489,-6.038731145908647e-18,-0.05874028019646489,-6.223971626644998e-18,0.13112446502547218,-1.0370934919844556e-17,-0.1311244650254722,0.22303669808055163,0.948951665059211,0.2230366980805519,1000.0,135.00000000000023,[0.26936769]
-4.9466194724059106e-18,0.15323744806990136,-5.678458420375464e-18,0.15323744806990136,7.878994596241096e-19,-0.0411687616489745,-5.678458420375464e-18,-0.0411687616489745,-5.3036703294532e-18,0.15867130309758537,-7.843725280646308e-18,-0.15867130309758531,0.3531473058868231,0.8663567167684206,0.35314730588682314,1000.0,135.00000000000023,[0.25930754]
-4.438717341408551e-18,0.16838640460077972,-5.564726462823404e-18,0.16838640460077972,1.0602999615051721e-18,-0.03315753145996372,-5.564726462823404e-18,-0.03315753145996372,-4.7642956305094224e-18,0.17161993808091167,-6.55620533549484e-18,-0.17161993808091164,0.39397774714573625,0.83039934339325,0.3939777471457362,1000.0,135.00000000000023,[0.2745653]
-4.0610465260515396e-18,0.17616314144231154,-5.538934557733694e-18,0.17616314144231154,1.1525471434170858e-18,-0.028850130442675623,-5.538934557733694e-18,-0.028850130442675623,-4.355152247205994e-18,0.17850989448594512,-6.071332978645354e-18,-0.17850989448594506,0.4126186154102379,0.8120909779291212,0.4126186154102379,1000.0,135.00000000000023,[0.26821633]
-3.707251451895259e-18,0.18037550637075636,-5.558689698712992e-18,0.18037550637075636,1.1677407969084598e-18,-0.026375812073461614,-5.558689698712992e-18,-0.026375812073461614,-4.0132950436500784e-18,0.1822937375804265,-5.600711004473919e-18,-0.18229373758042636,0.4223943629148322,0.8019763115925221,0.4223943629148322,1000.0,135.00000000000023,[0.35689859]
-3.3968668162857617e-18,0.1824603434619054,-5.6058476790249464e-18,0.1824603434619054,1.1503766214897466e-18,-0.02499484729767681,-5.6058476790249464e-18,-0.02499484729767681,-3.711592495749937e-18,0.18416438126758025,-5.1883608312067425e-18,-0.18416438126758028,0.427513439570709,0.796532810355508,0.4275134395707089,1000.0,135.00000000000023,[0.53604676]
-3.132063141150386e-18,0.18302250964702763,-5.666995351446704e-18,0.18302250964702763,1.0950283123425985e-18,-0.02438410629900669,-5.666995351446704e-18,-0.02438410629900669,-3.4348509500141967e-18,0.184639713164578,-4.836365143268585e-18,-0.18463971316457792,0.4295890646413104,0.7942962111713789,0.42958906464131047,1000.0,135.00000000000023,[0.53604676]
-2.8433837248142795e-18,0.1822794834739576,-5.746049829769009e-18,0.1822794834739576,1.004951652358024e-18,-0.024416782736823756,-5.746049829769009e-18,-0.024416782736823756,-3.1787293625881777e-18,0.1839075566004562,-4.646505144205706e-18,-0.18390755660045624,0.42919035969820185,0.7947271671990681,0.4291903596982019,1000.0,135.00000000000023,[0.53604676]
-2.5894326593155995e-18,0.1801932858033008,-5.836092575348469e-18,0.1801932858033008,9.029371217730842e-19,-0.02509284223086115,-5.836092575348469e-18,-0.02509284223086115,-2.9399719505808714e-18,0.18193205044689886,-4.570292109403522e-18,-0.18193205044689886,0.4262592632563939,0.7978759809495661,0.4262592632563939,1000.0,135.00000000000023,[0.37606109]
-2.3810625542910416e-18,0.17645835816347502,-5.950672393028396e-18,0.17645835816347502,7.683647622780572e-19,-0.026539023512457394,-5.950672393028396e-18,-0.026539023512457394,-2.7272608017016352e-18,0.17844290945494018,-4.558450036879119e-18,-0.17844290945494026,0.420076469020125,0.8044075586114091,0.4200764690201252,1000.0,135.00000000000023,[0.26583051]
-2.1878861027578578e-18,0.1703359680745664,-6.089670582390888e-18,0.1703359680745664,5.730177888175342e-19,-0.02907839290865613,-6.089670582390888e-18,-0.02907839290865613,-2.5416811769141383e-18,0.17280015901048784,-4.731649396095056e-18,-0.1728001590104879,0.40873103350945866,0.8160134095053705,0.4087310335094586,1000.0,135.00000000000023,[0.2756255]
-2.0978094427732833e-18,0.16013300875630496,-6.273317086086849e-18,0.16013300875630496,3.060435917548194e-19,-0.033450626109852735,-6.273317086086849e-18,-0.033450626109852735,-2.41036460031012e-18,0.163589501131607,-4.890427633069653e-18,-0.16358950113160692,0.38719594402497026,0.8367548039068697,0.38719594402497015,1000.0,135.00000000000023,[0.2620474]
-2.101065225664292e-18,0.14142326437602853,-6.548396825971971e-18,0.14142326437602853,-1.139524011853051e-19,-0.04152644386131523,-6.548396825971971e-18,-0.04152644386131523,-2.38540359814572e-18,0.1473939796821399,-6.24241891079084e-18,-0.14739397968213974,0.3388768684112642,0.8776815687432143,0.3388768684112641,1000.0,135.00000000000023,[0.26847162]
-2.5026117822220337e-18,0.09869218006315014,-7.065761075996324e-18,0.09869218006315014,-1.0548736566868243e-18,-0.05916238027751894,-7.065761075996324e-18,-0.05916238027751894,-2.6708272315908175e-18,0.11506664871160112,-6.2979412295962226e-18,-0.1150666487116012,0.17176914522255615,0.9700467625321084,0.1717691452225562,1000.0,135.00000000000023,[0.27078524]
-4.7892566326738226e-18,-0.0629645864601404,-8.486164191009106e-18,-0.0629645864601404,-5.7996345898501944e-18,-0.09716387109856081,-8.486164191009106e-18,-0.09716387109856081,-4.4495699510452465e-18,0.11578150540977705,4.087634793919834e-18,-0.11578150540977705,0.6915113816838452,0.2088636349472987,0.6915113816838451,1000.0,135.00000000000023,[0.20155478]
-4.9010385119317885e-18,-0.0697379694542964,-8.621109608960394e-18,-0.0697379694542964,-5.783898305876986e-18,-0.09563808362856784,-8.621109608960394e-18,-0.09563808362856784,-3.987248780522009e-18,0.11836396167648881,-1.8797756092031998e-18,-0.11836396167648885,0.6567303525469713,0.370689206866158,0.6567303525469715,1000.0,147.8571428571427,[0.24932352]
-2.2258702364862928e-18,0.09043838548148747,-7.608120242590193e-18,0.09043838548148747,-1.0423931556046242e-18,-0.05734388174584828,-7.608120242590193e-18,-0.05734388174584828,-1.898121425458082e-18,0.10708605110928283,-6.671314259563015e-18,-0.10708605110928289,0.304191829292511,0.9027373161575585,0.304191829292511,1000.0,147.8571428571427,[0.2655552]
-1.469443344808601e-18,0.13441047789490496,-7.488436306940508e-18,0.13441047789490496,-9.658822576659194e-20,-0.040036027565717176,-7.488436306940508e-18,-0.040036027565717176,-1.2751816323117475e-18,0.14024642623318284,-5.561854159548667e-18,-0.14024642623318295,0.46641575353133896,0.7516067387374773,0.466415753531339,1000.0,147.8571428571427,[0.27452707]
-1.124330358361677e-18,0.1532208189290581,-7.603711369925285e-18,0.1532208189290581,3.494540303016023e-19,-0.032028099478716404,-7.603711369925285e-18,-0.032028099478716404,-9.257276020101452e-19,0.1565324838795762,-4.1355441103516406e-18,-0.15653248387957613,0.5090825984926715,0.6940243625578997,0.5090825984926715,1000.0,147.8571428571427,[0.26132474]
-9.268128629738148e-19,0.1629957303130766,-7.812997163887939e-18,0.1629957303130766,6.11544553027804e-19,-0.027603305193273888,-7.812997163887939e-18,-0.027603305193273888,-6.706912755477957e-19,0.16531651628886396,-3.126056873560358e-18,-0.1653165162888639,0.5275036446890005,0.6659427976032489,0.5275036446890006,1000.0,147.8571428571427,[0.26436086]
-8.161162446795185e-19,0.1683853031505405,-8.063488960064922e-18,0.1683853031505405,8.150309837158489e-19,-0.02494205241158595,-8.063488960064922e-18,-0.02494205241158595,-4.590653876322291e-19,0.1702225493158933,-2.824657445494927e-18,-0.1702225493158933,0.5371386265022211,0.6503569726224319,0.5371386265022212,1000.0,147.8571428571427,[0.26774407]
-7.412332381863179e-19,0.1711599632375533,-8.33534683146415e-18,0.1711599632375533,9.528591261018845e-19,-0.023322321889403058,-8.33534683146415e-18,-0.023322321889403058,-2.7240050188106265e-19,0.17274160967697827,-2.522800792044516e-18,-0.17274160967697832,0.5424501459037336,0.6414792891575194,0.5424501459037336,1000.0,147.8571428571427,[0.28026197]
-6.685207536204565e-19,0.17207133257853066,-8.626535913778742e-18,0.17207133257853066,1.0673541577690244e-18,-0.02242399038124645,-8.626535913778742e-18,-0.02242399038124645,-1.063555744396181e-19,0.17352630590192816,-2.2999781472394805e-18,-0.1735263059019281,0.54508926131931,0.636989320466786,0.54508926131931,1000.0,147.8571428571427,[0.28026197]
-6.598386659111e-19,0.17139620524363086,-8.930782042062484e-18,0.17139620524363086,1.1601439701627728e-18,-0.02211375182117583,-8.930782042062484e-18,-0.02211375182117583,4.883674336513076e-20,0.1728168891964132,-2.235940331694097e-18,-0.17281688919641322,0.5456632389733908,0.6360057069446282,0.5456632389733909,1000.0,147.8571428571427,[0.28026197]
-6.75032319402474e-19,0.16910031325540373,-9.247779986669343e-18,0.16910031325540373,1.2263448889466167e-18,-0.02237514754414993,-9.247779986669343e-18,-0.02237514754414993,1.8883540767850558e-19,0.1705742160195911,-2.1697681393492467e-18,-0.17057421601959105,0.5442022896851931,0.638504295837378,0.5442022896851932,1000.0,147.8571428571427,[0.26774407]
-7.162722360219177e-19,0.16482740542779906,-9.585906605662644e-18,0.16482740542779906,1.2513058911110169e-18,-0.02330330730590358,-9.585906605662644e-18,-0.02330330730590358,3.1526830994601076e-19,0.1664665663472801,-2.437624994235367e-18,-0.1664665663472801,0.5401649693235937,0.6453244237058455,0.540164969323594,1000.0,147.8571428571427,[0.26774407]
-8.09604678897501e-19,0.15770514220583784,-9.94075302637748e-18,0.15770514220583784,1.2442516948471647e-18,-0.02516030958118197,-9.94075302637748e-18,-0.02516030958118197,4.1999599294012453e-19,0.15969957124671452,-2.8927946269971372e-18,-0.15969957124671452,0.5319771579058985,0.6587872243241557,0.5319771579058987,1000.0,147.8571428571427,[0.26774407]
-9.582854309202323e-19,0.14573211213333115,-1.033466884178442e-17,0.14573211213333115,1.1590587091991032e-18,-0.028557031099502608,-1.033466884178442e-17,-0.028557031099502608,4.970495213606641e-19,0.14850371218275915,-3.380121582917753e-18,-0.14850371218275915,0.5152067843743341,0.684926228632921,0.5152067843743343,1000.0,147.8571428571427,[0.26132474]
-1.3196773318222e-18,0.12370098674256028,-1.0804417267027771e-17,0.12370098674256028,9.08363426591432e-19,-0.0350448219509812,-1.0804417267027771e-17,-0.0350448219509812,4.894526946149771e-19,0.12856933408343935,-5.2206572421659155e-18,-0.1285693340834393,0.47350962856904893,0.7426824781188813,0.4735096285690489,1000.0,147.8571428571427,[0.2655153]
-2.15641353481144e-18,0.07365661235652615,-1.1474396340068159e-17,0.07365661235652615,1.3945603383154004e-19,-0.049459924637909165,-1.1474396340068159e-17,-0.049459924637909165,2.941057211544541e-19,0.08872192901998475,-1.191471888166006e-17,-0.08872192901998474,0.28733613887729287,0.913715429764748,0.28733613887729254,1000.0,147.8571428571427,[0.24146165]
-5.237469410669356e-18,-0.10354825840569232,-1.2883166814126609e-17,-0.10354825840569232,-4.432748406108368e-18,-0.07958616086967919,-1.2883166814126609e-17,-0.07958616086967919,-1.038052111749946e-18,0.13059938292666814,2.237421713821394e-17,-0.13059938292666812,0.7039655212585535,0.09415460561409765,0.7039655212585534,1000.0,147.8571428571427,[0.14054872]
-5.599946572534993e-18,-0.10898848624302228,-1.2400802230180599e-17,-0.10898848624302228,-4.447399429117907e-18,-0.07526009020991266,-1.2400802230180599e-17,-0.07526009020991266,-9.854169550119717e-19,0.13244837225103834,2.5213212096382625e-18,-0.1324483722510385,0.6819126232157231,0.26455689104255603,0.6819126232157231,1000.0,160.7142857142859,[0.21105457]
-2.7619891525390615e-18,0.06701096553386951,-1.0429323946459475e-17,0.06701096553386951,6.348776637466998e-20,-0.04420010924367188,-1.0429323946459475e-17,-0.04420010924367188,-2.7674154573574094e-20,0.08027527115453413,-1.479734992493701e-17,-0.08027527115453419,0.42855382070883336,0.7954138831524894,0.42855382070883363,1000.0,160.7142857142859,[0.23367135]
-2.1965681904672144e-18,0.11803245071234686,-9.175338817344399e-18,0.11803245071234686,7.813878938420922e-19,-0.030591565727083617,-9.175338817344399e-18,-0.030591565727083617,-1.7472701515080114e-19,0.12193237189031081,-5.060075616139672e-18,-0.12193237189031089,0.5874857386430966,0.5565258428698081,0.5874857386430967,1000.0,160.7142857142859,[0.25253337]
-2.139049359392727e-18,0.14012605031565714,-8.09540241527783e-18,0.14012605031565714,9.935564122394934e-19,-0.024181146938142842,-8.09540241527783e-18,-0.024181146938142842,-5.046463481063511e-19,0.1421971794527239,-3.482278884906912e-18,-0.14219717945272384,0.6179903501599767,0.4859792734451738,0.6179903501599766,1000.0,160.7142857142859,[0.26708649]
-2.2823038065971106e-18,0.1517374055190165,-7.08329482344061e-18,0.1517374055190165,1.0391373727136155e-18,-0.020523969542209006,-7.08329482344061e-18,-0.020523969542209006,-8.844876853907014e-19,0.15311914824544964,-2.834997522286532e-18,-0.15311914824544964,0.6300996073769696,0.4538160084954885,0.6300996073769698,1000.0,160.7142857142859,[0.26894805]
-2.4982707383673555e-18,0.15825329386611012,-6.1100870542699215e-18,0.15825329386611012,1.0103779571763718e-18,-0.01821194670401221,-6.1100870542699215e-18,-0.01821194670401221,-1.299057373512478e-18,0.1592977715544797,-2.7062592572228542e-18,-0.15929777155447963,0.6363500582482196,0.4360243189719759,0.6363500582482196,1000.0,160.7142857142859,[0.26894805]
-2.7847796327761225e-18,0.1617370562533289,-5.150885934411593e-18,0.1617370562533289,9.24913656287393e-19,-0.016683729168799163,-5.150885934411593e-18,-0.016683729168799163,-1.7266501931982897e-18,0.1625952711011926,-2.757582689585287e-18,-0.16259527110119265,0.6399399195151206,0.42538664626661976,0.6399399195151205,1000.0,160.7142857142859,[0.26894805]
-3.0951642683856206e-18,0.1630712991481877,-4.201316505605832e-18,0.1630712991481877,8.112325703430054e-19,-0.015685556737661442,-4.201316505605832e-18,-0.015685556737661442,-2.1697079816163924e-18,0.16382394603979025,-2.9758294376661367e-18,-0.16382394603979034,0.6419991203792935,0.4191351319854101,0.6419991203792934,1000.0,160.7142857142859,[0.26894805]
-3.4326804280868576e-18,0.16258914207413425,-3.2670763879119038e-18,0.16258914207413425,6.739470584388044e-19,-0.01510397554435422,-3.2670763879119038e-18,-0.01510397554435422,-2.618734705334678e-18,0.16328918885721572,-3.1933083385744534e-18,-0.16328918885721577,0.6429626458372321,0.4161707247224058,0.6429626458372321,1000.0,160.7142857142859,[0.26894805]
-3.809265982480199e-18,0.16026685626984863,-2.3415183579273316e-18,0.16026685626984863,5.084447614791946e-19,-0.014909308621044715,-2.3415183579273316e-18,-0.014909308621044715,-3.0691180052575505e-18,0.16095885406580732,-3.449203920944174e-18,-0.16095885406580737,0.6429242919707028,0.41628921387412976,0.6429242919707029,1000.0,160.7142857142859,[0.26894805]
-4.2336030192750016e-18,0.15571630714464432,-1.4256937622106713e-18,0.15571630714464432,3.1228384229591943e-19,-0.015146178683075238,-1.4256937622106713e-18,-0.015146178683075238,-3.5322531215035405e-18,0.1564511905977862,-3.805858393946865e-18,-0.1564511905977863,0.6416818017158972,0.4201058565329453,0.6416818017158971,1000.0,160.7142857142859,[0.26894805]
-4.704063647025761e-18,0.14797132030965338,-5.199587020156265e-19,0.14797132030965338,7.922405034787878e-20,-0.0159637098102246,-5.199587020156265e-19,-0.0159637098102246,-4.014380304613748e-18,0.1488299420986485,-4.090594448775864e-18,-0.14882994209864858,0.6385257178322252,0.429615892785268,0.6385257178322252,1000.0,160.7142857142859,[0.26894805]
-5.264600934761095e-18,0.134808678889152,3.5840743325187626e-19,0.134808678889152,-2.4472634730748856e-19,-0.017722927652686613,3.5840743325187626e-19,-0.017722927652686613,-4.507902727842486e-18,0.13596868046877872,-4.314093956427855e-18,-0.13596868046877877,0.6312909705644427,0.4504924205440175,0.6312909705644429,1000.0,160.7142857142859,[0.25508973]
-6.0351362189664916e-18,0.11045595359611897,1.1966697844712768e-18,0.11045595359611897,-7.328224657178787e-19,-0.021348486038948337,1.1966697844712768e-18,-0.021348486038948337,-5.051347155400024e-18,0.11250011351542344,-4.6837891903731896e-18,-0.11250011351542347,0.6109809713611818,0.5033929928684877,0.6109809713611817,1000.0,160.7142857142859,[0.25322816]
-7.36946457379823e-18,0.055201866067070185,1.9038868743275766e-18,0.055201866067070185,-1.722037834102694e-18,-0.029698397082214136,1.9038868743275766e-18,-0.029698397082214136,-5.71579818040672e-18,0.06268365661430113,-5.397084262308629e-18,-0.06268365661430118,0.47711539527912583,0.7380527075861778,0.47711539527912566,1000.0,160.7142857142859,[0.14677167]
-1.1206947341333838e-17,-0.13261243369521036,2.201977538083005e-18,-0.13261243369521036,-6.518619978281287e-18,-0.04599312967888562,2.201977538083005e-18,-0.04599312967888562,-7.255240857372008e-18,0.14036176668959877,-9.706628510012863e-18,-0.14036176668959874,0.7071040940214456,0.0027568888662539573,0.7071040940214458,1000.0,160.7142857142859,[0.10467094]
-1.1375705421184457e-17,-0.13565353556605286,2.6229231343663402e-18,-0.13565353556605286,-6.5500925462277044e-18,-0.0397312721103336,2.6229231343663402e-18,-0.0397312721103336,-7.051483111443046e-18,0.14135223979504427,-9.079781699049296e-18,-0.14135223979504447,0.6965857686775453,0.17186196132893003,0.6965857686775452,1000.0,173.57142857142813,[0.13540464]
-7.56209839484958e-18,0.051447286632953525,2.60993391720742e-18,0.051447286632953525,-1.8023471454142422e-18,-0.022061968869392507,2.60993391720742e-18,-0.022061968869392507,-5.3972740875697005e-18,0.05597815442016039,-3.2597665802529977e-18,-0.0559781544201604,0.6145847287262375,0.49454142640732707,0.6145847287262376,1000.0,173.57142857142813,[0.14193531]
-6.282575718683155e-18,0.10719937618519808,2.206199881519782e-18,0.10719937618519808,-8.73092445272171e-19,-0.01485244958272924,2.206199881519782e-18,-0.01485244958272924,-4.591467822045043e-18,0.10822338708940468,-4.029974646919404e-18,-0.10822338708940464,0.6851467468348831,0.24728095479262563,0.6851467468348832,1000.0,173.57142857142813,[0.19857069]
-5.5760708313342625e-18,0.13154274796498544,1.7110326096429823e-18,0.13154274796498544,-4.410229241112224e-19,-0.011313265784058817,1.7110326096429823e-18,-0.011313265784058817,-3.904226316801286e-18,0.13202834742918068,-3.640186385426524e-18,-0.13202834742918068,0.6932922571601307,0.1967020394495752,0.6932922571601307,1000.0,173.57142857142813,[0.13843699]
-5.093129702501303e-18,0.14446088813994729,1.1846471278581249e-18,0.14446088813994729,-1.7757582518043377e-19,-0.009151774075192073,1.1846471278581249e-18,-0.009151774075192073,-3.246558172817526e-18,0.1447504859090487,-3.1108191454137567e-18,-0.14475048590904876,0.6962493158566744,0.17456740915252583,0.6962493158566745,1000.0,173.57142857142813,[0.13642674]
-4.680730536306865e-18,0.15182582980602996,6.429492921639922e-19,0.15182582980602996,6.5115657820174346e-21,-0.007650252182140395,6.429492921639922e-19,-0.007650252182140395,-2.6127657700344953e-18,0.152018449389342,-2.552826692049959e-18,-0.152018449389342,0.6977860818920288,0.16183067643540647,0.697786081892029,1000.0,173.57142857142813,[0.13448354]
-4.3377880717872805e-18,0.15589517665375044,9.25015399502737e-20,0.15589517665375044,1.2724684799025735e-19,-0.006519175564824169,9.25015399502737e-20,-0.006519175564824169,-1.9800586282151347e-18,0.1560314255332849,-1.9739995352309886e-18,-0.15603142553328486,0.6987392184459649,0.15338516620274817,0.6987392184459648,1000.0,173.57142857142813,[0.13484837]
-4.046938133523835e-18,0.15764081915029185,-4.670013584290628e-19,0.15764081915029185,2.4092793393464505e-19,-0.005621382491422998,-4.670013584290628e-19,-0.005621382491422998,-1.3552196283823784e-18,0.15774101496912563,-1.3915775234849303e-18,-0.15774101496912563,0.6993929236564059,0.14730606463648815,0.6993929236564059,1000.0,173.57142857142813,[0.13484837]
-3.790816546097816e-18,0.15743807253828418,-1.0318118612088459e-18,0.15743807253828418,3.2286513669169776e-19,-0.0048857200180523475,-1.0318118612088459e-18,-0.0048857200180523475,-7.393340314998961e-19,0.15751386270631818,-8.066970201158413e-19,-0.1575138627063182,0.6998668478909154,0.14273328429791352,0.6998668478909154,1000.0,173.57142857142813,[0.13484837]
-3.572679092400232e-18,0.1552784968732032,-1.596520620773285e-18,0.1552784968732032,3.806552830071025e-19,-0.004275151482254294,-1.596520620773285e-18,-0.004275151482254294,-1.2846776657438562e-19,0.15533733778907638,-2.193321290827785e-19,-0.15533733778907638,0.7002155601475661,0.13927073868713707,0.700215560147566,1000.0,173.57142857142813,[0.13484837]
-3.383301054239892e-18,0.15076719966866453,-2.162246812491164e-18,0.15076719966866453,3.9612025173939394e-19,-0.0037749383694226316,-2.162246812491164e-18,-0.0037749383694226316,4.775148240146118e-19,0.1508144510835214,3.6692133432793835e-19,-0.15081445108352137,0.7004588189963945,0.1368023602879408,0.7004588189963943,1000.0,173.57142857142813,[0.13484837]
-3.2498139557085347e-18,0.14290252248783672,-2.736858578349088e-18,0.14290252248783672,3.7346542912279157e-19,-0.00339170179516045,-2.736858578349088e-18,-0.00339170179516045,1.0744083540328766e-18,0.14294276677906428,9.416465720542181e-19,-0.14294276677906428,0.7005842729465895,0.13551144970000592,0.7005842729465893,1000.0,173.57142857142813,[0.13484837]
-3.2226824316167954e-18,0.12936985891831856,-3.3096220091282625e-18,0.12936985891831856,2.7660588811528224e-19,-0.0031651017000438888,-3.3096220091282625e-18,-0.0031651017000438888,1.6548873119756393e-18,0.1294085710658968,1.4899136040379444e-18,-0.12940857106589682,0.7005140666975442,0.1362354018518567,0.7005140666975443,1000.0,173.57142857142813,[0.13484837]
-3.421285187968327e-18,0.10415959297998346,-3.8884900328280776e-18,0.10415959297998346,9.767348673026151e-21,-0.0032099515415552897,-3.8884900328280776e-18,-0.0032099515415552897,2.2144749963677623e-18,0.10420904278734618,1.9692098597486558e-18,-0.10420904278734618,0.6998885123505388,0.14252066713111686,0.699888512350539,1000.0,173.57142857142813,[0.12748378]
-4.2135256914471145e-18,0.046836586791284454,-4.488639345737351e-18,0.046836586791284454,-7.626671422187919e-19,-0.0038399685482493904,-4.488639345737351e-18,-0.0038399685482493904,2.6662148724952218e-18,0.04699373597309605,1.891786072875203e-18,-0.046993735973096085,0.6938416778241158,0.1927886205885376,0.6938416778241159,1000.0,173.57142857142813,[0.07248192]
-7.601167789541684e-18,-0.14454089512879334,-5.101082630500694e-18,-0.14454089512879334,-5.330937511165398e-18,-0.0030744239934327546,-5.101082630500694e-18,-0.0030744239934327546,2.355016291162972e-18,0.14457358834698758,2.5675263599886388e-18,-0.14457358834698764,0.7041853500705613,0.09080740879466785,0.7041853500705614,1000.0,173.57142857142813,[0.13914012]
-7.75988720547836e-18,-0.14458529480341867,-4.4210479363438055e-18,-0.14458529480341867,-5.247575903393529e-18,0.003887045198294284,-4.4210479363438055e-18,0.003887045198294284,1.8214748698989184e-18,0.1446375352174015,1.57678143565812e-18,-0.14463753521740155,0.7045345219374499,0.08521862939955202,0.70453452193745,1000.0,173.57142857142813,[0.13914012]
-4.644645609264852e-18,0.046703661619762034,-3.066184409215131e-18,0.046703661619762034,-4.840942186068586e-19,0.004672589311421022,-3.066184409215131e-18,0.004672589311421022,1.0597573310233374e-18,0.046936820296718425,1.6096193037947597e-18,-0.04693682029671842,0.6912886692754515,0.21033295382024775,0.6912886692754515,1000.0,173.57142857142813,[0.09180262]
-4.14949529459061e-18,0.1039385687154446,-1.6871823042460877e-18,0.1039385687154446,4.779896256862173e-19,0.004061932282953772,-1.6871823042460877e-18,0.004061932282953772,-4.701893125098422e-19,0.10401790884499898,-3.4337538088993464e-19,-0.10401790884499895,0.6990330381990842,0.1506838511995099,0.6990330381990841,1000.0,173.57142857142813,[0.12748378]
-4.2439129984298625e-18,0.12906123379901557,-3.0249105781905728e-19,0.12906123379901557,9.29186871331842e-19,0.004035913456219849,-3.0249105781905728e-19,0.004035913456219849,-2.0994373342187876e-18,0.12912432252348993,-2.0827822510111394e-18,-0.12912432252348993,0.6998427638871015,0.14296926827022974,0.6998427638871015,1000.0,173.57142857142813,[0.13484837]
-4.562979721748717e-18,0.14250686458012207,1.093222370270242e-18,0.14250686458012207,1.2145426759667101e-18,0.004280832263863629,1.093222370270242e-18,0.004280832263863629,-3.754053330953509e-18,0.14257114707165894,-3.82076018498028e-18,-0.14257114707165894,0.6999666478159594,0.1417511336482978,0.6999666478159593,1000.0,173.57142857142813,[0.13484837]
-4.971851789811228e-18,0.15028514478621102,2.4922594100607795e-18,0.15028514478621102,1.4161298999683332e-18,0.004681872020667585,2.4922594100607795e-18,0.004681872020667585,-5.42440561166144e-18,0.15035805488576362,-5.578933836443479e-18,-0.15035805488576365,0.6998546814200903,0.14285254561528504,0.6998546814200904,1000.0,173.57142857142813,[0.13484837]
-5.44936661382584e-18,0.15471074643670088,3.895238999445898e-18,0.15471074643670088,1.5941126980101432e-18,0.005199366058886863,3.895238999445898e-18,0.005199366058886863,-7.102286890304828e-18,0.15479808936293585,-7.360968560830488e-18,-0.1547980893629358,0.6996049803104676,0.1452781575102776,0.6996049803104676,1000.0,173.57142857142813,[0.13484837]
-5.959981897232374e-18,0.1567853913929843,5.301974609197466e-18,0.1567853913929843,1.7143731785467777e-18,0.005826686862304439,5.301974609197466e-18,0.005826686862304439,-8.792038210738352e-18,0.15689362394323944,-9.183347289491284e-18,-0.1568936239432394,0.6992356817676648,0.14879154104255282,0.6992356817676648,1000.0,173.57142857142813,[0.13484837]
-6.524046283099635e-18,0.15690403335722283,6.708133674062086e-18,0.15690403335722283,1.8315813626230913e-18,0.006578568093950451,6.708133674062086e-18,0.006578568093950451,-1.0483146107376463e-17,0.15704188371874317,-1.1037897071534903e-17,-0.15704188371874317,0.6987273425052208,0.15349332777415264,0.698727342505221,1000.0,173.57142857142813,[0.13484837]
-7.111172464444873e-18,0.15507517127959974,8.118633782781382e-18,0.15507517127959974,1.90666785554698e-18,0.007492043632101749,8.118633782781382e-18,0.007492043632101749,-1.2172965256620217e-17,0.15525604485875105,-1.2944386893528441e-17,-0.15525604485875105,0.6980215691025882,0.15978666444707232,0.6980215691025882,1000.0,173.57142857142813,[0.13448354]
-7.745778812950655e-18,0.15092354674329447,9.536238959372204e-18,0.15092354674329447,1.9470938264436714e-18,0.008638266051657942,9.536238959372204e-18,0.008638266051657942,-1.3880080752472454e-17,0.1511705546789937,-1.494552984673843e-17,-0.15117055467899368,0.6969884956357484,0.16856474691593532,0.6969884956357483,1000.0,173.57142857142813,[0.13540464]
-8.42379560000322e-18,0.14347732402586746,1.0963789535262904e-17,0.14347732402586746,1.9574716344087617e-18,0.010154399606730665,1.0963789535262904e-17,0.010154399606730665,-1.5590112887164553e-17,0.1438362066414327,-1.7106219013269695e-17,-0.1438362066414327,0.6953182277363846,0.18183818178552658,0.695318227736385,1000.0,173.57142857142813,[0.1408144]
-9.218477940650265e-18,0.130478952371784,1.2403099931127118e-17,0.130478952371784,1.8878792751134504e-18,0.01232997537872212,1.2403099931127118e-17,0.01232997537872212,-1.7316830909173072e-17,0.1310602354067708,-1.9560971175600268e-17,-0.13106023540677084,0.6920958875830603,0.2049550311195907,0.6920958875830605,1000.0,173.57142857142813,[0.13843699]
-1.0212170010510217e-17,0.10605645067048844,1.3879300721154816e-17,0.10605645067048844,1.629824566595895e-18,0.015882729835630795,1.3879300721154816e-17,0.015882729835630795,-1.908851943236365e-17,0.10723913388242828,-2.2912378522889216e-17,-0.10723913388242831,0.6831857178798083,0.2579041484158449,0.6831857178798082,1000.0,173.57142857142813,[0.19857069]
-1.1782678282560547e-17,0.050226387453207615,1.5450521195712554e-17,0.050226387453207615,8.83809397288408e-19,0.0231053440743925,1.5450521195712554e-17,0.0231053440743925,-2.0965139124979027e-17,0.05528604635344975,-3.22467760519409e-17,-0.055286046353449796,0.605267302740157,0.5170135244529976,0.6052673027401572,1000.0,173.57142857142813,[0.14284551]
-1.5881166311858686e-17,-0.13695117823821018,1.7404499646394504e-17,-0.13695117823821018,-3.66808031398781e-18,0.040787399820479554,1.7404499646394504e-17,0.040787399820479554,-2.3691925125009057e-17,0.14289589638946826,-1.4171042479598567e-17,-0.1428958963894683,0.6960268144610763,0.17633305731578677,0.6960268144610764,1000.0,173.57142857142813,[0.1408144]
-1.6013703807046833e-17,-0.13398462490212026,1.7278079462028917e-17,-0.13398462490212026,-3.57708796506514e-18,0.04707832103561538,1.7278079462028917e-17,0.04707832103561538,-2.42993999494231e-17,0.14201495703514586,-1.2038506719739834e-17,-0.14201495703514594,0.7071061868693899,0.0012965269235041836,0.7071061868693898,1000.0,160.7142857142859,[0.10330679]
-1.2461915988197242e-17,0.05375877514289244,1.4513478900296026e-17,0.05375877514289244,1.1543446068881635e-18,0.030833873566926764,1.4513478900296026e-17,0.030833873566926764,-2.2498646781049248e-17,0.061973652982580354,-3.263387464925127e-17,-0.0619736529825804,0.4627611459330066,0.7561112640541341,0.46276114593300693,1000.0,160.7142857142859,[0.145145]
-1.1428883208404266e-17,0.10894350015141287,1.2162261022505897e-17,0.10894350015141287,2.0789530335295245e-18,0.022533106368407697,1.2162261022505897e-17,0.022533106368407697,-2.1568951193640686e-17,0.11124939149429475,-2.587802179097693e-17,-0.11124939149429484,0.6062893220944148,0.5146129767394032,0.6062893220944148,1000.0,160.7142857142859,[0.25413837]
-1.0954759824901122e-17,0.1332284908629257,9.934919748697756e-18,0.1332284908629257,2.5075802425713335e-18,0.01895590945573801,9.934919748697756e-18,0.01895590945573801,-2.0761381379050065e-17,0.13457026893376864,-2.3349482214669686e-17,-0.13457026893376858,0.6278741072870866,0.4599437039430889,0.6278741072870868,1000.0,160.7142857142859,[0.25508973]
-1.0685750763531526e-17,0.1463250494077083,7.751773184054674e-18,0.1463250494077083,2.7532731504245903e-18,0.017244355620840823,7.751773184054674e-18,0.017244355620840823,-2.0000409957087007e-17,0.1473376662125008,-2.1600165807008265e-17,-0.14733766621250086,0.6355054902869964,0.43848095013371846,0.6355054902869964,1000.0,160.7142857142859,[0.26894805]
-1.0515229134614945e-17,0.15400561077370653,5.593333263537632e-18,0.15400561077370653,2.924150880594876e-18,0.016473814658412345,5.593333263537632e-18,0.016473814658412345,-1.9269384954840206e-17,0.15488419777105128,-2.0375715222329324e-17,-0.1548841977710513,0.638800213460733,0.42879899086290246,0.638800213460733,1000.0,160.7142857142859,[0.26894805]
-1.0394765167647622e-17,0.15849339054381695,3.4437619599580774e-18,0.15849339054381695,3.0721872589204285e-18,0.016283270142614013,3.4437619599580774e-18,0.016283270142614013,-1.8536325088286524e-17,0.15932764898978516,-1.9131927843327415e-17,-0.15932764898978524,0.6400635530758515,0.42501446569244294,0.6400635530758517,1000.0,160.7142857142859,[0.26894805]
-1.0309029551517726e-17,0.16075455767993374,1.3108935008974993e-18,0.16075455767993374,3.160025568167435e-18,0.016523603604155387,1.3108935008974993e-18,0.016523603604155387,-1.7818357132008873e-17,0.16160153864038063,-1.8043832052733545e-17,-0.16160153864038063,0.640048704462877,0.4250591862679659,0.6400487044628771,1000.0,160.7142857142859,[0.26894805]
-1.0250018486618193e-17,0.16117723838488612,-8.113597493621854e-19,0.16117723838488612,3.2413692688349808e-18,0.017150197657513265,-8.113597493621854e-19,0.017150197657513265,-1.7106358111031404e-17,0.16208711069381854,-1.6841315386679e-17,-0.16208711069381856,0.6389689275172578,0.4282959483054809,0.6389689275172574,1000.0,160.7142857142859,[0.26894805]
-1.0242692975113423e-17,0.15978515083195852,-2.926613914266329e-18,0.15978515083195852,3.2869841437142175e-18,0.018192735661129923,-2.926613914266329e-18,0.018192735661129923,-1.640853531139187e-17,0.16081750544398915,-1.5703856641583426e-17,-0.1608175054439892,0.6367219423858655,0.43493716347162215,0.6367219423858658,1000.0,160.7142857142859,[0.26894805]
-1.0268400094190346e-17,0.1562451634243385,-5.0315029891073006e-18,0.1562451634243385,3.294564013257347e-18,0.019764679810981706,-5.0315029891073006e-18,0.019764679810981706,-1.571417178107403e-17,0.15749029703930612,-1.4399584045152756e-17,-0.15749029703930606,0.6328404970453133,0.44612308906722337,0.6328404970453133,1000.0,160.7142857142859,[0.26894805]
-1.0339552516120933e-17,0.14967465710977448,-7.116416479335729e-18,0.14967465710977448,3.2712817741461234e-18,0.02211980182683123,-7.116416479335729e-18,0.02211980182683123,-1.503479841781688e-17,0.15130032588790698,-1.3019356106219423e-17,-0.15130032588790696,0.6261115917991755,0.4647241646712651,0.6261115917991759,1000.0,160.7142857142859,[0.26894805]
-1.051461867532288e-17,0.13801027976123179,-9.164948291477391e-18,0.13801027976123179,3.161195615143891e-18,0.025819468737362242,-9.164948291477391e-18,0.025819468737362242,-1.4388559428356763e-17,0.14040470891552426,-1.0950395079577486e-17,-0.14040470891552426,0.613097285640445,0.4982202692390555,0.6130972856404451,1000.0,160.7142857142859,[0.26708649]
-1.0859392517718658e-17,0.11586524914187152,-1.1153159094821965e-17,0.11586524914187152,2.8937805308146852e-18,0.03227180133310068,-1.1153159094821965e-17,0.03227180133310068,-1.3797227860777306e-17,0.12027562146998484,-7.752938698568981e-18,-0.12027562146998477,0.5802894622044869,0.5714265308058898,0.5802894622044872,1000.0,160.7142857142859,[0.25201862]
-1.17324171341806e-17,0.06479394715790804,-1.2956464322180699e-17,0.06479394715790804,2.103159440180123e-18,0.04592177635722201,-1.2956464322180699e-17,0.04592177635722201,-1.3387897948245747e-17,0.07941703300995631,2.9454030735142634e-18,-0.07941703300995637,0.4094901810978746,0.8152518526006912,0.4094901810978747,1000.0,160.7142857142859,[0.20490724]
-1.485355983688406e-17,-0.11125356133259436,-1.404394032043432e-17,-0.11125356133259436,-2.4851967351956486e-18,0.0770230559151312,-1.404394032043432e-17,0.0770230559151312,-1.407992138461067e-17,0.1353141014517361,-3.385465660012557e-17,-0.1353141014517362,0.6816859011637982,0.26572290889006833,0.6816859011637985,1000.0,160.7142857142859,[0.21105457]
-1.4004885763294455e-17,-0.10585780179388275,-1.3417992743484381e-17,-0.10585780179388275,-2.602854285139732e-18,0.08140229501444059,-1.3417992743484381e-17,0.08140229501444059,-1.4659230295576977e-17,0.13353729005132234,-1.9529982517226615e-17,-0.13353729005132234,0.7039492764642169,0.09439720510169058,0.703949276464217,1000.0,147.85714285714295,[0.14054872]
-9.677475499472264e-18,0.07131031808649627,-1.1469949313697497e-17,0.07131031808649627,1.763218400513187e-18,0.05135020141820025,-1.1469949313697497e-17,0.05135020141820025,-1.4626452023033645e-17,0.08787493756064355,-8.305304397120844e-18,-0.08787493756064353,0.26602697838512684,0.9265307839152235,0.2660269783851268,1000.0,147.85714285714295,[0.23488878]
-7.601099960731455e-18,0.1213187926859894,-8.788693402533917e-18,0.1213187926859894,2.3188550567094506e-18,0.03700802015233178,-8.788693402533917e-18,0.03700802015233178,-1.5728364959614522e-17,0.12683786112348888,-9.796365106336091e-18,-0.12683786112348894,0.46290577065730415,0.7559341869397991,0.46290577065730404,1000.0,147.85714285714295,[0.26321819]
-6.001086156231359e-18,0.14331510355122157,-5.911704741551635e-18,0.14331510355122157,2.3526253256023874e-18,0.03059247587717558,-5.911704741551635e-18,0.03059247587717558,-1.7030949431258926e-17,0.14654391316664406,-1.419788882654367e-17,-0.1465439131666441,0.5069965372134556,0.6970717484643385,0.5069965372134555,1000.0,147.85714285714295,[0.26585179]
-4.5555185526234885e-18,0.15525444214632345,-2.9498050084138072e-18,0.15525444214632345,2.2333229270102424e-18,0.02726745961776426,-2.9498050084138072e-18,0.02726745961776426,-1.840282103255261e-17,0.15763075892785805,-1.67877155539538e-17,-0.15763075892785813,0.5246216754775062,0.6704805703660239,0.5246216754775062,1000.0,147.85714285714295,[0.26132474]
-3.2376725986774813e-18,0.16234413128259784,4.381953105847865e-20,0.16234413128259784,2.033859592628926e-18,0.025481658654778194,4.381953105847865e-20,0.025481658654778194,-1.9808539210150738e-17,0.16433177382873956,-1.938954160219906e-17,-0.16433177382873945,0.5331477011732503,0.6568919678815974,0.5331477011732503,1000.0,147.85714285714295,[0.26774407]
-1.9452963629725937e-18,0.16658556734511304,3.0607687026483817e-18,0.16658556734511304,1.7887389903619792e-18,0.024624207317244816,3.0607687026483817e-18,0.024624207317244816,-2.124276244524775e-17,0.16839567344114237,-2.172182769580217e-17,-0.16839567344114242,0.5372770757235401,0.650128208743416,0.5372770757235402,1000.0,147.85714285714295,[0.26774407]
-6.921590939853844e-19,0.16885107353037715,6.096559445929806e-18,0.16885107353037715,1.501250817505526e-18,0.02443302802400661,6.096559445929806e-18,0.02443302802400661,-2.2682055883909405e-17,0.1706096652912218,-2.390496291922213e-17,-0.17060966529122176,0.5386768154956095,0.6478075153122403,0.5386768154956094,1000.0,147.85714285714295,[0.26774407]
5.552466405374449e-19,0.1694968861600861,9.141663932715847e-18,0.1694968861600861,1.198636819967928e-18,0.024812986834299087,9.141663932715847e-18,0.024812986834299087,-2.4132837827303657e-17,0.1713034697068459,-2.6198383843677572e-17,-0.1713034697068458,0.5379178443584477,0.6490676277873687,0.5379178443584478,1000.0,147.85714285714295,[0.26774407]
1.746184890544342e-18,0.16855726120038106,1.2203600562690366e-17,0.16855726120038106,8.655804045392707e-19,0.02578053529945286,1.2203600562690366e-17,0.02578053529945286,-2.5600483708641183e-17,0.170517407626611,-2.868705455071398e-17,-0.1705174076266111,0.5349636902479863,0.6539324890480003,0.5349636902479864,1000.0,147.85714285714295,[0.26774407]
2.932714267886331e-18,0.16575539653590904,1.527701509914588e-17,0.16575539653590904,5.08716076720112e-19,0.02746897090982902,1.527701509914588e-17,0.02746897090982902,-2.708619748930355e-17,0.16801605829093086,-3.106162391461961e-17,-0.1680160582909308,0.5291630000567131,0.6633046349468377,0.5291630000567132,1000.0,147.85714285714295,[0.26774407]
4.0472094487647525e-18,0.16033966767389368,1.8380954719854924e-17,0.16033966767389368,1.0722463107068162e-19,0.030198408870734,1.8380954719854924e-17,0.030198408870734,-2.860123027318755e-17,0.16315867408170084,-3.4255602459361625e-17,-0.1631586740817009,0.5187497919842885,0.6795566986149973,0.5187497919842886,1000.0,147.85714285714295,[0.26132474]
5.112664399847355e-18,0.15053965553516055,2.152841712057769e-17,0.15053965553516055,-3.733424894042509e-19,0.03469086545977651,2.152841712057769e-17,0.03469086545977651,-3.015777428893191e-17,0.15448509324524842,-3.781792094098387e-17,-0.15448509324524845,0.4989539259987291,0.7085830646162168,0.4989539259987291,1000.0,147.85714285714295,[0.27937362]
6.022994861935438e-18,0.13170529622856336,2.4761433907328026e-17,0.13170529622856336,-1.0308792150681923e-18,0.042765949236461924,2.4761433907328026e-17,0.042765949236461924,-3.181227158524873e-17,0.13847458780855526,-4.24790194697354e-17,-0.1384745878085552,0.4532707349047174,0.7675228216527993,0.4532707349047175,1000.0,147.85714285714295,[0.27600893]
6.511090980345829e-18,0.08771036414277963,2.823198506785121e-17,0.08771036414277963,-2.1832907008648194e-18,0.06014054876736375,2.823198506785121e-17,0.06014054876736375,-3.3732149101587876e-17,0.10634845360464182,-5.3904644935645387e-17,-0.10634845360464171,0.2810501880567188,0.9176173405001489,0.2810501880567183,1000.0,147.85714285714295,[0.26423259]
5.098403392496635e-18,-0.07248726758458583,3.259690784320571e-17,-0.07248726758458583,-7.132828931760912e-18,0.09850153696276337,3.259690784320571e-17,0.09850153696276337,-3.712229238705965e-17,0.12229863754721874,1.89170713526505e-17,-0.12229863754721872,0.6578693022784583,0.36662782523876863,0.6578693022784583,1000.0,147.85714285714295,[0.24932352]
5.323510256445284e-18,-0.06573276004897989,3.320396297685646e-17,-0.06573276004897989,-7.180050501582456e-18,0.1001030151798779,3.320396297685646e-17,0.1001030151798779,-3.717237124551211e-17,0.11975562363312892,3.272107013281643e-17,-0.119755623633129,0.692392433013816,0.2029419557667069,0.6923924330138163,1000.0,134.9999999999996,[0.13913878]
6.594147358471666e-18,0.09591642708362391,2.9915321266592265e-17,0.09591642708362391,-2.320209513263718e-18,0.06219756587481967,2.9915321266592265e-17,0.06219756587481967,-3.3268136450109544e-17,0.11431753227410343,-4.949934627668901e-17,-0.11431753227410348,0.14747895855534263,0.9780081357365402,0.14747895855534285,1000.0,134.9999999999996,[0.27021001]
5.962067633146926e-18,0.13864020978662192,2.752174853611455e-17,0.13864020978662192,-1.2444000703695414e-18,0.04465640078199861,2.752174853611455e-17,0.04465640078199861,-3.08661868615685e-17,0.14565473524908484,-4.2295600943965536e-17,-0.14565473524908473,0.3226253126748669,0.8898459502874015,0.32262531267486705,1000.0,134.9999999999996,[0.26462064]
4.965085865990851e-18,0.15734344923688245,2.5384140538939197e-17,0.15734344923688245,-6.802826932442895e-19,0.03667465529492617,2.5384140538939197e-17,0.03667465529492617,-2.876418051116228e-17,0.1615611071971256,-3.833459366946487e-17,-0.1615611071971255,0.373446295446352,0.8491617801307312,0.37344629544635194,1000.0,134.9999999999996,[0.25947187]
3.819932062888764e-18,0.16754084417530987,2.3327904857710702e-17,0.16754084417530987,-2.8627997217424304e-19,0.03239588792862896,2.3327904857710702e-17,0.03239588792862896,-2.6776821807246213e-17,0.17064415613099612,-3.455085780516997e-17,-0.17064415613099596,0.3959847184656434,0.8284879030398514,0.3959847184656435,1000.0,134.9999999999996,[0.2620474]
2.6406264538362e-18,0.17365867053254883,2.1318320030455184e-17,0.17365867053254883,4.613736868303466e-20,0.02994935780799819,2.1318320030455184e-17,0.02994935780799819,-2.4841428450567104e-17,0.17622229678517937,-3.1316952668605746e-17,-0.17622229678517937,0.407750084257883,0.8169943314218149,0.4077500842578831,1000.0,134.9999999999996,[0.27448942]
1.41360327678729e-18,0.17739007558570247,1.934481377129072e-17,0.17739007558570247,3.034014476313543e-19,0.028595337407975516,1.934481377129072e-17,0.028595337407975516,-2.293303943896055e-17,0.17968008303030458,-2.8395521399566477e-17,-0.17968008303030464,0.41405462327349263,0.8106278664662915,0.41405462327349274,1000.0,134.9999999999996,[0.26583051]
1.5076648793728387e-19,0.17947382749356577,1.7376159921620555e-17,0.17947382749356577,5.552360422858466e-19,0.02801069596798842,1.7376159921620555e-17,0.02801069596798842,-2.1049340114277484e-17,0.1816465079317554,-2.6011656157550577e-17,-0.18164650793175538,0.4169172676374281,0.8076880486248896,0.41691726763742837,1000.0,134.9999999999996,[0.29820544]
-1.1543954784958355e-18,0.18021552017281778,1.5427720117223895e-17,0.18021552017281778,7.68951905416605e-19,0.02806862405732203,1.5427720117223895e-17,0.02806862405732203,-1.9184382737720914e-17,0.18238827091573223,-2.3322702057503035e-17,-0.18238827091573231,0.41709616345282896,0.8075033008389886,0.41709616345282885,1000.0,134.9999999999996,[0.35689859]
-2.4476195743285896e-18,0.17965316989755017,1.3495104562288711e-17,0.17965316989755017,9.677411909962674e-19,0.028769082001730093,1.3495104562288711e-17,0.028769082001730093,-1.7344377884727466e-17,0.18194208290953554,-2.1144163233247197e-17,-0.18194208290953545,0.4146486768837325,0.8100203389527572,0.41464867688373275,1000.0,134.9999999999996,[0.35689859]
-3.775555063796213e-18,0.17756933836149988,1.1580150993642151e-17,0.17756933836149988,1.1175591354155003e-18,0.030238800802838046,1.1580150993642151e-17,0.030238800802838046,-1.5520668903391618e-17,0.18012566446826667,-1.897555850077365e-17,-0.1801256644682667,0.4089659793721848,0.8157779449288265,0.4089659793721849,1000.0,134.9999999999996,[0.26821633]
-5.1382358613038194e-18,0.17335921422966347,9.696206319434583e-18,0.17335921422966347,1.2380686748646956e-18,0.03280083622361615,9.696206319434583e-18,0.03280083622361615,-1.3741324203246405e-17,0.1764350079074298,-1.716145409938097e-17,-0.17643500790742978,0.3983290495268166,0.8262372156990543,0.39832904952681675,1000.0,134.9999999999996,[0.26937932]
-6.5394264658191394e-18,0.16558601005355192,7.84724647375312e-18,0.16558601005355192,1.2739257394973447e-18,0.03719484977640902,7.84724647375312e-18,0.03719484977640902,-1.2028051123215534e-17,0.1697120607833888,-1.4803135563639207e-17,-0.1697120607833887,0.3782617442876172,0.8448882207824765,0.3782617442876171,1000.0,134.9999999999996,[0.27030129]
-8.069788560814973e-18,0.1504419641794593,6.093529405797842e-18,0.1504419641794593,1.1503776813149065e-18,0.045291542337460876,6.093529405797842e-18,0.045291542337460876,-1.0447192598654269e-17,0.15711177038490695,-1.404184187127073e-17,-0.157111770384907,0.33463572329555497,0.880930113793893,0.33463572329555513,1000.0,134.9999999999996,[0.26847162]
-9.886108441136461e-18,0.11444241642300311,4.58422815637822e-18,0.11444241642300311,5.057628739122358e-19,0.06294741411430016,4.58422815637822e-18,0.06294741411430016,-9.246037634106577e-18,0.13061180505763353,-1.1464115803296867e-17,-0.13061180505763353,0.19712996955359094,0.9603538671800101,0.19712996955359083,1000.0,134.9999999999996,[0.2578481]
-1.3201716342767465e-17,-0.028321031733027118,3.979885115311485e-18,-0.028321031733027118,-3.938629831227224e-18,0.10096781574103438,3.979885115311485e-18,0.10096781574103438,-9.92998944205421e-18,0.10486458245727481,-3.3912188765519813e-19,-0.1048645824572749,0.6164562164100466,0.4898606602890452,0.6164562164100468,1000.0,134.9999999999996,[0.25693064]
-1.3056096365806333e-17,-0.0215443884602564,3.0893982896035457e-18,-0.0215443884602564,-3.9369998201314e-18,0.09947341417003397,3.0893982896035457e-18,0.09947341417003397,-9.084005204720262e-18,0.1017797661658227,-2.7312233670847615e-17,-0.10177976616582268,0.6647906471800655,0.34074446560996313,0.6647906471800651,1000.0,122.14285714285755,[0.21710964]
-1.0062972063809487e-17,0.12271741994092993,2.0468088013880623e-18,0.12271741994092993,4.946490173736411e-19,0.06122287421643828,2.0468088013880623e-18,0.06122287421643828,-6.109559261340324e-18,0.13714155272666406,-6.939616026614137e-18,-0.13714155272666395,0.06935236858359714,0.9951786261489391,0.06935236858359714,1000.0,122.14285714285755,[0.27534813]
-8.511616952047669e-18,0.1574922235160634,1.905112032212344e-18,0.1574922235160634,1.1239488213041368e-18,0.04395732637859151,1.905112032212344e-18,0.04395732637859151,-5.047209597976034e-18,0.16351161124026548,-5.9269476322985824e-18,-0.16351161124026548,0.20139731282324583,0.9585813709723091,0.2013973128232457,1000.0,122.14285714285755,[0.28802448]
-7.257614865730035e-18,0.17255139504348876,1.9908794430970354e-18,0.17255139504348876,1.2460216028640867e-18,0.035990356878130625,1.9908794430970354e-18,0.035990356878130625,-4.391837035288473e-18,0.17626482836819535,-5.465803499619985e-18,-0.1762648283681953,0.2460282724023618,0.9375180949493289,0.24602827240236189,1000.0,122.14285714285755,[0.29826796]
-6.094783178961925e-18,0.18076811775046467,2.1785416243236052e-18,0.18076811775046467,1.1989282718868822e-18,0.03160513166714222,2.1785416243236052e-18,0.03160513166714222,-3.887184328231163e-18,0.18351020882431385,-4.812968116936217e-18,-0.18351020882431382,0.2674664952380354,0.9257015436144439,0.2674664952380355,1000.0,122.14285714285755,[0.54017592]
-4.9840440184499535e-18,0.1857263712680302,2.398736463612716e-18,0.1857263712680302,1.0803380758021454e-18,0.028982004197471305,2.398736463612716e-18,0.028982004197471305,-3.453756111215308e-18,0.18797404488836345,-4.150928961048238e-18,-0.18797404488836347,0.2793932278254631,0.9186287871009365,0.2793932278254631,1000.0,122.14285714285755,[0.54203955]
-3.868972292684583e-18,0.1887856654176913,2.6437561175331887e-18,0.1887856654176913,9.040896816344032e-19,0.02739889675280832,2.6437561175331887e-18,0.02739889675280832,-3.0680783167757538e-18,0.19076353689966954,-3.97825732391881e-18,-0.19076353689966943,0.28630962846050007,0.914359662989144,0.2863096284605002,1000.0,122.14285714285755,[0.54150462]
-2.7994815273933338e-18,0.19053794501997431,2.9106081697462326e-18,0.19053794501997431,7.202407513329145e-19,0.026535625403561882,2.9106081697462326e-18,0.026535625403561882,-2.709266030312821e-18,0.19237683828359592,-3.5050514250141015e-18,-0.1923768382835961,0.29002198607774043,0.9120167186971113,0.29002198607774043,1000.0,122.14285714285755,[0.54095135]
-1.7305376318845593e-18,0.19122942795623685,3.1863970651414286e-18,0.19122942795623685,4.833451871751462e-19,0.026258821905243205,3.1863970651414286e-18,0.026258821905243205,-2.37731501252587e-18,0.19302388412919502,-3.236755041341809e-18,-0.19302388412919488,0.29125608095656347,0.9112298231574993,0.29125608095656347,1000.0,122.14285714285755,[0.54095135]
-6.73535846276789e-19,0.1908943569086737,3.4802207403252216e-18,0.1908943569086737,2.311147478234561e-19,0.026551964268664994,3.4802207403252216e-18,0.026551964268664994,-2.0687013447584544e-18,0.19273209983316358,-2.9784345013291474e-18,-0.19273209983316358,0.29013233229585,0.9119465222879798,0.2901323322958501,1000.0,122.14285714285755,[0.54095135]
3.7694165564704567e-19,0.18936592225904078,3.7924692109564315e-18,0.18936592225904078,-4.2691877088415734e-20,0.027510117977333864,3.7924692109564315e-18,0.027510117977333864,-1.8016010285017194e-18,0.1913537538282013,-3.0070133015146343e-18,-0.1913537538282014,0.2862193192590171,0.9144162086084267,0.2862193192590172,1000.0,122.14285714285755,[0.54150462]
1.3785781749051102e-18,0.18617285453391025,4.124686112380356e-18,0.18617285453391025,-3.7117435208352136e-19,0.029395296328449578,4.124686112380356e-18,0.029395296328449578,-1.585778232953212e-18,0.18847921692203068,-2.870094859476408e-18,-0.18847921692203073,0.27822269465517124,0.9193390366766936,0.27822269465517124,1000.0,122.14285714285755,[0.54203955]
2.3612141486976786e-18,0.1801866049801117,4.499068820178983e-18,0.1801866049801117,-7.673560736821856e-19,0.0328183096461083,4.499068820178983e-18,0.0328183096461083,-1.4429477158127617e-18,0.18315090516371096,-3.1114833915693933e-18,-0.18315090516371094,0.26283083849847155,0.9283533274935684,0.2628308384984718,1000.0,122.14285714285755,[0.54017592]
3.2722101809861376e-18,0.16838045827101134,4.9308282100025354e-18,0.16838045827101134,-1.3472254996798988e-18,0.03933043877258172,4.9308282100025354e-18,0.03933043877258172,-1.4778244421725648e-18,0.17291287442408546,-3.672632875660109e-18,-0.17291287442408546,0.23015765465320967,0.9455447678502948,0.23015765465320964,1000.0,122.14285714285755,[0.29922086]
3.9921918050674724e-18,0.13971028688786397,5.5827449478001694e-18,0.13971028688786397,-2.432156195334038e-18,0.05376784624264041,5.5827449478001694e-18,0.05376784624264041,-1.995103906184132e-18,0.14969951754051017,-4.953880057971144e-18,-0.14969951754051017,0.13605504550377837,0.9813144496979189,0.1360550455037785,1000.0,122.14285714285755,[0.29370206]
3.5661336122131e-18,0.012510531935802639,6.963544913674726e-18,0.012510531935802639,-7.316050180611489e-18,0.08391422638470422,6.963544913674726e-18,0.08391422638470422,-4.7678290875923075e-18,0.08484168078874986,-7.739647417506217e-19,-0.08484168078874986,0.5367054328867273,0.6510718521175228,0.5367054328867273,1000.0,122.14285714285755,[0.24020684]
4.6555194154047445e-18,0.017967319201155282,6.839369968910247e-18,0.017967319201155282,-7.367570136325028e-18,0.079618504577714,6.839369968910247e-18,0.079618504577714,-4.871942071993718e-18,0.08162065198506847,1.0928063307935439e-17,-0.08162065198506852,0.5996441979997333,0.5299562921699421,0.5996441979997331,1000.0,109.28571428571402,[0.25534871]
6.766021324292195e-18,0.14641697976541634,5.603475260404659e-18,0.14641697976541634,-2.588881947666921e-18,0.04859906177737052,5.603475260404659e-18,0.04859906177737052,-1.8228759587602184e-18,0.15427184049354892,-4.581799729011911e-18,-0.15427184049354903,0.011397444687638507,0.9998700898162642,0.01139744468763861,1000.0,109.28571428571402,[0.30363236]
7.758704440599985e-18,0.1741526689828861,5.084120393773848e-18,0.1741526689828861,-1.6134927933610048e-18,0.035028763708395805,5.084120393773848e-18,0.035028763708395805,-1.0433597161503924e-18,0.17764055393068706,-2.776286045376579e-18,-0.17764055393068698,0.09734794363665823,0.9904780440471298,0.09734794363665823,1000.0,109.28571428571402,[0.30275815]
8.599451021994036e-18,0.18593814476185172,4.747772823789472e-18,0.18593814476185172,-1.1408534300379172e-18,0.028654292687626925,4.747772823789472e-18,0.028654292687626925,-7.815150728612722e-19,0.1881330969471016,-2.14082581883331e-18,-0.18813309694710165,0.12916303878572502,0.9831753754154315,0.1291630387857251,1000.0,109.28571428571402,[0.58034307]
9.355551487522499e-18,0.19232722841617814,4.474357804274159e-18,0.19232722841617814,-8.418586029430059e-19,0.025030714546959022,4.474357804274159e-18,0.025030714546959022,-7.057926848414834e-19,0.19394921876867685,-1.6986948245682189e-18,-0.19394921876867688,0.14545269644090872,0.9786148507948045,0.14545269644090872,1000.0,109.28571428571402,[0.57471986]
1.00975266033207e-17,0.19616717354741872,4.2359307265213585e-18,0.19616717354741872,-6.15307992170373e-19,0.022749883035647556,4.2359307265213585e-18,0.022749883035647556,-7.011570095923714e-19,0.19748194134076852,-1.5967344998084236e-18,-0.19748194134076846,0.1551003307550958,0.9756473619086558,0.1551003307550958,1000.0,109.28571428571402,[0.56277469]
1.0814536477653862e-17,0.19852453853741817,4.010548904182805e-18,0.19852453853741817,-4.392253281619997e-19,0.021250389355268302,4.010548904182805e-18,0.021250389355268302,-7.632643536963582e-19,0.19965863730188416,-1.4416138773626414e-18,-0.19965863730188416,0.16117940823496466,0.9736746873171002,0.1611794082349647,1000.0,109.28571428571402,[0.56647052]
1.152883319957785e-17,0.1998602509907621,3.806445059100084e-18,0.1998602509907621,-2.976028792256149e-19,0.020278415802099048,3.806445059100084e-18,0.020278415802099048,-8.644410924924496e-19,0.20088637104973855,-1.5110174027414494e-18,-0.20088637104973864,0.16497648528111206,0.9724019326433806,0.16497648528111206,1000.0,109.28571428571402,[0.56465531]
1.2234984105323357e-17,0.20036417450653246,3.611690527903908e-18,0.20036417450653246,-1.7606146750517658e-19,0.019720453892370433,3.611690527903908e-18,0.019720453892370433,-9.968212036443608e-19,0.20133230919900885,-1.5746061835330891e-18,-0.2013323091990088,0.16704528754229858,0.9716952937108531,0.16704528754229858,1000.0,109.28571428571402,[0.5725224]
1.2927560770421718e-17,0.20005998793618193,3.419391876559357e-18,0.20005998793618193,-7.51439884388095e-20,0.019546775382521725,3.419391876559357e-18,0.019546775382521725,-1.1528036211057655e-18,0.2010126244813496,-1.703941490825304e-18,-0.20101262448134954,0.16753420668343175,0.9715269317841405,0.1675342066834317,1000.0,109.28571428571402,[0.5725224]
1.3607654814787557e-17,0.19881274498203547,3.244022806078914e-18,0.19881274498203547,-1.8454934225399366e-20,0.019801955323857305,3.244022806078914e-18,0.019801955323857305,-1.3606088393201321e-18,0.19979645893243436,-1.86373059918415e-18,-0.19979645893243428,0.16624364931393784,0.9719702146288067,0.16624364931393784,1000.0,109.28571428571402,[0.5725224]
1.4280684064637944e-17,0.1962449956887264,3.0761291461242845e-18,0.1962449956887264,4.315608050842284e-21,0.020635073827290958,3.0761291461242845e-18,0.020635073827290958,-1.6202373882000406e-18,0.19732689782370272,-2.1271659189213875e-18,-0.19732689782370272,0.16246730095439915,0.9732465012735392,0.16246730095439918,1000.0,109.28571428571402,[0.56647052]
1.493092495390159e-17,0.19144998639480035,2.935102318927726e-18,0.19144998639480035,-6.597954780358367e-20,0.02240711595279173,2.935102318927726e-18,0.02240711595279173,-1.9707560128746955e-18,0.19275677974040528,-2.4191618865674566e-18,-0.19275677974040528,0.1543739330098798,0.9758777472686432,0.15437393300987984,1000.0,109.28571428571402,[0.56277469]
1.5545341633112544e-17,0.18196609745485587,2.8420794112378868e-18,0.18196609745485587,-2.8631620494689485e-19,0.026042696670699902,2.8420794112378868e-18,0.026042696670699902,-2.5331718407058346e-18,0.183820245546654,-2.962275817024384e-18,-0.18382024554665394,0.13662939131129548,0.9811548393907099,0.13662939131129542,1000.0,109.28571428571402,[0.57950167]
1.603168056140793e-17,0.15850532622107852,2.870612554103506e-18,0.15850532622107852,-1.0229707997255143e-18,0.03439978302033985,2.870612554103506e-18,0.03439978302033985,-3.65178338250505e-18,0.16219520187815972,-3.631416271908516e-18,-0.1621952018781597,0.08667593227127894,0.9924588482802746,0.08667593227127889,1000.0,109.28571428571402,[0.29315888]
1.5653072860609626e-17,0.04191372202765518,3.309508541597088e-18,0.04191372202765518,-5.5569580106408965e-18,0.05069875580589123,3.309508541597088e-18,0.05069875580589123,-7.276537514046284e-18,0.06578087818262189,4.924899716987008e-18,-0.06578087818262185,0.3655932501804905,0.8559691296097834,0.36559325018049077,1000.0,109.28571428571402,[0.14205906]
1.508815637531386e-17,0.04496757673704987,3.0169487079163956e-18,0.04496757673704987,-5.659583331713263e-18,0.04445156418781041,3.0169487079163956e-18,0.04445156418781041,-7.520731299210956e-18,0.0632299337050538,3.769199670023182e-18,-0.06322993370505378,0.4376763058099713,0.78541638808028,0.4376763058099716,1000.0,96.42857142857196,[0.15727679]
1.41030531285492e-17,0.16230961874965916,2.566230966916523e-18,0.16230961874965916,-1.3305721357480715e-18,0.026807587809305596,2.566230966916523e-18,0.026807587809305596,-4.114948703768095e-18,0.16450853808484636,-4.453108237829737e-18,-0.1645085380848463,0.03638989215205178,0.9986748978012434,0.036389892152051795,1000.0,96.42857142857196,[0.2880634]
1.2258425318208556e-17,0.18530762929723843,2.496701269783787e-18,0.18530762929723843,-7.983469510934589e-19,0.019620725562268012,2.496701269783787e-18,0.019620725562268012,-3.2313147075436398e-18,0.1863434741206479,-3.625146101112572e-18,-0.18634347412064795,0.004745264663567341,0.9999774822097472,0.004745264663567341,1000.0,96.42857142857196,[0.56970287]
1.030798244425981e-17,0.1948354531280785,2.518331903861555e-18,0.1948354531280785,-7.761953467105601e-19,0.016101558062896128,2.518331903861555e-18,0.016101558062896128,-2.9282926773195055e-18,0.19549965209093467,-3.2596063196464536e-18,-0.19549965209093467,0.021029988406681136,0.999557641747203,0.021029988406681157,1000.0,96.42857142857196,[0.57386119]
8.321181208377815e-18,0.19990909072289464,2.5748167430144798e-18,0.19990909072289464,-9.127642843285684e-19,0.013957426986412466,2.5748167430144798e-18,0.013957426986412466,-2.822519476805216e-18,0.20039574427051987,-3.1136908946627847e-18,-0.20039574427051976,0.030038742138774333,0.9990972665068405,0.030038742138774333,1000.0,96.42857142857196,[0.57275026]
6.296940588899539e-18,0.2028905676813285,2.6489615812838562e-18,0.2028905676813285,-1.1404959377636908e-18,0.012470588256635261,2.6489615812838562e-18,0.012470588256635261,-2.822015529941715e-18,0.20327345627385363,-3.110785728935677e-18,-0.2032734562738536,0.03591430634613431,0.9987093296847447,0.035914306346134336,1000.0,96.42857142857196,[0.57209521]
4.2726893711696635e-18,0.204652210401854,2.7271579986611314e-18,0.204652210401854,-1.408926202117872e-18,0.011351496936376592,2.7271579986611314e-18,0.011351496936376592,-2.8803869903572885e-18,0.20496678683401695,-3.1560318336280674e-18,-0.20496678683401695,0.04013448943584883,0.9983879233621806,0.040134489435848845,1000.0,96.42857142857196,[0.60238415]
2.2527897955460654e-18,0.20556569641976774,2.810508213312532e-18,0.20556569641976774,-1.705303062350777e-18,0.010462974280302453,2.810508213312532e-18,0.010462974280302453,-2.9837962508525693e-18,0.20583179874677865,-3.2533536243741456e-18,-0.20583179874677868,0.04335038974034093,0.9981189745810475,0.04335038974034096,1000.0,96.42857142857196,[0.60238415]
2.252849145755016e-19,0.20577873047922682,2.902963518390208e-18,0.20577873047922682,-2.0355957849579507e-18,0.009733854360664705,2.902963518390208e-18,0.009733854360664705,-3.1178657233092556e-18,0.20600881980720373,-3.384076920067239e-18,-0.20600881980720379,0.04588191254103488,0.9978926295965683,0.04588191254103491,1000.0,96.42857142857196,[0.60238415]
-1.804933118804236e-18,0.20529974222213868,2.9942055554966284e-18,0.20529974222213868,-2.374843301535921e-18,0.009127091799287931,2.9942055554966284e-18,0.009127091799287931,-3.2891032641213047e-18,0.2055025254374973,-3.5524486358100314e-18,-0.20550252543749725,0.04788508024577465,0.9977043841638221,0.047885080245774654,1000.0,96.42857142857196,[0.60238415]
-3.860665383081807e-18,0.20400058536237264,3.0925862105647892e-18,0.20400058536237264,-2.7520764753409932e-18,0.008627943677206516,3.0925862105647892e-18,0.008627943677206516,-3.50131046613704e-18,0.20418295776163042,-3.766898076046014e-18,-0.20418295776163048,0.04940853747834592,0.9975558093903828,0.04940853747834594,1000.0,96.42857142857196,[0.56294387]
-5.916933918890254e-18,0.20153933836675744,3.1916775446416906e-18,0.20153933836675744,-3.179775741216296e-18,0.008243030863954441,3.1916775446416906e-18,0.008243030863954441,-3.781072513578306e-18,0.20170783937947093,-4.043641893742446e-18,-0.20170783937947095,0.05038964000591018,0.997457652414452,0.05038964000591019,1000.0,96.42857142857196,[0.57105441]
-7.973749324481175e-18,0.19710068347208318,3.294533145849567e-18,0.19710068347208318,-3.6782899409478496e-18,0.00801201665104745,3.294533145849567e-18,0.00801201665104745,-4.149829139515957e-18,0.1972634579337465,-4.426917782521783e-18,-0.19726345793374653,0.0505663749106946,0.9974397643250354,0.05056637491069462,1000.0,96.42857142857196,[0.57105441]
-1.0065844189992636e-17,0.18846023577609988,3.403018207111117e-18,0.18846023577609988,-4.3553313576580056e-18,0.008049719547120545,3.403018207111117e-18,0.008049719547120545,-4.74214952396954e-18,0.18863207164628845,-5.042045830262065e-18,-0.18863207164628842,0.049113250166515916,0.997584972479118,0.0491132501665159,1000.0,96.42857142857196,[0.57105441]
-1.2255606183283399e-17,0.1670539015814157,3.527052228248875e-18,0.1670539015814157,-5.53702091092947e-18,0.00866985533104055,3.527052228248875e-18,0.00866985533104055,-5.922136600599877e-18,0.1672787267557788,-6.30857272549823e-18,-0.1672787267557788,0.04264637702805046,0.99817962965228,0.04264637702805049,1000.0,96.42857142857196,[0.28636756]
-1.5208859862767304e-17,0.054010666197619746,3.668586115545341e-18,0.054010666197619746,-1.051576911553388e-17,0.00789165026672292,3.668586115545341e-18,0.00789165026672292,-9.709464732184101e-18,0.054584157106645624,-1.0861198938583137e-17,-0.05458415710664565,0.023250010316822833,0.9994592908370683,0.02325001031682271,1000.0,96.42857142857196,[0.16336039]
-1.6253143746457072e-17,0.05405166913803124,3.6597669791950034e-18,0.05405166913803124,-1.0502318609474142e-17,0.0009301984443494842,3.6597669791950034e-18,0.0009301984443494842,-1.0236126828335675e-17,0.0540596726382344,-1.0363826295884987e-17,-0.05405967263823442,0.09124971833965957,0.9916385318279366,0.09124971833965949,1000.0,83.57142857142804,[0.16159526]
-1.5362952082056146e-17,0.1671882502857529,4.131521554107312e-18,0.1671882502857529,-5.505078310524666e-18,0.00015759491080468712,4.131521554107312e-18,0.00015759491080468712,-7.470921636349098e-18,0.1671883245617572,-7.478717566580501e-18,-0.16718832456175725,0.07983314648556938,0.9936062285656363,0.07983314648556936,1000.0,83.57142857142804,[0.27531197]
-1.524818361549777e-17,0.18868606810929148,4.581807681310841e-18,0.18868606810929148,-4.3027242200476944e-18,0.0007787454958436729,4.581807681310841e-18,0.0007787454958436729,-7.32960878883753e-18,0.18868767512238702,-7.367562204858265e-18,-0.18868767512238702,0.08207016365081048,0.9932416505949891,0.08207016365081045,1000.0,83.57142857142804,[0.56293141]
-1.523270804851388e-17,0.19741720885525632,5.018018701120593e-18,0.19741720885525632,-3.608136073035044e-18,0.0008128611387582116,5.018018701120593e-18,0.0008128611387582116,-7.778403410845812e-18,0.19741888231734778,-7.819851866255784e-18,-0.19741888231734772,0.08206333485049846,0.9932427790557704,0.08206333485049841,1000.0,83.57142857142804,[0.56293141]
-1.5245996136367873e-17,0.2019459851707824,5.443070921181066e-18,0.2019459851707824,-3.088953096797343e-18,0.000573648060857932,5.443070921181066e-18,0.000573648060857932,-8.432856045294637e-18,0.20194679992189923,-8.463834555165706e-18,-0.20194679992189926,0.0811664916863231,0.9933901556058766,0.08116649168632306,1000.0,83.57142857142804,[0.55999883]
-1.527448211701388e-17,0.20449680531468128,5.871259793160676e-18,0.20449680531468128,-2.6381412963145354e-18,0.00017592100771409328,5.871259793160676e-18,0.00017592100771409328,-9.197733982796842e-18,0.2044968809838224,-9.207840098140372e-18,-0.20449688098382243,0.07977528364318513,0.993615523348593,0.07977528364318509,1000.0,83.57142857142804,[0.55188829]
-1.5302965978009566e-17,0.20588496006533033,6.290647247741838e-18,0.20588496006533033,-2.2406428081938504e-18,-0.0003406546997406012,6.290647247741838e-18,-0.0003406546997406012,-1.0022842843957548e-17,0.20588524188665663,-1.0002040359887158e-17,-0.2058852418866567,0.07800811994688027,0.9938961044519222,0.07800811994688024,1000.0,83.57142857142804,[0.59718524]
-1.534827138394213e-17,0.20645232752154108,6.711254759799186e-18,0.20645232752154108,-1.8636284882842837e-18,-0.0009694504114639287,6.711254759799186e-18,-0.0009694504114639287,-1.088593583884669e-17,0.20645460366182677,-1.0823005050262437e-17,-0.20645460366182677,0.07587047867300048,0.9942270067403416,0.07587047867300044,1000.0,83.57142857142804,[0.59938115]
-1.5381094169142177e-17,0.2063270050187126,7.12395975179131e-18,0.2063270050187126,-1.5320591400330178e-18,-0.0017251956161704186,7.12395975179131e-18,-0.0017251956161704186,-1.178348533941976e-17,0.20633421747229877,-1.1664606010709192e-17,-0.2063342174722988,0.07329300728992624,0.9946136285838827,0.0732930072899262,1000.0,83.57142857142804,[0.60182524]
-1.5435622173615614e-17,0.20550051328077792,7.5360197739346e-18,0.20550051328077792,-1.2105287206519855e-18,-0.0026449168188863916,7.5360197739346e-18,-0.0026449168188863916,-1.2722003441371358e-17,0.20551753342146276,-1.2528603951662917e-17,-0.20551753342146273,0.07012136205185017,0.9950708463059235,0.07012136205185013,1000.0,83.57142857142804,[0.60183062]
-1.550480332074891e-17,0.20382510071350166,7.944416609771534e-18,0.20382510071350166,-9.191141605346387e-19,-0.003799756053039123,7.944416609771534e-18,-0.003799756053039123,-1.3701355016993602e-17,0.20386051561528945,-1.3405756444664739e-17,-0.20386051561528948,0.06606019527484261,0.9956264867913566,0.06606019527484255,1000.0,83.57142857142804,[0.55684688]
-1.556096133631817e-17,0.20092905046323417,8.342045025832909e-18,0.20092905046323417,-6.787072631441969e-19,-0.005326864083911159,8.342045025832909e-18,-0.005326864083911159,-1.4735510681543418e-17,0.20099964875846266,-1.4294525985613152e-17,-0.20099964875846268,0.06052122033054239,0.9963304490877529,0.06052122033054232,1000.0,83.57142857142804,[0.5642495]
-1.5645880887074995e-17,0.1959400150145356,8.723970575533143e-18,0.1959400150145356,-5.103340323047429e-19,-0.0075157561771769885,8.723970575533143e-18,-0.0075157561771769885,-1.5871816004386055e-17,0.1960841045949702,-1.520380423762479e-17,-0.1960841045949702,0.05218020908601132,0.9972735089028889,0.052180209086011266,1000.0,83.57142857142804,[0.5642495]
-1.5767699310596585e-17,0.18649599888755117,9.074423325450207e-18,0.18649599888755117,-5.153316378459381e-19,-0.011084152606955998,9.074423325450207e-18,-0.011084152606955998,-1.7211473690034017e-17,0.18682509478140183,-1.613707288791694e-17,-0.18682509478140183,0.03734320148428625,0.9986045116089792,0.03734320148428618,1000.0,83.57142857142804,[0.56594535]
-1.5985018579270778e-17,0.16358122455053264,9.329796345118022e-18,0.16358122455053264,-1.0327082083377751e-18,-0.018324726142734674,9.329796345118022e-18,-0.018324726142734674,-1.913066020036895e-17,0.1646044124975331,-1.7071795709679993e-17,-0.16460441249753313,0.0004544177502480903,0.999999793504487,0.0004544177502480076,1000.0,83.57142857142804,[0.28527008]
-1.708085659803549e-17,0.046322903546631496,9.197544274093232e-18,0.046322903546631496,-5.345107241074228e-18,-0.03602709514183646,9.197544274093232e-18,-0.03602709514183646,-2.3580267245294792e-17,0.05868358354215817,-1.899131390272836e-17,-0.05868358354215824,0.3688833793347725,0.8531413159032427,0.3688833793347725,1000.0,83.57142857142804,[0.13447318]
-1.6479564793603915e-17,0.043337224623426054,8.510574084090393e-18,0.043337224623426054,-5.109673838202595e-18,-0.04232375319339825,8.510574084090393e-18,-0.04232375319339825,-2.3178986174939588e-17,0.06057569745728868,-1.0797394936481835e-17,-0.060575697457288705,0.29924376166059674,0.9060388193749938,0.29924376166059663,1000.0,70.71428571428592,[0.15521831]
-1.3911981489783444e-17,0.1600030010984567,7.820825429952905e-18,0.1600030010984567,-3.4960439299615367e-19,-0.026070340946454763,7.820825429952905e-18,-0.026070340946454763,-1.8216988109551913e-17,0.16211299465982706,-1.5724386919247084e-17,-0.16211299465982712,0.12317013783984308,0.9847122596418858,0.12317013783984308,1000.0,70.71428571428592,[0.26217587]
-1.2215332827209723e-17,0.18353488950121571,6.718796111321664e-18,0.18353488950121571,6.429820142658021e-19,-0.01776278021512191,6.718796111321664e-18,-0.01776278021512191,-1.5770898392841543e-17,0.1843924402604244,-1.4479638567299374e-17,-0.18439244026042453,0.168162327949899,0.9713098696692736,0.16816232794989897,1000.0,70.71428571428592,[0.54426078]
-1.0646189609965259e-17,0.1930878453657875,5.492775065200448e-18,0.1930878453657875,1.1075893601369459e-18,-0.01418090557837761,5.492775065200448e-18,-0.01418090557837761,-1.3873677288856741e-17,0.19360788752275848,-1.3074510914793559e-17,-0.19360788752275848,0.18402928529936896,0.9655394576631279,0.18402928529936896,1000.0,70.71428571428592,[0.55395206]
-9.123169983676752e-18,0.19795008887186313,4.224021471200309e-18,0.19795008887186313,1.4001835056571874e-18,-0.012466779567793834,4.224021471200309e-18,-0.012466779567793834,-1.2190660627401378e-17,0.1983422755671883,-1.16452078697299e-17,-0.19834227556718834,0.19112977636679263,0.9627766185216383,0.19112977636679263,1000.0,70.71428571428592,[0.54473604]
-7.62348346810714e-18,0.20058327822613195,2.9308659328075814e-18,0.20058327822613195,1.6195233309986028e-18,-0.011695769876624941,2.9308659328075814e-18,-0.011695769876624941,-1.0595006413696257e-17,0.20092397203158424,-1.0249003543762998e-17,-0.2009239720315842,0.19429572450207588,0.9615083685961487,0.19429572450207594,1000.0,70.71428571428592,[0.5246946]
-6.1221733003926634e-18,0.20189416112732042,1.6181413189901798e-18,0.20189416112732042,1.7969457464871504e-18,-0.011506857966305392,1.6181413189901798e-18,-0.011506857966305392,-9.061076947212423e-18,0.20222180910465898,-8.869254665591126e-18,-0.20222180910465898,0.19518617019017379,0.9611476046544492,0.19518617019017376,1000.0,70.71428571428592,[0.51972786]
-4.646905156505617e-18,0.202260168354957,3.054329999846103e-19,0.202260168354957,1.935977055385887e-18,-0.011750921370021693,3.054329999846103e-19,-0.011750921370021693,-7.564182011113813e-18,0.20260123359945276,-7.515596374004906e-18,-0.20260123359945273,0.19443852181627197,0.9614506344414187,0.19443852181627197,1000.0,70.71428571428592,[0.5246946]
-3.1542770765004976e-18,0.20181622385405174,-1.0305920024498774e-18,0.20181622385405174,2.061443397107624e-18,-0.012383336271603448,-1.0305920024498774e-18,-0.012383336271603448,-6.096314626317884e-18,0.2021957843970154,-6.199306411809101e-18,-0.20219578439701535,0.19222811305341855,0.9623391840218521,0.19222811305341855,1000.0,70.71428571428592,[0.53022255]
-1.6893189117683122e-18,0.2005386276056521,-2.3609536966646495e-18,0.2005386276056521,2.1548958651825585e-18,-0.013433777017528889,-2.3609536966646495e-18,-0.013433777017528889,-4.665620609003118e-18,0.20098807807159869,-4.9658277768248554e-18,-0.2009880780715987,0.18841042502175404,0.9638480292485139,0.18841042502175406,1000.0,70.71428571428592,[0.55050698]
-2.2923594277136114e-19,0.19823749908118576,-3.709409454637898e-18,0.19823749908118576,2.2106349848573953e-18,-0.015015694248858822,-3.709409454637898e-18,-0.015015694248858822,-3.274538616862292e-18,0.1988053749669217,-3.80200314362351e-18,-0.19880537496692166,0.18246500927374476,0.9661330347221672,0.18246500927374476,1000.0,70.71428571428592,[0.55274149]
1.2096759588327544e-18,0.1944519021149717,-5.077468136201862e-18,0.1944519021149717,2.2119761935971647e-18,-0.017382845813298502,-5.077468136201862e-18,-0.017382845813298502,-1.9295759763767824e-18,0.19522731767019552,-2.8143077782422074e-18,-0.19522731767019552,0.17318799309828226,0.9695420764944546,0.1731879930982823,1000.0,70.71428571428592,[0.56266532]
2.6233555430315523e-18,0.1881152874330978,-6.48018800218375e-18,0.1881152874330978,2.1612256709496645e-18,-0.021096583174516896,-6.48018800218375e-18,-0.021096583174516896,-6.745575177308685e-19,0.18929455139458273,-2.0424304755869438e-18,-0.18929455139458273,0.1577040220320882,0.974812229544647,0.15770402203208822,1000.0,70.71428571428592,[0.53641762]
3.975171013000545e-18,0.17638045713822195,-7.950940694738252e-18,0.17638045713822195,1.9360880720713797e-18,-0.027565011814207428,-7.950940694738252e-18,-0.027565011814207428,3.857933153819756e-19,0.17852141478434883,-1.8754903726462694e-18,-0.17852141478434894,0.12768625184233004,0.9835611024135277,0.12768625184233012,1000.0,70.71428571428592,[0.27053846]
5.1446795982756075e-18,0.1486938164228902,-9.599676715247144e-18,0.1486938164228902,1.1994534152535797e-18,-0.04123310166647027,-9.599676715247144e-18,-0.04123310166647027,9.469241052068165e-19,0.15430495687255685,-3.1676158421073824e-18,-0.15430495687255694,0.04670153645904372,0.9978165828371113,0.046701536459043715,1000.0,70.71428571428592,[0.26099871]
5.235430307061836e-18,0.020292566842592463,-1.1959242372147774e-17,0.020292566842592463,-3.339867299539593e-18,-0.0723545536163874,-1.1959242372147774e-17,-0.0723545536163874,-7.693631175786204e-19,0.07514632191989014,-3.3994727152125823e-18,-0.07514632191989015,0.5795646819574994,0.5728957661346483,0.5795646819574991,1000.0,70.71428571428592,[0.20248192]
5.3322771301674275e-18,0.014866511977061861,-1.2457993906476059e-17,0.014866511977061861,-3.3610876488023604e-18,-0.07673899736646311,-1.2457993906476059e-17,-0.07673899736646311,2.461920855035384e-19,0.0781657654934317,-3.6287732228473875e-18,-0.07816576549343168,0.5162449058573849,0.6833611009946344,0.5162449058573854,1000.0,57.857142857142705,[0.20361786]
5.927669947759368e-18,0.1420977081580999,-1.0701133463335786e-17,0.1420977081580999,1.1659067694693678e-18,-0.046677078334549704,-1.0701133463335786e-17,-0.046677078334549704,3.52136871711205e-18,0.14956773818452368,-2.9305725000614167e-18,-0.14956773818452368,0.1705645021931613,0.9704717930899374,0.17056450219316144,1000.0,57.857142857142705,[0.25635778]
5.398461091748714e-18,0.17079570498966742,-9.672483325535013e-18,0.17079570498966742,1.8738694463256105e-18,-0.03232703063344326,-9.672483325535013e-18,-0.03232703063344326,4.546664773238239e-18,0.17382810403525972,9.949243042831922e-19,-0.17382810403525975,0.2582951567367612,0.9308959254463753,0.25829515673676134,1000.0,57.857142857142705,[0.28223978]
4.6766099360854325e-18,0.18262693200058452,-8.847573976460646e-18,0.18262693200058452,2.07949142471072e-18,-0.02590552166371628,-8.847573976460646e-18,-0.02590552166371628,5.079381650527942e-18,0.18445512284730764,2.628958361987241e-18,-0.18445512284730758,0.2883878728388626,0.9130525010090886,0.28838787283886275,1000.0,57.857142857142705,[0.51683603]
3.877993524445086e-18,0.18863573598960387,-8.095546816455858e-18,0.18863573598960387,2.1081501568577794e-18,-0.02257643090688292,-8.095546816455858e-18,-0.02257643090688292,5.441653206312571e-18,0.18998193631193672,3.6108761140734746e-18,-0.18998193631193672,0.30238854596488296,0.9039481923973783,0.3023885459648829,1000.0,57.857142857142705,[0.51816048]
3.0451829138478692e-18,0.1918489044188787,-7.388049137888492e-18,0.1918489044188787,2.079287938280032e-18,-0.020788442814276102,-7.388049137888492e-18,-0.020788442814276102,5.721985439689828e-18,0.19297191889331075,4.089847358441471e-18,-0.19297191889331064,0.30951487209588247,0.8991112767076936,0.3095148720958824,1000.0,57.857142857142705,[0.51688426]
2.1860462462803867e-18,0.19339502235431485,-6.6976614091796255e-18,0.19339502235431485,1.998402082081534e-18,-0.019930689444089565,-6.6976614091796255e-18,-0.019930689444089565,5.950693589531592e-18,0.19441930730548004,4.5412035002706725e-18,-0.19441930730548013,0.3128438861907058,0.8968039951662758,0.3128438861907058,1000.0,57.857142857142705,[0.51527024]
1.3255445239070386e-18,0.19374538557540566,-6.026995569435665e-18,0.19374538557540566,1.8728170399418957e-18,-0.01974108964078426,-6.026995569435665e-18,-0.01974108964078426,6.1562085255755586e-18,0.19474851745768976,4.900034595113401e-18,-0.19474851745768973,0.3135747493446156,0.8962933410144932,0.3135747493446157,1000.0,57.857142857142705,[0.51527024]
4.471783886395358e-19,0.19306682817402304,-5.36467254087177e-18,0.19306682817402304,1.7257292051343944e-18,-0.020124504048898022,-5.36467254087177e-18,-0.020124504048898022,6.323601550620312e-18,0.19411284296612577,5.169855046489821e-18,-0.19411284296612583,0.31210393598400443,0.8973194895278854,0.31210393598400443,1000.0,57.857142857142705,[0.51688426]
-4.662382843139827e-19,0.1913251335722404,-4.720867174934922e-18,0.1913251335722404,1.5612146652237495e-18,-0.021097376822485327,-4.720867174934922e-18,-0.021097376822485327,6.469906174634697e-18,0.19248482029818764,5.3082632974915546e-18,-0.1924848202981876,0.3083134968596094,0.8999364284817009,0.3083134968596093,1000.0,57.857142857142705,[0.51688426]
-1.366563996893237e-18,0.18827411394962648,-4.089373003010991e-18,0.18827411394962648,1.3728879736219638e-18,-0.022792996117964984,-4.089373003010991e-18,-0.022792996117964984,6.579706180843774e-18,0.1896487876458758,5.4807993937286806e-18,-0.18964878764587587,0.301518695882692,0.9045291327903163,0.3015186958826919,1000.0,57.857142857142705,[0.51816048]
-2.3057556177339077e-18,0.18332186164767775,-3.491098255853173e-18,0.18332186164767775,1.1292850409838988e-18,-0.025531466096930557,-3.491098255853173e-18,-0.025531466096930557,6.651193507524868e-18,0.18509122269580738,5.418881335540535e-18,-0.18509122269580736,0.2900192180465076,0.9120184791589394,0.29001921804650777,1000.0,57.857142857142705,[0.51683603]
-3.281778282529115e-18,0.1751089182506037,-2.927874443815806e-18,0.1751089182506037,8.039462723691496e-19,-0.030034790909288695,-2.927874443815806e-18,-0.030034790909288695,6.6503732028511565e-18,0.17766604041251477,5.2241850221147786e-18,-0.1776660404125147,0.2695733132244665,0.9244784787080591,0.2695733132244666,1000.0,57.857142857142705,[0.27362517]
-4.368311036390487e-18,0.16005139219558973,-2.4527777433814996e-18,0.16005139219558973,3.182654954980201e-19,-0.038122567850525986,-2.4527777433814996e-18,-0.038122567850525986,6.497211510052649e-18,0.16452895891989486,5.11957419172587e-18,-0.16452895891989483,0.22723646940062545,0.9469567962418757,0.22723646940062553,1000.0,57.857142857142705,[0.26868772]
-5.70248677639921e-18,0.12527632157900861,-2.218304144670241e-18,0.12527632157900861,-6.765118353256016e-19,-0.055511683323408355,-2.218304144670241e-18,-0.055511683323408355,5.935440585831268e-18,0.1370244639973664,2.6355457445982988e-18,-0.13702446399736648,0.10139203106170369,0.9896662629767498,0.10139203106170376,1000.0,57.857142857142705,[0.23507449]
-8.530117260037724e-18,-0.018986874296429056,-2.8773736424715917e-18,-0.018986874296429056,-5.478344353346009e-18,-0.09388905425720391,-2.8773736424715917e-18,-0.09388905425720391,3.462262267948132e-18,0.09578964403765458,-4.685149102261209e-18,-0.09578964403765461,0.6614138598886689,0.3536430571838566,0.6614138598886689,1000.0,57.857142857142705,[0.2079532]
-9.260514845789903e-18,-0.02578198018017183,-2.2239731494501907e-18,-0.02578198018017183,-5.580151158199622e-18,-0.09549229497229143,-2.2239731494501907e-18,-0.09549229497229143,3.1178614840086163e-18,0.09891152056806067,-2.1693055332449225e-17,-0.09891152056806066,0.6130442361818459,0.4983508091379348,0.6130442361818459,1000.0,45.00000000000011,[0.24496912]
-7.276657804201925e-18,0.11695979676483756,-1.0256881914353276e-19,0.11695979676483756,-9.73277717631238e-19,-0.057573976112523836,-1.0256881914353276e-19,-0.057573976112523836,4.3092151854781676e-18,0.13036240556493892,3.909404308644525e-18,-0.1303624055649389,0.22777203441037694,0.9466994246756023,0.22777203441037672,1000.0,45.00000000000011,[0.24561265]
-6.815031878983539e-18,0.1529344158721916,1.1074709246753345e-18,0.1529344158721916,-1.5613132289636138e-19,-0.040021783122817935,1.1074709246753345e-18,-0.040021783122817935,3.621070709198233e-18,0.1580844036662008,3.611603423668993e-18,-0.15808440366620088,0.357127680311181,0.8630872724766075,0.35712768031118114,1000.0,45.00000000000011,[0.24408472]
-6.639355260489527e-18,0.1680509553645292,2.06681777049314e-18,0.1680509553645292,1.4116871128983109e-19,-0.03203079615658012,2.06681777049314e-18,-0.03203079615658012,2.5519063700562126e-18,0.1710762856194726,3.084066771285098e-18,-0.1710762856194727,0.3975424142376469,0.8269945935519813,0.3975424142376469,1000.0,45.00000000000011,[0.25586465]
-6.5787163041444894e-18,0.1757942827962307,2.9424818815156472e-18,0.1757942827962307,2.681866370455644e-19,-0.027744564790573804,2.9424818815156472e-18,-0.027744564790573804,1.3464866690653498e-18,0.1779701962106562,2.0751972608582445e-18,-0.1779701962106563,0.4159396380909083,0.808695514349875,0.41593963809090817,1000.0,45.00000000000011,[0.26368805]
-6.581531199769007e-18,0.17997226014404313,3.770835927315764e-18,0.17997226014404313,3.2561220350598637e-19,-0.02529234850833558,3.770835927315764e-18,-0.02529234850833558,7.550194438654329e-20,0.18174079705564805,9.09815495407933e-19,-0.181740797055648,0.42555087834336125,0.798631892602836,0.4255508783433613,1000.0,45.00000000000011,[0.26414239]
-6.590281116288593e-18,0.18202174871254048,4.5806401182996034e-18,0.18202174871254048,3.4181904985016127e-19,-0.023934421274744357,4.5806401182996034e-18,-0.023934421274744357,-1.2362309380375442e-18,0.18358859857335413,-1.3256035187728488e-19,-0.1835885985733541,0.4305477809250523,0.793257345809685,0.4305477809250523,1000.0,45.00000000000011,[0.48760371]
-6.6492582667830116e-18,0.18254762583744003,5.358956638828498e-18,0.18254762583744003,3.135429145858017e-19,-0.023347653078491164,5.358956638828498e-18,-0.023347653078491164,-2.5695842537222365e-18,0.18403463968274988,-1.3181694497317566e-18,-0.18403463968274986,0.4325271944276009,0.7911007850844143,0.432527194427601,1000.0,45.00000000000011,[0.45945404]
-6.7148487262747914e-18,0.18176739381624613,6.132009007788499e-18,0.18176739381624613,2.7111599378734437e-19,-0.023405233942454157,6.132009007788499e-18,-0.023405233942454157,-3.9231759906591106e-18,0.18326808350242368,-2.4385581954491004e-18,-0.18326808350242366,0.43205056998289976,0.7916215067536398,0.4320505699828997,1000.0,45.00000000000011,[0.4680688]
-6.801771346583701e-18,0.1796431007595692,6.890426781028939e-18,0.1796431007595692,1.9944213787811994e-19,-0.024107122189985775,6.890426781028939e-18,-0.024107122189985775,-5.295123899364302e-18,0.1812534054598579,-3.487632318605738e-18,-0.18125340545985785,0.4290567070311669,0.7948714891749125,0.4290567070311669,1000.0,45.00000000000011,[0.26414239]
-6.9150793740718275e-18,0.17586921910577535,7.624469635418365e-18,0.17586921910577535,1.0164995072995706e-19,-0.025580045385286687,7.624469635418365e-18,-0.025580045385286687,-6.6909814636753395e-18,0.17771978210314276,-4.480657579241872e-18,-0.17771978210314276,0.42282623786153806,0.8015210197815876,0.422826237861538,1000.0,45.00000000000011,[0.26368805]
-7.069593403774282e-18,0.16970705109178058,8.334765517363981e-18,0.16970705109178058,-6.230076219565639e-20,-0.02814705461964236,8.334765517363981e-18,-0.02814705461964236,-8.117785922653516e-18,0.17202540473438613,-5.506542753891737e-18,-0.17202540473438618,0.4114508455617702,0.813275109279147,0.41145084556177014,1000.0,45.00000000000011,[0.2759466]
-7.297599949360236e-18,0.15946352861761387,9.004712795649574e-18,0.15946352861761387,-2.9029035057905326e-19,-0.03254780609288955,9.004712795649574e-18,-0.03254780609288955,-9.603177516467292e-18,0.1627512723165042,-6.139356719882867e-18,-0.16275127231650424,0.389907005697349,0.8342332130862777,0.38990700569734904,1000.0,45.00000000000011,[0.25586465]
-7.63233512784207e-18,0.14071247861038666,9.582090705174663e-18,0.14071247861038666,-6.734637781659203e-19,-0.04065299664178507,9.582090705174663e-18,-0.04065299664178507,-1.1188455511945062e-17,0.14646729250121165,-5.417576996762161e-18,-0.1464672925012117,0.3415761985488109,0.8755863185145637,0.34157619854881066,1000.0,45.00000000000011,[0.25860958]
-8.366276768928733e-18,0.09793939317487704,9.906949902904588e-18,0.09793939317487704,-1.5819204693714179e-18,-0.05831913190636425,9.906949902904588e-18,-0.05831913190636425,-1.3080836924337487e-17,0.11398791989406197,-5.703417176416011e-18,-0.1139879198940619,0.17379149170076444,0.9693260724982312,0.1737914917007641,1000.0,45.00000000000011,[0.25277361]
-1.0976668530605201e-17,-0.0637600186874651,9.341208873634471e-18,-0.0637600186874651,-6.280108445711062e-18,-0.09635161446802654,9.341208873634471e-18,-0.09635161446802654,-1.647633868581738e-17,0.11553775830273459,-7.54779669758114e-18,-0.11553775830273462,0.6928974367667909,0.1994649950342701,0.6928974367667912,1000.0,45.00000000000011,[0.1330782]
-1.1349591329246158e-17,-0.07057891783603769,9.255622162939532e-18,-0.07057891783603769,-6.274105596005765e-18,-0.094854965214912,9.255622162939532e-18,-0.094854965214912,-1.5696943263275776e-17,0.11823217865212633,-2.587839590115262e-17,-0.11823217865212635,0.6592290831844372,0.36170987236680757,0.6592290831844372,1000.0,32.14285714285738,[0.17594958]
-8.875128503269304e-18,0.08954898391248432,9.500739055818419e-18,0.08954898391248432,-1.5823443994353513e-18,-0.05658784410070785,9.500739055818419e-18,-0.05658784410070785,-1.1354322388759655e-17,0.10593018748083277,2.9135205258247487e-18,-0.10593018748083285,0.3051690939678322,0.9020774069744263,0.3051690939678319,1000.0,32.14285714285738,[0.17683536]
-8.303263804225668e-18,0.13347198968680485,8.856794587829343e-18,0.13347198968680485,-6.646375542348264e-19,-0.03930752943713613,8.856794587829343e-18,-0.03930752943713613,-8.483807139853636e-18,0.13913969204150856,-4.151852351090547e-18,-0.13913969204150856,0.4680570248713165,0.7495633681932594,0.4680570248713165,1000.0,32.14285714285738,[0.1901092]
-8.168759273540871e-18,0.15223267774749996,7.975735436830703e-18,0.15223267774749996,-2.5429020954982666e-19,-0.03132755954644711,7.975735436830703e-18,-0.03132755954644711,-5.883827100547373e-18,0.15542266295913965,-2.992317190103237e-18,-0.15542266295913978,0.5106069053181362,0.6917811622781234,0.5106069053181364,1000.0,32.14285714285738,[0.20212251]
-8.166656580423761e-18,0.16195744077155025,7.005059589966856e-18,0.16195744077155025,-2.082344474040992e-20,-0.02693109898822368,7.005059589966856e-18,-0.02693109898822368,-3.372329744185295e-18,0.16418129221681663,-1.1777170468506052e-18,-0.16418129221681665,0.5289049727297973,0.6637160986772764,0.5289049727297975,1000.0,32.14285714285738,[0.20212251]
-8.24588063077164e-18,0.16729644457789802,5.993913259549605e-18,0.16729644457789802,1.4045650878242293e-19,-0.02429850927503818,5.993913259549605e-18,-0.02429850927503818,-9.115513806722114e-19,0.16905182022502688,6.864063891887845e-19,-0.1690518202250268,0.5384342101181635,0.6482107703122948,0.5384342101181635,1000.0,32.14285714285738,[0.20212251]
-8.366412426549192e-18,0.17002019337965327,4.952189913445996e-18,0.17002019337965327,2.5230621685061822e-19,-0.02270772199237218,4.952189913445996e-18,-0.02270772199237218,1.5263517165910241e-18,0.1715299005856924,2.6567240521026347e-18,-0.17152990058569254,0.5436516760610165,0.6394417176194364,0.5436516760610164,1000.0,32.14285714285738,[0.22299458]
-8.510752134717245e-18,0.17088039120523874,3.9032194828994445e-18,0.17088039120523874,3.1045246441972703e-19,-0.02183856182910296,3.9032194828994445e-18,-0.02183856182910296,3.945601891041189e-18,0.172270226334149,4.650478820575593e-18,-0.17227022633414918,0.5462030350987442,0.6350783328833065,0.5462030350987442,1000.0,32.14285714285738,[0.23114014]
-8.682359024597496e-18,0.1701539176152195,2.834816098222185e-18,0.1701539176152195,3.892017130960004e-19,-0.021557667871980594,2.834816098222185e-18,-0.021557667871980594,6.350302785697159e-18,0.17151410648656717,6.822744182991167e-18,-0.17151410648656729,0.5466911043488101,0.6342378677213756,0.54669110434881,1000.0,32.14285714285738,[0.22299458]
-8.880012177605817e-18,0.167806593437865,1.7512890085141003e-18,0.167806593437865,4.076850638834978e-19,-0.021848523964636064,1.7512890085141003e-18,-0.021848523964636064,8.739911770077098e-18,0.1692229618008567,8.910634312950143e-18,-0.16922296180085672,0.5451412380098438,0.6369003542487549,0.5451412380098437,1000.0,32.14285714285738,[0.19939004]
-9.12419589443147e-18,0.1634822594234356,6.5462856542535815e-19,0.1634822594234356,3.904226316801287e-19,-0.022806199892885043,6.5462856542535815e-19,-0.022806199892885043,1.1118091599933392e-17,0.1650653564493341,1.0948365121909131e-17,-0.16506535644933415,0.5410041901168294,0.6439168677337681,0.5410041901168293,1000.0,32.14285714285738,[0.19939004]
-9.399716521583083e-18,0.15630867085687555,-4.644747352480196e-19,0.15630867085687555,3.5081060650618925e-19,-0.024692711877534915,-4.644747352480196e-19,-0.024692711877534915,1.3471208684409944e-17,0.15824705559633645,1.2735745556981555e-17,-0.1582470555963364,0.5326881697598069,0.6576371549691319,0.5326881697598068,1000.0,32.14285714285738,[0.20212251]
-9.774267211669544e-18,0.14428451377105395,-1.6225647642510352e-18,0.14428451377105395,2.2926137857519715e-19,-0.02811887233174561,-1.6225647642510352e-18,-0.02811887233174561,1.579339583142191e-17,0.14699895202129323,1.4343053171741615e-17,-0.14699895202129318,0.5157060192733569,0.6841743954361752,0.5157060192733568,1000.0,32.14285714285738,[0.20212251]
-1.0320153476395339e-17,0.12220255955101744,-2.85802626922254e-18,0.12220255955101744,-6.484434257925695e-20,-0.0346359652155489,-2.85802626922254e-18,-0.0346359652155489,1.804239569219641e-17,0.12701620230203967,1.4392393875706142e-17,-0.1270162023020398,0.47344736271415816,0.7427618659287891,0.4734473627141582,1000.0,32.14285714285738,[0.17068573]
-1.1328360911644372e-17,0.07210775640340158,-4.2879402552196685e-18,0.07210775640340158,-8.619006915843286e-19,-0.04908016536508866,-4.2879402552196685e-18,-0.04908016536508866,2.0095641606649012e-17,0.08722609223046013,3.176344468107005e-18,-0.08722609223046021,0.2832701174961673,0.9162511015368083,0.2832701174961677,1000.0,32.14285714285738,[0.15393863]
-1.460788388623336e-17,-0.10514703949230372,-6.464301819189497e-18,-0.10514703949230372,-5.464526352912099e-18,-0.0792352255892487,-6.464301819189497e-18,-0.0792352255892487,2.1018893457085786e-17,0.13165910864112368,5.5471777021701875e-18,-0.13165910864112362,0.7045670431934503,0.08467917861716223,0.7045670431934502,1000.0,32.14285714285738,[0.12003139]
-1.4297227935382946e-17,-0.1106385189508563,-6.857903926349126e-18,-0.1106385189508563,-5.419454108514697e-18,-0.0749338917520172,-6.857903926349126e-18,-0.0749338917520172,2.244692731324937e-17,0.1336262324872703,1.5560272590577093e-17,-0.13362623248727032,0.6835731971831386,0.25584246751789286,0.6835731971831385,1000.0,19.285714285714306,[0.18838757]
-9.902056690141636e-18,0.06530830618521778,-5.86620644743998e-18,0.06530830618521778,-7.223429145374444e-19,-0.043894544582817184,-5.86620644743998e-18,-0.043894544582817184,2.3901007432541023e-17,0.07868866437368902,5.5166313020761536e-18,-0.07868866437368909,0.4236599660997207,0.8006400353771768,0.42365996609972106,1000.0,19.285714285714306,[0.14071529]
-7.787018729570099e-18,0.1162777672605734,-5.588839604859937e-18,0.1162777672605734,1.8008549115891966e-19,-0.03030624364101811,-5.588839604859937e-18,-0.03030624364101811,2.4252937214415997e-17,0.12016233837077585,1.946660209740098e-17,-0.12016233837077582,0.5869479862190097,0.5576595044889835,0.5869479862190097,1000.0,19.285714285714306,[0.18338923]
-6.173506991834362e-18,0.13832003716131722,-5.494710173464159e-18,0.13832003716131722,5.787154088767994e-19,-0.023915630030028525,-5.494710173464159e-18,-0.023915630030028525,2.44265111397929e-17,0.1403723264751332,2.163236253349536e-17,-0.14037232647513326,0.6178790058953206,0.4862623449822332,0.617879005895321,1000.0,19.285714285714306,[0.20841739]
-4.734993584490344e-18,0.14988084892807185,-5.467366684340453e-18,0.14988084892807185,7.980059523482825e-19,-0.0202777744559947,-5.467366684340453e-18,-0.0202777744559947,2.4542362747664626e-17,0.1512463454510147,2.2673902432018738e-17,-0.15124634545101467,0.630089257602874,0.4538447475810624,0.6300892576028738,1000.0,19.285714285714306,[0.22024418]
-3.399851283935853e-18,0.15634707165824474,-5.473759549704569e-18,0.15634707165824474,9.419386876549594e-19,-0.017984544542391085,-5.473759549704569e-18,-0.017984544542391085,2.462301120302732e-17,0.157378050116608,2.298047144262283e-17,-0.1573780501166081,0.6363656899765144,0.43597868897622705,0.6363656899765144,1000.0,19.285714285714306,[0.22024418]
-2.1157162486738312e-18,0.15978213715745787,-5.500886834495669e-18,0.15978213715745787,1.0528387923799438e-18,-0.016474546121222792,-5.500886834495669e-18,-0.016474546121222792,2.4697215921418228e-17,0.16062920663598196,2.332384027656936e-17,-0.16062920663598193,0.6399539384797632,0.4253444642269119,0.6399539384797633,1000.0,19.285714285714306,[0.22024418]
-8.79332695813271e-19,0.16106874181234998,-5.535432895405604e-18,0.16106874181234998,1.1174118197182834e-18,-0.015493974924000606,-5.535432895405604e-18,-0.015493974924000606,2.475548086940524e-17,0.16181224566749888,2.345342473516817e-17,-0.16181224566749886,0.6419972227312335,0.419140945280661,0.6419972227312335,1000.0,19.285714285714306,[0.21778115]
3.5162455222894143e-19,0.16054009372735384,-5.583989844928539e-18,0.16054009372735384,1.153564575570526e-18,-0.01492933407754725,-5.583989844928539e-18,-0.01492933407754725,2.480458892801129e-17,0.16123277182380316,2.3549540949413696e-17,-0.16123277182380322,0.6429340957416285,0.41625893031356,0.6429340957416286,1000.0,19.285714285714306,[0.21778115]
1.5190940338964838e-18,0.158172551017085,-5.6416782480286e-18,0.158172551017085,1.1639423835356163e-18,-0.014750904892134636,-5.6416782480286e-18,-0.014750904892134636,2.4849966402054723e-17,0.15885888420352556,2.3585305693604123e-17,-0.1588588842035256,0.6428570702764239,0.4164967879722796,0.6428570702764239,1000.0,19.285714285714306,[0.21778115]
2.660245937195039e-18,0.15357806389873468,-5.706874452560921e-18,0.15357806389873468,1.1441363709486466e-18,-0.015003269868343924,-5.706874452560921e-18,-0.015003269868343924,2.4890392372951415e-17,0.15430916958374905,2.3548730031374313e-17,-0.15430916958374905,0.6415570612937482,0.4204867110959157,0.6415570612937481,1000.0,19.285714285714306,[0.21778115]
3.74984794471929e-18,0.14579054034741115,-5.784118749510231e-18,0.14579054034741115,1.0935360785175528e-18,-0.01583551460006743,-5.784118749510231e-18,-0.01583551460006743,2.490646780097577e-17,0.14664803161801757,2.3445196934211462e-17,-0.14664803161801748,0.6383050199162867,0.43027131335860325,0.6383050199162867,1000.0,19.285714285714306,[0.22024418]
4.74584619412704e-18,0.13258684304275756,-5.888541202858313e-18,0.13258684304275756,9.596420071248193e-19,-0.017608628197893744,-5.888541202858313e-18,-0.017608628197893744,2.490741740431898e-17,0.13375101769727393,2.3111487614999423e-17,-0.13375101769727393,0.6308705818769821,0.45166870363618955,0.6308705818769823,1000.0,19.285714285714306,[0.18998656]
5.541342480496836e-18,0.1081946190698279,-6.035492320220196e-18,0.1081946190698279,6.534627577495412e-19,-0.0212472301103165,-6.035492320220196e-18,-0.0212472301103165,2.4868619324867794e-17,0.11026114629834889,2.178241175273684e-17,-0.11026114629834892,0.6099138664609924,0.5059744568624042,0.6099138664609925,1000.0,19.285714285714306,[0.18760268]
5.762193086603594e-18,0.052902662897906294,-6.305434027730445e-18,0.052902662897906294,-1.642813783754815e-19,-0.029609300434867286,-6.305434027730445e-18,-0.029609300434867286,2.4703388343149098e-17,0.06062509722822507,1.4971933480893328e-17,-0.060625097228225094,0.46834723717590443,0.749200728015793,0.4683472371759045,1000.0,19.285714285714306,[0.07383123]
3.470664561815292e-18,-0.13494780653216823,-6.994837576300262e-18,-0.13494780653216823,-4.768229701502725e-18,-0.04591527861265468,-6.994837576300262e-18,-0.04591527861265468,2.3667506753326492e-17,0.142545162309779,2.6434989297501048e-17,-0.14254516230977893,0.7070803804165579,0.00864125337853273,0.7070803804165579,1000.0,19.285714285714306,[0.09822939]
3.551516503608675e-18,-0.1380255071701142,-6.38207210468833e-18,-0.1380255071701142,-4.762260766202542e-18,-0.03966067341431566,-6.38207210468833e-18,-0.03966067341431566,2.2877301114154584e-17,0.14361061814937032,2.477811752581677e-17,-0.14361061814937037,0.6971981712396627,0.1668215215136838,0.6971981712396623,1000.0,6.428571428571418,[0.12686692]
6.275521522419303e-18,0.049038101515723014,-5.026216581210051e-18,0.049038101515723014,-1.3633590856099002e-19,-0.021994892858240103,-5.026216581210051e-18,-0.021994892858240103,2.205860737468635e-17,0.05374486684430265,1.580889425817978e-17,-0.053744866844302616,0.6087239893307431,0.5088322018372371,0.6087239893307433,1000.0,6.428571428571418,[0.08489058]
6.4811784750346866e-18,0.10475452843551705,-4.05734985589404e-18,0.10475452843551705,6.679781231386218e-19,-0.014788303052874808,-4.05734985589404e-18,-0.014788303052874808,2.0388933382080714e-17,0.10579321875683347,1.89752147982262e-17,-0.1057932187568334,0.6846949425666086,0.24977123783057337,0.6846949425666088,1000.0,6.428571428571418,[0.18132826]
6.085058223295292e-18,0.1290638400686322,-3.181357728984565e-18,0.1290638400686322,9.710372472433498e-19,-0.01125144688081024,-3.181357728984565e-18,-0.01125144688081024,1.860449304256702e-17,0.1295533475838165,1.798140296294084e-17,-0.12955334758381648,0.6931298643626674,0.1978433275528395,0.6931298643626675,1000.0,6.428571428571418,[0.12063971]
5.508242021104914e-18,0.14194957122051935,-2.3394495792153365e-18,0.14194957122051935,1.1284000869754378e-18,-0.009091673851726753,-2.3394495792153365e-18,-0.009091673851726753,1.6783425145529477e-17,0.14224042780839588,1.643509237753619e-17,-0.14224042780839585,0.6961634110338699,0.1752512775285061,0.6961634110338701,1000.0,6.428571428571418,[0.12788902]
4.8125897433927184e-18,0.1492838004694086,-1.513794908097316e-18,0.1492838004694086,1.1905312771455208e-18,-0.0075912562032623655,-1.513794908097316e-18,-0.0075912562032623655,1.495353950316212e-17,0.14947668799292338,1.477470489543078e-17,-0.14947668799292335,0.6977331808073125,0.16228621876493626,0.6977331808073125,1000.0,6.428571428571418,[0.12686692]
4.072984396651905e-18,0.15332417367176335,-6.958981571492772e-19,0.15332417367176335,1.2144070183462514e-18,-0.006460665548094347,-6.958981571492772e-19,-0.006460665548094347,1.3104797451551005e-17,0.15346023078131152,1.3029616791362032e-17,-0.1534602307813115,0.698704579454203,0.15370042712839418,0.698704579454203,1000.0,6.428571428571418,[0.12686692]
3.2698912835364218e-18,0.15504261998832475,1.1476634690805727e-19,0.15504261998832475,1.2011125715412992e-18,-0.005562737978540577,1.1476634690805727e-19,-0.005562737978540577,1.1256055399939887e-17,0.15514237998258879,1.1254595607957456e-17,-0.15514237998258879,0.699370090208173,0.14752272314604284,0.6993700902081729,1000.0,6.428571428571418,[0.12686692]
2.4445503206657116e-18,0.15481448973978643,9.257784736178172e-19,0.15481448973978643,1.1647563292583685e-18,-0.00482632006864573,9.257784736178172e-19,-0.00482632006864573,9.39591810821024e-18,0.1548897013968181,9.448074053825208e-18,-0.1548897013968181,0.6998525013850124,0.14287390458121685,0.6998525013850124,1000.0,6.428571428571418,[0.12686692]
1.586651528884915e-18,0.15263137431559745,1.7279050261875327e-18,0.15263137431559745,1.0942143666198463e-18,-0.004214376381783778,1.7279050261875327e-18,-0.004214376381783778,7.535509501239675e-18,0.15268954579065114,7.626361478487918e-18,-0.15268954579065117,0.7002077530439377,0.13934922014248813,0.7002077530439378,1000.0,6.428571428571418,[0.12686692]
6.847996680755001e-19,0.14809840871240462,2.53135424055672e-18,0.14809840871240462,1.0185174144038936e-18,-0.0037121713423097186,2.53135424055672e-18,-0.0037121713423097186,5.668860643728011e-18,0.1481449252563891,5.79264027517892e-18,-0.14814492525638903,0.7004561719891408,0.136829464095414,0.7004561719891408,1000.0,6.428571428571418,[0.12686692]
-2.734857628447322e-19,0.14021395802816158,3.328410589561792e-18,0.14021395802816158,8.774334891268492e-19,-0.003326330714390065,3.328410589561792e-18,-0.003326330714390065,3.791630491820568e-18,0.14025340816516568,3.9474357833537665e-18,-0.1402534081651657,0.7005853381818388,0.1355004348674835,0.700585338181839,1000.0,6.428571428571418,[0.12686692]
-1.3598319874779741e-18,0.12666343536516494,4.124873436477356e-18,0.12666343536516494,6.601099811520174e-19,-0.0030965207837369037,4.124873436477356e-18,-0.0030965207837369037,1.897578794976247e-18,0.12670127978623355,2.097401806553652e-18,-0.1267012797862336,0.7005158655822917,0.13621690106218365,0.700515865582292,1000.0,6.428571428571418,[0.12012977]
-2.61330840051633e-18,0.10143724018725445,4.9161812938154906e-18,0.10143724018725445,2.82981796276841e-19,-0.0031375630270172447,4.9161812938154906e-18,-0.0031375630270172447,-2.197653451430884e-20,0.10148575268753365,2.7967920923434075e-19,-0.10148575268753364,0.699877085669233,0.14263285003911763,0.6998770856692331,1000.0,6.428571428571418,[0.11340753]
-4.484298301882673e-18,0.04410024594266781,5.6880053254152445e-18,0.04410024594266781,-6.20497955978078e-19,-0.0037631843344132173,5.6880053254152445e-18,-0.0037631843344132173,-2.037577459289622e-18,0.04426051568315218,-1.0920775012596544e-18,-0.044260515683152195,0.6933848870482833,0.19604794522279342,0.6933848870482832,1000.0,6.428571428571418,[0.06668148]
-8.963170298946998e-18,-0.14728927563834654,6.445364863233591e-18,-0.14728927563834654,-5.310724525717052e-18,-0.002992667241577835,6.445364863233591e-18,-0.002992667241577835,-4.827240766402258e-18,0.14731967545201702,-5.090896081451435e-18,-0.14731967545201702,0.704123930940058,0.09175499852891274,0.704123930940058,1000.0,6.428571428571418,[0.12914577]
-9.175881447826234e-18,-0.1473466885683409,6.681510866047067e-18,-0.1473466885683409,-5.431188492684375e-18,0.003975297296160381,6.681510866047067e-18,0.003975297296160381,-5.500916509600145e-18,0.14740030400460005,-5.142979809882648e-18,-0.14740030400460002,0.7045402459565835,0.08512393115260977,0.7045402459565834,1000.0,6.428571428571418,[0.12914577]
-5.093129702501303e-18,0.04392813544288596,5.773893556368157e-18,0.04392813544288596,-9.783627587481194e-19,0.0047684797922397945,5.773893556368157e-18,0.0047684797922397945,-4.068914668038144e-18,0.0441861910897232,-5.31974909212413e-18,-0.044186191089723166,0.6900130234194826,0.2185498913818288,0.6900130234194826,1000.0,6.428571428571418,[0.08600218]
-3.62911266251105e-18,0.10115068278695506,4.878587175745874e-18,0.10115068278695506,-3.288340719918804e-19,0.004165508118085816,4.878587175745874e-18,0.004165508118085816,-3.4041923277905313e-18,0.10123641679825024,-3.805155745825e-18,-0.10123641679825025,0.6988079900667167,0.15275727818284307,0.6988079900667167,1000.0,6.428571428571418,[0.11340753]
-2.7543923257933745e-18,0.12626277672999933,4.004731656358623e-18,0.12626277672999933,-1.9806012586969697e-19,0.004147205745071425,4.004731656358623e-18,0.004147205745071425,-2.8414845181278577e-18,0.12633086757820355,-3.105008228567712e-18,-0.12633086757820353,0.6996828859737048,0.1445258390427635,0.6996828859737048,1000.0,6.428571428571418,[0.12012977]
-2.1021504866279616e-18,0.1396996380664157,3.1347084647493307e-18,0.1396996380664157,-2.279048023706102e-19,0.004399855962283375,3.1347084647493307e-18,0.004399855962283375,-2.3002106124976585e-18,0.13976890787430657,-2.4986790195441297e-18,-0.13976890787430657,0.6998201430317326,0.1431905542069384,0.6998201430317327,1000.0,6.428571428571418,[0.12686692]
-1.5530084390111582e-18,0.14747096067811852,2.2704337648069746e-18,0.14747096067811852,-3.402293121104109e-19,0.004808625735378591,2.2704337648069746e-18,0.004808625735378591,-1.780913241381768e-18,0.1475493379340962,-1.9299554705734035e-18,-0.1475493379340962,0.6997072195367656,0.14429003380780217,0.6997072195367655,1000.0,6.428571428571418,[0.12686692]
-1.042935786086459e-18,0.1518914237727774,1.4063455940927497e-18,0.1518914237727774,-4.883674336513075e-19,0.005333831908436256,1.4063455940927497e-18,0.005333831908436256,-1.271383218938904e-18,0.15198504656231454,-1.3697417150793608e-18,-0.15198504656231454,0.6994493459556869,0.14676929135321157,0.6994493459556869,1000.0,6.428571428571418,[0.12686692]
-5.903819642362473e-19,0.1539627533986143,5.517195424055188e-19,0.1539627533986143,-6.7611758036614355e-19,0.005968830405631309,5.517195424055188e-19,0.005968830405631309,-7.596826745687006e-19,0.15407840981297047,-7.991486074840565e-19,-0.1540784098129705,0.6990662091087834,0.15037576455183516,0.6990662091087835,1000.0,6.428571428571418,[0.12686692]
-1.7581227611447071e-19,0.15407990442555985,-3.1082552287598844e-19,0.15407990442555985,-8.920845121363884e-19,0.006728338326791588,-3.1082552287598844e-19,0.006728338326791588,-2.5666421790785385e-19,0.15422674049732565,-2.283642469160925e-19,-0.1542267404973257,0.6985377246614275,0.1552098400542677,0.6985377246614275,1000.0,6.428571428571418,[0.12686692]
2.0619958309721876e-19,0.152251373942958,-1.1615005463673598e-18,0.152251373942958,-1.1145630096886508e-18,0.007649373051459637,-1.1615005463673598e-18,0.007649373051459637,2.425558253801494e-19,0.15244341171595058,3.594797705076026e-19,-0.15244341171595058,0.6978028088936941,0.16168636244328305,0.6978028088936941,1000.0,6.428571428571418,[0.12686692]
5.63250440144508e-19,0.14810189865793155,-2.008546728511461e-18,0.14810189865793155,-1.3809945762695308e-18,0.008803070787742636,-2.008546728511461e-18,0.008803070787742636,7.330937809587961e-19,0.1483632920953774,9.664344624425505e-19,-0.1483632920953773,0.6967250944972269,0.17072868943344277,0.6967250944972267,1000.0,6.428571428571418,[0.12686692]
8.356509420255708e-19,0.1406596349751351,-2.8487082864172833e-18,0.1406596349751351,-1.693007103324533e-18,0.010326579622052223,-2.8487082864172833e-18,0.010326579622052223,1.212779126900747e-18,0.14103819042383106,1.6298483793585396e-18,-0.141038190423831,0.6949779003643718,0.1844218967754604,0.6949779003643717,1000.0,6.428571428571418,[0.13016203]
1.0158042619947197e-18,0.1276670213000571,-3.671132610448131e-18,0.1276670213000571,-2.0967241818096137e-18,0.012509414733452658,-3.671132610448131e-18,0.012509414733452658,1.675100297423985e-18,0.12827842291127045,2.386893897461549e-18,-0.12827842291127045,0.6915910585756267,0.208335343608539,0.6915910585756266,1000.0,6.428571428571418,[0.18778498]
9.832464330846325e-19,0.1032520627704598,-4.462457424988823e-18,0.1032520627704598,-2.6534630561721043e-18,0.016069297017701496,-4.462457424988823e-18,0.016069297017701496,2.105948900000805e-18,0.10449502750369545,3.4310199975119492e-18,-0.10449502750369552,0.6821275871760297,0.263446217712109,0.6821275871760297,1000.0,6.428571428571418,[0.18298307]
3.8852342499370693e-19,0.04743131130284166,-5.15688878411689e-18,0.04743131130284166,-3.7083367128589286e-18,0.02329889239333599,-5.15688878411689e-18,0.02329889239333599,2.4174187965739723e-18,0.05284475072004149,5.4093414150227246e-18,-0.052844750720041446,0.5957738912716226,0.5386157637482745,0.5957738912716227,1000.0,6.428571428571418,[0.08216216]
-2.7391986723020005e-18,-0.1397351934585103,-5.466357730788292e-18,-0.1397351934585103,-8.570305830098613e-18,0.04098776786259913,-5.466357730788292e-18,0.04098776786259913,1.8818425110030384e-18,0.14562253055501276,-2.1437766618830273e-18,-0.14562253055501279,0.6965368367496997,0.17225814959369776,0.6965368367496997,1000.0,6.428571428571418,[0.12686692]
-3.253612369081378e-18,-0.13675889047454967,-5.836703034640533e-18,-0.13675889047454967,-8.45092712409496e-18,0.047283891024222355,-5.836703034640533e-18,0.047283891024222355,1.3283594195315565e-18,0.14470231675484824,-2.657999570983771e-18,-0.14470231675484832,0.7071018916659954,0.003718817653724304,0.7071018916659952,1000.0,19.28571428571425,[0.09380847]
-1.4303739501164963e-18,0.05099300717086704,-6.826901920773675e-18,0.05099300717086704,-3.3545416387026484e-18,0.031042641299042807,-6.826901920773675e-18,0.031042641299042807,1.0375094812681111e-18,0.059698679710267814,8.928324218679294e-18,-0.05969867971026777,0.4486581002529374,0.7729241994884429,0.44865810025293706,1000.0,19.28571428571425,[0.07632316]
-2.116258879155666e-18,0.10618803444448993,-7.401140628175336e-18,0.10618803444448993,-2.05548426519017e-18,0.022744373049224137,-7.401140628175336e-18,0.022744373049224137,-1.2697553274933996e-19,0.10859652464322447,3.12508472952893e-18,-0.10859652464322449,0.603710922741337,0.5206402246519246,0.603710922741337,1000.0,19.28571428571425,[0.18760268]
-3.3621384654483354e-18,0.13048512239996296,-7.85654326005518e-18,0.13048512239996296,-1.2730111103844083e-18,0.01916896557712473,-7.85654326005518e-18,0.01916896557712473,-1.4130097746977831e-18,0.13188561865886025,7.382779664965263e-19,-0.13188561865886028,0.6263945558955284,0.4639609042676848,0.6263945558955283,1000.0,19.28571428571425,[0.18998656]
-4.816388156765562e-18,0.14359555974899355,-8.262464774872715e-18,0.14359555974899355,-6.435597514560564e-19,0.01745848281744771,-8.262464774872715e-18,0.01745848281744771,-2.7462528685658527e-18,0.1446529757796703,-7.562503138865778e-19,-0.14465297577967023,0.6343606434747597,0.44178405134248183,0.6343606434747597,1000.0,19.28571428571425,[0.22024418]
-6.37048185674039e-18,0.15129176434954855,-8.643662688361653e-18,0.15129176434954855,-9.333244287558322e-20,0.016688287604143856,-8.643662688361653e-18,0.016688287604143856,-4.100658551225479e-18,0.15220938506924572,-2.2176268245685312e-18,-0.1522093850692458,0.6377969236572931,0.43177559952663586,0.637796923657293,1000.0,19.28571428571425,[0.22024418]
-7.970156517189339e-18,0.15579693098929054,-9.015330654013367e-18,0.15579693098929054,4.1131390523076795e-19,0.016497358476097734,-9.015330654013367e-18,0.016497358476097734,-5.463203691112627e-18,0.15666794995266464,-3.5647253893406536e-18,-0.15666794995266464,0.6391232819120125,0.4278350862610928,0.6391232819120124,1000.0,19.28571428571425,[0.22024418]
-9.606730050403054e-18,0.15807720422012655,-9.378757419222215e-18,0.15807720422012655,8.736350757540057e-19,0.016736573873727404,-9.378757419222215e-18,0.016736573873727404,-6.8317177662999585e-18,0.15896073540054576,-4.86723264135978e-18,-0.1589607354005458,0.6391275269595296,0.4278224030660283,0.6391275269595296,1000.0,19.28571428571425,[0.22024418]
-1.1295396109872909e-17,0.15852068230448987,-9.724141720910056e-18,0.15852068230448987,1.3240183756768782e-18,0.017361315273524944,-9.724141720910056e-18,0.017361315273524944,-8.215425494978662e-18,0.15946856112195834,-6.138907033599544e-18,-0.1594685611219583,0.6380333917501709,0.43107630649752254,0.6380333917501709,1000.0,19.28571428571425,[0.22024418]
-1.2990573735124782e-17,0.15715105203338633,-1.0067118099834755e-17,0.15715105203338633,1.735332280907646e-18,0.018401266846311066,-1.0067118099834755e-17,0.018401266846311066,-9.603474267512045e-18,0.15822471291409967,-7.284101397561479e-18,-0.15822471291409956,0.6357367623008555,0.43780993378228794,0.6357367623008552,1000.0,19.28571428571425,[0.22024418]
-1.474652597434215e-17,0.15363514709814957,-1.0397987036133516e-17,0.15363514709814957,2.126026227828692e-18,0.019969893537977117,-1.0397987036133516e-17,0.019969893537977117,-1.1002375649682124e-17,0.15492758008756283,-8.456236722764365e-18,-0.15492758008756288,0.6317552892397212,0.4491887231835549,0.6317552892397211,1000.0,19.28571428571425,[0.22024418]
-1.6539377086324282e-17,0.14709031052266142,-1.0703759312647418e-17,0.14709031052266142,2.4722244752392857e-18,0.022320971734064596,-1.0703759312647418e-17,0.022320971734064596,-1.241321490245257e-17,0.14877427609908206,-9.276018830036512e-18,-0.14877427609908206,0.6248327848953019,0.4681538014797737,0.6248327848953017,1000.0,19.28571428571425,[0.22024418]
-1.8429901685036677e-17,0.13545314918516604,-1.0978499908481393e-17,0.13545314918516604,2.732687106519983e-18,0.02601587501301198,-1.0978499908481393e-17,0.02601587501301198,-1.3856611984133101e-17,0.13792889971601857,-1.0061616042510604e-17,-0.13792889971601857,0.6113960211936419,0.5023841264781033,0.6113960211936422,1000.0,19.28571428571425,[0.20841739]
-2.0509261691427578e-17,0.1133368369301126,-1.1189650994725355e-17,0.1133368369301126,2.827104810359236e-18,0.03246273255904148,-1.1189650994725355e-17,0.03246273255904148,-1.5357527896888118e-17,0.11789430694703958,-9.77512948994058e-18,-0.1178943069470396,0.5773184310361166,0.5774139402300513,0.5773184310361168,1000.0,19.28571428571425,[0.1821139]
-2.309218278496116e-17,0.062295708975290576,-1.1211932758885696e-17,0.062295708975290576,2.4092793393464505e-18,0.04610653130516229,-1.1211932758885696e-17,0.04610653130516229,-1.7040767651539624e-17,0.07750204891309656,-9.80842079932334e-18,-0.07750204891309662,0.3975373250352659,0.8269994863405965,0.3975373250352663,1000.0,19.28571428571425,[0.140746]
-2.794329929256415e-17,-0.11372021910857052,-1.0529574927978452e-17,-0.11372021910857052,-1.7950216339094726e-18,0.0772009452867152,-1.0529574927978452e-17,0.0772009452867152,-1.9824462023352077e-17,0.13744916946734764,-2.734457301667653e-17,-0.13744916946734778,0.6833767899344939,0.25688971555446277,0.683376789934494,1000.0,19.28571428571425,[0.19506187]
-2.7596015784189888e-17,-0.10829400185952125,-9.527879058511437e-18,-0.10829400185952125,-1.6517671867050892e-18,0.0815693641129659,-9.527879058511437e-18,0.0815693641129659,-1.9781051584805294e-17,0.13557710721410002,-3.6480769750609705e-17,-0.1355771072141001,0.7045801841629378,0.08446021649179802,0.7045801841629378,1000.0,32.142857142857125,[0.12003139]
-2.255606386890839e-17,0.06890357815666866,-8.602321028526865e-18,0.06890357815666866,2.8564068563783143e-18,0.05150222192191719,-8.602321028526865e-18,0.05150222192191719,-1.6410231031647603e-17,0.08602431020174794,-1.194361135496088e-17,-0.08602431020174797,0.2543343787802527,0.9330745133915758,0.2543343787802526,1000.0,32.142857142857125,[0.15026447]
-1.976477267035025e-17,0.11894299432285738,-6.945737996295492e-18,0.11894299432285738,3.568338048545554e-18,0.03714397501374332,-6.945737996295492e-18,0.03714397501374332,-1.4172422924560945e-17,0.1246078279174662,-1.0766689992957529e-17,-0.12460782791746629,0.4593642599426917,0.7602426937331307,0.4593642599426918,1000.0,32.142857142857125,[0.17392979]
-1.7440143686170027e-17,0.14097166636586342,-5.087059023985776e-18,0.14097166636586342,3.757173456224059e-18,0.030711381752960905,-5.087059023985776e-18,0.030711381752960905,-1.2138643878644166e-17,0.1442782023978133,-1.0231585782497944e-17,-0.14427820239781342,0.5049234702979168,0.700074694789504,0.504923470297917,1000.0,32.142857142857125,[0.20212251]
-1.530435010966831e-17,0.1529447206378573,-3.1485794564412324e-18,0.1529447206378573,3.785390241279468e-18,0.027368369662790496,-3.1485794564412324e-18,0.027368369662790496,-1.017540679536591e-17,0.15537411376735621,-9.084753055713264e-18,-0.15537411376735627,0.523096553835131,0.672859562413748,0.523096553835131,1000.0,32.142857142857125,[0.20212251]
-1.3240183756768784e-17,0.16006941185007884,-1.1796786675088251e-18,0.16006941185007884,3.737638758878007e-18,0.02556366509921203,-1.1796786675088251e-18,0.02556366509921203,-8.244727540997741e-18,0.16209786421583366,-7.982213061108611e-18,-0.16209786421583358,0.5319029135467672,0.6589071111476342,0.5319029135467671,1000.0,32.142857142857125,[0.20212251]
-1.1243303583616769e-17,0.16434706562103646,8.158110150334864e-19,0.16434706562103646,3.644306316002424e-18,0.02468644381523314,8.158110150334864e-19,0.02468644381523314,-6.335753505902964e-18,0.16619078941532206,-6.827324293155737e-18,-0.16619078941532206,0.5361998463541631,0.6519044788460526,0.5361998463541632,1000.0,32.142857142857125,[0.20212251]
-9.268128629738148e-18,0.16664993202304126,2.8290379314507723e-18,0.16664993202304126,3.509733956507397e-18,0.0244746717686329,2.8290379314507723e-18,0.0244746717686329,-4.437632080444881e-18,0.16843755341807418,-5.3576531065367625e-18,-0.1684375534180743,0.5377062635548066,0.6494181613320169,0.5377062635548068,1000.0,32.142857142857125,[0.20212251]
-7.312488373205578e-18,0.16733417221691213,4.851896538920626e-18,0.16733417221691213,3.3621384654483354e-18,0.024833260431917945,4.851896538920626e-18,0.024833260431917945,-2.552533786550834e-18,0.16916682894468016,-4.028611722793574e-18,-0.1691668289446801,0.5370124690904102,0.6505653050100682,0.5370124690904102,1000.0,32.142857142857125,[0.20212251]
-5.3807238578737395e-18,0.16643396529680482,6.891712348947817e-18,0.16643396529680482,3.1971787989705604e-18,0.0257787083992774,6.891712348947817e-18,0.0257787083992774,-6.847996680755001e-19,0.16841854592399558,-2.9417098089832213e-18,-0.1684185459239956,0.5340863104672062,0.655365261471078,0.5340863104672062,1000.0,32.142857142857125,[0.20212251]
-3.50105186879804e-18,0.1636724308671806,8.944076488867436e-18,0.1636724308671806,2.9757855623819673e-18,0.027444361590597804,8.944076488867436e-18,0.027444361590597804,1.1709965797994685e-18,0.16595739697008843,-1.917834472308956e-18,-0.16595739697008832,0.5282682107397191,0.6647295653449693,0.5282682107397191,1000.0,32.142857142857125,[0.20212251]
-1.6539377086324284e-18,0.15829786506674162,1.1026997507795377e-17,0.15829786506674162,2.7261755407379656e-18,0.030150384782120516,1.1026997507795377e-17,0.030150384782120516,2.9953202597280196e-18,0.1611435998952433,-1.2806466950836305e-18,-0.1611435998952434,0.5177625300431633,0.681060881982371,0.5177625300431635,1000.0,32.142857142857125,[0.20212251]
1.215492279309921e-19,0.1485397686567881,1.3147902660451755e-17,0.1485397686567881,2.3962562077824157e-18,0.034618844723656485,1.3147902660451755e-17,0.034618844723656485,4.772977718218779e-18,0.15252057986584228,-9.287319713327285e-19,-0.15252057986584228,0.4977076351566952,0.710333879111408,0.4977076351566951,1000.0,32.142857142857125,[0.20094336]
1.7516111953626897e-18,0.12974799708202808,1.536159762550188e-17,0.12974799708202808,1.8948656425670733e-18,0.042669401112944365,1.536159762550188e-17,0.042669401112944365,6.459473255761295e-18,0.13658411524820635,-2.891945097849359e-18,-0.13658411524820616,0.4512304890525883,0.7699234322312346,0.45123048905258833,1000.0,32.142857142857125,[0.17286221]
2.9627624308179324e-18,0.08579624385633897,1.780780975201821e-17,0.08579624385633897,8.964255559910667e-19,0.06001899408927341,1.780780975201821e-17,0.06001899408927341,7.873568291422747e-18,0.10470565940456433,-9.150101770763776e-18,-0.10470565940456425,0.2749512469399751,0.9213053910687304,0.2749512469399753,1000.0,32.142857142857125,[0.17551275]
2.2616838482873887e-18,-0.07435769870735125,2.115017611928469e-17,-0.07435769870735125,-3.913451034992478e-18,0.09835454834939594,2.115017611928469e-17,0.09835454834939594,7.820390504202938e-18,0.12329916681821855,1.6359973780110683e-17,-0.1232991668182186,0.6611650072108104,0.35457251230158526,0.6611650072108107,1000.0,32.142857142857125,[0.17585176]
3.0669474833302113e-18,-0.06756126128217753,2.1649057018521546e-17,-0.06756126128217753,-4.067558091833557e-18,0.09992663191430698,2.1649057018521546e-17,0.09992663191430698,7.870312508531738e-18,0.12062278305434695,2.529712652313068e-17,-0.120622783054347,0.6942630942324649,0.18973010297137166,0.6942630942324649,1000.0,45.0,[0.14053775]
4.731737801599335e-18,0.09412814820029233,1.9151600225876943e-17,0.09412814820029233,4.341043854678289e-19,0.06198783983403204,1.9151600225876943e-17,0.06198783983403204,8.637592009846126e-18,0.11270581427284854,-4.162410988405063e-18,-0.11270581427284845,0.14258496144862634,0.9794585532514315,0.14258496144862684,1000.0,45.0,[0.23027383]
4.534220306211473e-18,0.13689259180647467,1.75600311082504e-17,0.13689259180647467,1.14169453378039e-18,0.04441302787817643,1.75600311082504e-17,0.04441302787817643,7.905040859369165e-18,0.1439169855743295,-3.4511894092322786e-18,-0.1439169855743296,0.3212948199242781,0.8908082158240638,0.32129481992427805,1000.0,45.0,[0.25412243]
3.9590319954666e-18,0.15563684337762185,1.6208609893240865e-17,0.15563684337762185,1.337041507240913e-18,0.03639740654412042,1.6208609893240865e-17,0.03639740654412042,6.8621050732827065e-18,0.15983616055101046,-4.465410914957221e-19,-0.15983616055101044,0.3730051961409793,0.8495494378219898,0.37300519614097954,1000.0,45.0,[0.24619772]
3.2275661059533084e-18,0.1658755157068265,1.494774013988751e-17,0.1658755157068265,1.3609172484416437e-18,0.032084608116913514,1.494774013988751e-17,0.032084608116913514,5.721495800465985e-18,0.1689500186120781,-1.0433634193407553e-19,-0.16895001861207817,0.3959481883725234,0.8285228205964114,0.3959481883725236,1000.0,45.0,[0.25586465]
2.4570308217479117e-18,0.172034800448006,1.374486401928025e-17,0.172034800448006,1.3175068098948608e-18,0.029603963834942265,1.374486401928025e-17,0.029603963834942265,4.5233676965747774e-18,0.1745633616768588,-2.2740173757263847e-19,-0.1745633616768588,0.40796314657574917,0.8167815754974078,0.4079631465757493,1000.0,45.0,[0.27712414]
1.6452556209230718e-18,0.17580776254257294,1.255419708451427e-17,0.17580776254257294,1.2241743670192776e-18,0.028215816333037665,1.255419708451427e-17,0.028215816333037665,3.2937670247371523e-18,0.1780575796240233,-6.112226855514367e-19,-0.17805757962402335,0.41445005183486794,0.8102236167059994,0.4144500518348681,1000.0,45.0,[0.26368805]
7.8572893769677045e-19,0.17793308997772617,1.138918639721754e-17,0.17793308997772617,1.0917725294515897e-18,0.02759710279206777,1.138918639721754e-17,0.02759710279206777,2.0413758726624655e-18,0.18006050258604062,-1.4536080919692464e-18,-0.18006050258604056,0.4174596455816881,0.8071275541211703,0.4174596455816882,1000.0,45.0,[0.26368805]
-6.945670167485263e-20,0.1787162988713069,1.0235469206823998e-17,0.1787162988713069,9.420065164651888e-19,0.02762107926683709,1.0235469206823998e-17,0.02762107926683709,7.640237184233789e-19,0.18083815831323644,-2.308157186409355e-18,-0.1808381583132366,0.41776365401474663,0.8068129019596143,0.4177636540147467,1000.0,45.0,[0.25982883]
-9.506886041745453e-19,0.17819533024558756,9.102304145929948e-18,0.17819533024558756,7.596826745687006e-19,0.028287768906336375,9.102304145929948e-18,0.028287768906336375,-5.25266306416073e-19,0.18042664324049357,-3.475628279034525e-18,-0.18042664324049357,0.4154252350065536,0.8092241643942053,0.4154252350065537,1000.0,45.0,[0.26368805]
-1.862307813656986e-18,0.1761526732400808,7.979550807406104e-18,0.1761526732400808,5.55653613398821e-19,0.0297239626961479,7.979550807406104e-18,0.0297239626961479,-1.8406025943835946e-18,0.17864287908558996,-4.4961296972321e-18,-0.1786428790855899,0.40983640460076004,0.8149038243423847,0.40983640460076015,1000.0,45.0,[0.26607388]
-2.808655373976853e-18,0.1719834467903889,6.887252604675237e-18,0.1719834467903889,3.017025479001411e-19,0.03225277339571174,6.887252604675237e-18,0.03225277339571174,-3.2015198428252387e-18,0.1749815629191192,-5.723284810427952e-18,-0.17498156291911915,0.3992725606733325,0.8253259020451981,0.3992725606733326,1000.0,45.0,[0.27712414]
-3.815777548262216e-18,0.16425079663957814,5.8390770429985604e-18,0.16425079663957814,-2.387574120073059e-20,0.03661391640816239,5.8390770429985604e-18,0.03661391640816239,-4.621041183305039e-18,0.16828221258195994,-7.237788953359185e-18,-0.16828221258196,0.37923461509412826,0.8440155291396104,0.3792346150941285,1000.0,45.0,[0.26411854]
-4.892356424222432e-18,0.1491468973322845,4.880028537963248e-18,0.1491468973322845,-5.230957844887339e-19,0.04467814330187049,4.880028537963248e-18,0.04467814330187049,-6.179475927134545e-18,0.1556950014379058,-7.911017130075367e-18,-0.15569500143790588,0.3354916762439487,0.8802787458197836,0.3354916762439486,1000.0,45.0,[0.25860958]
-6.303195676992877e-18,0.1131870279463113,4.17025091052079e-18,0.1131870279463113,-1.5389000464834535e-18,0.06230200171270634,4.17025091052079e-18,0.06230200171270634,-8.109069920539044e-18,0.12920078448960398,-1.2261525741752587e-17,-0.12920078448960418,0.19692228044365848,0.9604390823627174,0.1969222804436584,1000.0,45.0,[0.22958461]
-9.207354015772651e-18,-0.029537267670159066,4.3523203943789184e-18,-0.029537267670159066,-6.340094549757642e-18,0.10029088639870838,4.3523203943789184e-18,0.10029088639870838,-1.1931359034583278e-17,0.1045500457965335,4.8157907725555714e-18,-0.10455004579653357,0.6208899913899993,0.4785302886792572,0.6208899913899993,1000.0,45.0,[0.24496912]
-9.064099568568268e-18,-0.02272429508412915,3.591917038701531e-18,-0.02272429508412915,-6.457302733833956e-18,0.09876331227490992,3.591917038701531e-18,0.09876331227490992,-1.172298892955872e-17,0.1013438968985402,-9.19774507142113e-18,-0.10134389689854023,0.6678346534100749,0.32862402743757274,0.6678346534100748,1000.0,57.8571428571429,[0.21227359]
-6.4638142996159734e-18,0.12157113092523288,2.023197751521e-18,0.12157113092523288,-1.892695120639734e-18,0.06047814229340088,2.023197751521e-18,0.06047814229340088,-6.891407119301785e-18,0.1357834510155822,-9.395820998887672e-18,-0.13578345101558198,0.0701539304333736,0.9950662551255062,0.07015393043337351,1000.0,57.8571428571429,[0.23603552]
-5.330801853544939e-18,0.1563790906147491,1.3484452259607223e-18,0.1563790906147491,-1.1199893145069986e-18,0.043178793241581755,1.3484452259607223e-18,0.043178793241581755,-3.961202517393939e-18,0.16223078674313088,-4.968217014183384e-18,-0.1622307867431309,0.20327930415192844,0.9577865362422965,0.20327930415192835,1000.0,57.8571428571429,[0.26792303]
-4.492980389592029e-18,0.1714709133018603,9.104322053034271e-19,0.1714709133018603,-8.638677270809797e-19,0.03517888757879472,9.104322053034271e-19,0.03517888757879472,-1.4542496913172269e-18,0.17504236127250905,-1.6017005940470731e-18,-0.17504236127250905,0.24819990075458473,0.9363725853157112,0.24819990075458473,1000.0,57.8571428571429,[0.29091663]
-3.741979802732685e-18,0.1797197419763209,5.564166875139012e-19,0.1797197419763209,-7.79217371914753e-19,0.03076162256529574,5.564166875139012e-19,0.03076162256529574,9.15960253337119e-19,0.18233338443325472,7.63981457382652e-19,-0.18233338443325467,0.2697995181944781,0.9243464934558119,0.269799518194478,1000.0,57.8571428571429,[0.35219147]
-3.0257075667107676e-18,0.18470951918417938,2.500763447143284e-19,0.18470951918417938,-7.618531964960398e-19,0.028107378157467947,2.500763447143284e-19,0.028107378157467947,3.203690364752578e-18,0.1868358402024024,3.0946206249070175e-18,-0.18683584020240243,0.28185059012802965,0.9171262125187367,0.28185059012802954,1000.0,57.8571428571429,[0.51683788]
-2.3354815938169196e-18,0.18779972073144316,-3.025164936228933e-20,0.18779972073144316,-7.987520692608053e-19,0.026494098491146336,-3.025164936228933e-20,0.026494098491146336,5.452351081475931e-18,0.18965935875054143,5.324776661384315e-18,-0.1896593587505414,0.2888771043024874,0.9127431386866842,0.2888771043024874,1000.0,57.8571428571429,[0.51574968]
-1.6713018840511415e-18,0.189582260392802,-2.9932006094083524e-19,0.189582260392802,-8.573561612989622e-19,0.025601617010978198,-2.9932006094083524e-19,0.025601617010978198,7.666283447361859e-18,0.19130310046944082,7.63626593490786e-18,-0.19130310046944088,0.2926936067513767,0.9103081374643099,0.29269360675137673,1000.0,57.8571428571429,[0.51574968]
-1.0158042619947197e-18,0.19030332787458268,-5.551237008189042e-19,0.19030332787458268,-9.46347560319867e-19,0.025296578560355935,-5.551237008189042e-19,0.025296578560355935,9.858510593974395e-18,0.19197727336067982,9.83720684573785e-18,-0.1919772733606798,0.2940300981666993,0.9094463165817775,0.29403009816669934,1000.0,57.8571428571429,[0.51574968]
-3.7767081535701116e-19,0.18999714044346575,-7.941386503400498e-19,0.18999714044346575,-1.0483620909048069e-18,0.02556247015968235,-7.941386503400498e-19,0.02556247015968235,1.2020350433604183e-17,0.19170903280064486,1.2007179965202477e-17,-0.19170903280064486,0.2930102517188891,0.9101043812526488,0.293010251718889,1000.0,57.8571428571429,[0.51574968]
2.5612158742601907e-19,0.18849686572268093,-1.0161349274445878e-18,0.18849686572268093,-1.2024691477458861e-18,0.02649436244186369,-1.0161349274445878e-18,0.02649436244186369,1.4153973488178562e-17,0.19034972978303705,1.4218496989316135e-17,-0.19034972978303705,0.28920638220422107,0.9125345675560419,0.28920638220422107,1000.0,57.8571428571429,[0.51574968]
8.551856393716231e-19,0.18533121402745728,-1.213944934576564e-18,0.18533121402745728,-1.3913045554243917e-18,0.028354270221534028,-1.213944934576564e-18,0.028354270221534028,1.6233333494569463e-17,0.18748766234791805,1.6229461558405737e-17,-0.18748766234791803,0.28132973987813586,0.9174459956423597,0.28132973987813586,1000.0,57.8571428571429,[0.51683788]
1.4325444720438354e-18,0.17937161882419544,-1.3760727482272637e-18,0.17937161882419544,-1.6561082305597675e-18,0.031753001943575124,-1.3760727482272637e-18,0.031753001943575124,1.8228043145794137e-17,0.18216045337021206,1.8073555664159e-17,-0.18216045337021192,0.2660782303916533,0.9265013494989053,0.2660782303916533,1000.0,57.8571428571429,[0.35184681]
1.9274234714771604e-18,0.16759134934095118,-1.466628449184083e-18,0.16759134934095118,-2.0902126160275963e-18,0.0382418334103617,-1.466628449184083e-18,0.0382418334103617,2.0057793130541035e-17,0.171899093064817,2.0028853060342402e-17,-0.1718990930648171,0.23357965423539587,0.9438649745882862,0.23357965423539592,1000.0,57.8571428571429,[0.28980255]
2.235637585159319e-18,0.13894626483981315,-1.348835241619541e-18,0.13894626483981315,-3.0409012202021416e-18,0.05265691919558703,-1.348835241619541e-18,0.05265691919558703,2.1397005159709288e-17,0.14858941971791287,1.945094706639363e-17,-0.148589419717913,0.13961348059191034,0.980314312898687,0.13961348059191034,1000.0,57.8571428571429,[0.25334889]
1.4064982089157657e-18,0.011770795340953717,-5.007546701194423e-19,0.011770795340953717,-7.785662153365512e-18,0.08278194298169839,-5.007546701194423e-19,0.08278194298169839,2.0485385950226847e-17,0.08361460223420179,-4.400525313433177e-18,-0.08361460223420177,0.5398023260211458,0.645931031646817,0.539802326021146,1000.0,57.8571428571429,[0.21662078]
2.0489726994081525e-18,0.017249213022954152,-2.34662247589709e-19,0.017249213022954152,-7.792173719147529e-18,0.07846534061748775,-2.34662247589709e-19,0.07846534061748775,2.0587400480811787e-17,0.08033893843043748,6.4404766909229694e-18,-0.08033893843043746,0.6017182669236664,0.5252335237784799,0.6017182669236661,1000.0,70.71428571428567,[0.23509012]
3.7289566711686505e-18,0.1457180970530275,-1.4836704377542067e-19,0.1457180970530275,-3.060435917548194e-18,0.04742560696690272,-1.4836704377542067e-19,0.04742560696690272,2.2197927750897432e-17,0.1532414826505364,2.030529613080496e-17,-0.1532414826505366,0.015519821874442171,0.9997591061140534,0.015519821874442384,1000.0,70.71428571428567,[0.2777017]
4.275928196858115e-18,0.1734725264505356,6.374721157379724e-19,0.1734725264505356,-2.114088357228327e-18,0.033836101136441935,6.374721157379724e-19,0.033836101136441935,2.1531577519204315e-17,0.17674161698153415,2.0785134694908145e-17,-0.17674161698153407,0.10144817660053253,0.989654755421735,0.10144817660053253,1000.0,70.71428571428567,[0.27157327]
4.679645275343196e-18,0.1852762541358796,1.6157416098720266e-18,0.1852762541358796,-1.6995186691065504e-18,0.02744347531673593,1.6157416098720266e-18,0.02744347531673593,2.034864306880448e-17,0.18729771670814174,1.955198670762525e-17,-0.1872977167081418,0.13322850200402736,0.9820897782318712,0.13322850200402736,1000.0,70.71428571428567,[0.54842892]
4.996541476734711e-18,0.19168309735970426,2.6636882493141785e-18,0.19168309735970426,-1.4390560378258529e-18,0.02380276322260391,2.6636882493141785e-18,0.02380276322260391,1.8987725820362837e-17,0.19315532959367498,1.8144898335939197e-17,-0.1931553295936751,0.14951475528961553,0.9773897256986961,0.14951475528961558,1000.0,70.71428571428567,[0.5327218]
5.287391414998156e-18,0.19554030650269183,3.735671723381356e-18,0.19554030650269183,-1.2632437617113822e-18,0.02150578480352978,3.735671723381356e-18,0.02150578480352978,1.753781717290029e-17,0.19671936927303932,1.662328081361056e-17,-0.1967193692730393,0.15917831722893291,0.9743328623465034,0.15917831722893291,1000.0,70.71428571428567,[0.53641762]
5.578241353261602e-18,0.1979144374979434,4.829818261190973e-18,0.1979144374979434,-1.1308419241436943e-18,0.019991096071594106,4.829818261190973e-18,0.019991096071594106,1.6031474955326922e-17,0.19892151339729713,1.494741805081986e-17,-0.19892151339729713,0.16528560107880658,0.9722969403181495,0.16528560107880658,1000.0,70.71428571428567,[0.53530733]
5.843045028396977e-18,0.19926641620577462,5.938412335579441e-18,0.19926641620577462,-1.0375094812681111e-18,0.019004843021386997,5.938412335579441e-18,0.019004843021386997,1.448606334306145e-17,0.20017064891177372,1.3259130918251535e-17,-0.20017064891177366,0.16911998784774382,0.9709772702904833,0.16911998784774393,1000.0,70.71428571428567,[0.54317442]
6.112189747387031e-18,0.19978610513212458,7.053840162598516e-18,0.19978610513212458,-9.506886041745453e-19,0.018433480014838705,7.053840162598516e-18,0.018433480014838705,1.2912434945740573e-17,0.20063469537774814,1.156207427552248e-17,-0.20063469537774808,0.17123444093614854,0.9702358128179815,0.1712344409361485,1000.0,70.71428571428567,[0.54317442]
6.355288203249016e-18,0.1994971826377052,8.177407446845113e-18,0.1994971826377052,-9.00766599845745e-19,0.018247241043398043,8.177407446845113e-18,0.018247241043398043,1.1312760285291622e-17,0.2003299470525507,9.789878722318217e-18,-0.20032994705255075,0.1717785857268601,0.9700434191165668,0.1717785857268602,1000.0,70.71428571428567,[0.54468947]
6.602727702965679e-18,0.1982647024943364,9.315693582911478e-18,0.1982647024943364,-8.768908586450144e-19,0.018490663005988527,9.315693582911478e-18,0.018490663005988527,9.663163620513872e-18,0.19912507846468958,7.918201730256353e-18,-0.19912507846468963,0.170556579067545,0.9704745780666036,0.1705565790675451,1000.0,70.71428571428567,[0.54317442]
6.837144071118306e-18,0.19571121534704056,1.0460338669936845e-17,0.19571121534704056,-9.094486875551016e-19,0.019312787676999777,1.0460338669936845e-17,0.019312787676999777,7.954962863697965e-18,0.1966618000031337,5.885842841971152e-18,-0.19666180000313374,0.1668704172454997,0.9717553847016366,0.1668704172454998,1000.0,70.71428571428567,[0.54317442]
7.043343654215524e-18,0.19092996863416942,1.1635252363527058e-17,0.19092996863416942,-1.0071221742853631e-18,0.02107456177983686,1.1635252363527058e-17,0.02107456177983686,6.1599412297884924e-18,0.19208953661471798,3.6796957643159426e-18,-0.19208953661471798,0.15890796638551602,0.9744211186332323,0.15890796638551608,1000.0,70.71428571428567,[0.53641762]
7.223496974184673e-18,0.18145934429308128,1.284787887560479e-17,0.18145934429308128,-1.2740963713480779e-18,0.024700562111101956,1.284787887560479e-17,0.024700562111101956,4.152208446999784e-18,0.18313276986896532,7.193647069530232e-19,-0.18313276986896537,0.14138745213797746,0.9798056831616472,0.14138745213797757,1000.0,70.71428571428567,[0.54125189]
7.260395846949439e-18,0.15801134171861556,1.4192161108337685e-17,0.15801134171861556,-2.057654787117509e-18,0.03304871784183549,1.4192161108337685e-17,0.03304871784183549,1.5931630946669323e-18,0.16143048616264016,-3.687322185340744e-18,-0.16143048616264005,0.09195778762740826,0.991507705763977,0.09195778762740832,1000.0,70.71428571428567,[0.26085163]
6.44645012419726e-18,0.041432012739014125,1.5945417152348437e-17,0.041432012739014125,-6.637456053803105e-18,0.04933937233286361,1.5945417152348437e-17,0.04933937233286361,-3.481517171451988e-18,0.06442814091533901,-1.3084607839158572e-17,-0.06442814091533897,0.360933220487828,0.859915356704699,0.3609332204878284,1000.0,70.71428571428567,[0.12673829]
7.4079913380085e-18,0.04449665968448834,1.5266111617901514e-17,0.04449665968448834,-6.617921356457053e-18,0.04308482948672912,1.5266111617901514e-17,0.04308482948672912,-3.757173456224059e-18,0.0619375108878109,-1.1522460541634219e-17,-0.0619375108878109,0.4319058940732883,0.7917793867798704,0.43190589407328783,1000.0,83.57142857142856,[0.15303237]
9.891068422884482e-18,0.16184826943667066,1.2713832189389041e-17,0.16184826943667066,-2.0055622608613696e-18,0.02543445620160997,1.2713832189389041e-17,0.02543445620160997,1.0114632181400414e-18,0.16383459305627968,-2.7255102475754062e-18,-0.1638345930562796,0.030873381135129378,0.9990463796413911,0.03087338113512928,1000.0,83.57142857142856,[0.28125849]
1.154500613151691e-17,0.18485569761452533,1.0545786013623266e-17,0.18485569761452533,-1.1894460161818513e-18,0.018241724672825504,1.0545786013623266e-17,0.018241724672825504,3.2557828910087173e-18,0.18575357186227134,1.259855229561648e-18,-0.1857535718622713,0.00978413994545583,0.9999042660230306,0.009784139945455914,1000.0,83.57142857142856,[0.57250715]
1.307305356836367e-17,0.19439278436121177,8.476312056323293e-18,0.19439278436121177,-8.85572946354371e-19,0.014717171951021962,8.476312056323293e-18,0.014717171951021962,4.935766862769215e-18,0.1949490953093666,3.705516739761487e-18,-0.1949490953093666,0.02589938971038054,0.9993289964897746,0.02589938971038057,1000.0,83.57142857142856,[0.57484903]
1.4575054742082356e-17,0.19947552536971036,6.429526836045038e-18,0.19947552536971036,-7.531711087866832e-19,0.01256809680849706,6.429526836045038e-18,0.01256809680849706,6.4052102075778165e-18,0.19987106413613184,5.6299041724604645e-18,-0.19987106413613187,0.03483014422117432,0.9987861243064324,0.03483014422117436,1000.0,83.57142857142856,[0.56594535]
1.6051009652672974e-17,0.2024659412396528,4.4136037244211345e-18,0.2024659412396528,-6.90225972893848e-19,0.011076712644962232,4.4136037244211345e-18,0.011076712644962232,7.772639021801477e-18,0.20276871288509385,7.308282864815434e-18,-0.20276871288509382,0.040668151232579206,0.998344731518451,0.04066815123257924,1000.0,83.57142857142856,[0.5642495]
1.7518282475554236e-17,0.20423635311498076,2.3912199186228866e-18,0.20423635311498076,-6.793733632571523e-19,0.009953431835157905,2.3912199186228866e-18,0.009953431835157905,9.08363426591432e-18,0.2044787488689332,8.870820407843877e-18,-0.20447874886893314,0.04487350858024768,0.9979843367785872,0.04487350858024769,1000.0,83.57142857142856,[0.55613897]
1.897687321072614e-17,0.20515843291574937,3.8341930702394843e-19,0.20515843291574937,-6.858849290391697e-19,0.009061031783045239,3.8341930702394843e-19,0.009061031783045239,1.0349048549553042e-17,0.20535843029546988,1.0332586328304142e-17,-0.2053584302954699,0.048090234737274154,0.99768464889755,0.04809023473727414,1000.0,83.57142857142856,[0.60112271]
2.0444146033607403e-17,0.2053798792314994,-1.623584316054795e-18,0.2053798792314994,-7.4665954300466575e-19,0.008328299682696971,-1.623584316054795e-18,0.008328299682696971,1.1581905004281676e-17,0.2055486690999242,1.1729213619672997e-17,-0.20554866909992411,0.0506358385234414,0.9974327163844469,0.05063583852344136,1000.0,83.57142857142856,[0.60112271]
2.189839572492463e-17,0.20490911460756225,-3.6321649589713705e-18,0.20490911460756225,-8.0526363504282275e-19,0.007718136617988738,-3.6321649589713705e-18,0.007718136617988738,1.2780033108172885e-17,0.2050544193186507,1.3064227220612179e-17,-0.20505441931865073,0.05266697490912953,0.9972223320342571,0.05266697490912949,1000.0,83.57142857142856,[0.60112271]
2.3326599153113787e-17,0.20361798389060154,-5.627247668652306e-18,0.20361798389060154,-9.029371217730842e-19,0.007215731882366993,-5.627247668652306e-18,0.007215731882366993,1.3934750773517308e-17,0.20374579787144448,1.4343666464043443e-17,-0.20374579787144442,0.05423619138681252,0.9970540963697538,0.05423619138681249,1000.0,83.57142857142856,[0.55613897]
2.4765655190939643e-17,0.20116455295919022,-7.627451453505557e-18,0.20116455295919022,-1.0418505251227894e-18,0.006827606811491681,-7.627451453505557e-18,0.006827606811491681,1.5026523302968898e-17,0.2012803854876157,1.5555770792062248e-17,-0.20128038548761573,0.0552904153264895,0.9969382829172772,0.05529041532648944,1000.0,83.57142857142856,[0.5642495]
2.6187347053346783e-17,0.19673348254982603,-9.625009914759863e-18,0.19673348254982603,-1.2675848055660605e-18,0.006593247150250409,-9.625009914759863e-18,0.006593247150250409,1.6016281301835548e-17,0.19684393326736527,1.6671131508213546e-17,-0.19684393326736527,0.05559094289245707,0.996904857113584,0.05559094289245701,1000.0,83.57142857142856,[0.5642495]
2.7580822130698514e-17,0.18810034058118932,-1.1609053485575972e-17,0.18810034058118932,-1.6582787524871067e-18,0.0066270668793063335,-1.1609053485575972e-17,0.0066270668793063335,1.67954986737503e-17,0.18821704530191252,1.7626097477492544e-17,-0.18821704530191258,0.05438127529795098,0.9970382910369775,0.05438127529795089,1000.0,83.57142857142856,[0.5642495]
2.887445319939264e-17,0.16670088801181096,-1.3579921310005032e-17,0.16670088801181096,-2.5590453523328515e-18,0.007241506710211315,-1.3579921310005032e-17,0.007241506710211315,1.6982163559501467e-17,0.16685809984343097,1.8183735447741675e-17,-0.16685809984343092,0.04860134231306774,0.9976351131805336,0.04860134231306761,1000.0,83.57142857142856,[0.27956265]
2.940189002773605e-17,0.053663538237415244,-1.5542734463219353e-17,0.053663538237415244,-7.253884281167421e-18,0.006450732519643123,-1.5542734463219353e-17,0.006450732519643123,1.4559861088590982e-17,0.0540498592615976,1.8462899025425372e-17,-0.05404985926159758,0.005256044004201383,0.9999723736198175,0.005256044004201837,1000.0,83.57142857142856,[0.15741655]
