stress_11,stress_12,stress_13,stress_21,stress_22,stress_23,stress_31,stress_32,stress_33,e1,e2,e3,anev1,anev2,anev3,temp,miss,velo
-1.2361122376196429e-17,0.04310313542640652,8.307672676890577e-19,0.04310313542640652,-3.800583894770842e-18,-0.043769850213241285,8.307672676890577e-19,-0.043769850213241285,-1.474327019145114e-17,0.06143028627050929,-6.640304096284769e-18,-0.06143028627050927,0.31168229410260995,0.8976125528789514,0.31168229410261006,300.0,109.28571428571416,[0.27279338]
-1.0639898487816487e-17,0.15977777185591654,7.010107537203144e-19,0.15977777185591654,5.25266306416073e-19,-0.027505284047732715,7.010107537203144e-19,-0.027505284047732715,-1.0220987755840032e-17,0.16212796498379844,-9.96054884750235e-18,-0.16212796498379853,0.1169271477321209,0.9862332808450858,0.11692714773212093,300.0,109.28571428571416,[0.4775251]
-9.765178151098812e-18,0.18331800545489593,1.58897466563527e-19,0.18331800545489593,1.0678967882508592e-18,-0.01919310471406091,1.58897466563527e-19,-0.01919310471406091,-8.207828668232975e-18,0.1843200108304201,-8.195660466929648e-18,-0.18432001083042007,0.16277437281977578,0.9731438779061693,0.16277437281977578,300.0,109.28571428571416,[1.00510513]
-9.025030173876163e-18,0.19287933169640048,-5.042987254539257e-19,0.19287933169640048,1.0874314855969115e-18,-0.015608339216046577,-5.042987254539257e-19,-0.015608339216046577,-6.756834759806758e-18,0.19350983656841125,-6.874803814705618e-18,-0.19350983656841128,0.17894758328493185,0.9674479442703698,0.17894758328493188,300.0,109.28571428571416,[1.0358712]
-8.32395159134562e-18,0.19775010566321272,-1.214059395693826e-18,0.19775010566321272,9.46347560319867e-19,-0.01389183788850841,-1.214059395693826e-18,-0.01389183788850841,-5.503358346768401e-18,0.19823745218735137,-5.696981863334202e-18,-0.19823745218735137,0.1861973525552025,0.9647077753407335,0.1861973525552025,300.0,109.28571428571416,[1.03212668]
-7.633725618451772e-18,0.20039202738925446,-1.940124416192606e-18,0.20039202738925446,7.20613279876596e-19,-0.013118582995255885,-1.940124416192606e-18,-0.013118582995255885,-4.346470159496637e-18,0.20082096967443192,-4.6198857785771696e-18,-0.20082096967443194,0.18944426304757284,0.963442651327376,0.1894442630475729,300.0,109.28571428571416,[1.03212668]
-6.960863820976637e-18,0.20171186222609191,-2.6906502013803445e-18,0.20171186222609191,4.514685608865421e-19,-0.012927386055864899,-2.6906502013803445e-18,-0.012927386055864899,-3.2481860642630303e-18,0.20212568533700814,-3.600547426144306e-18,-0.20212568533700817,0.1903777247269812,0.9630745785532685,0.19037772472698128,300.0,109.28571428571416,[1.03212668]
-6.296684111210859e-18,0.2020870503894123,-3.4418118816639836e-18,0.2020870503894123,1.4976601298640098e-19,-0.013169028657859667,-3.4418118816639836e-18,-0.013169028657859667,-2.1878861027578578e-18,0.20251567655587654,-2.646071569374843e-18,-0.2025156765558765,0.18964740169098057,0.9633627178086765,0.1896474016909806,300.0,109.28571428571416,[1.03212668]
-5.654209620718472e-18,0.20165252202015818,-4.208760717528503e-18,0.20165252202015818,-1.7798279804180986e-19,-0.01379882109467544,-4.208760717528503e-18,-0.01379882109467544,-1.1612292311264424e-18,0.20212408837319024,-1.7413833355316885e-18,-0.20212408837319026,0.18743313208085036,0.9642290402164441,0.18743313208085033,300.0,109.28571428571416,[1.03212668]
-5.009564608298746e-18,0.20038458194525505,-4.985561688078835e-18,0.20038458194525505,-5.25266306416073e-19,-0.014846385264374541,-4.985561688078835e-18,-0.014846385264374541,-1.6387440551410542e-19,0.20093380959110113,-9.323740312409933e-19,-0.20093380959110113,0.18359011442515752,0.9657066530632972,0.1835901144251575,300.0,109.28571428571416,[1.03212668]
-4.367090117806359e-18,0.19809335396695266,-5.7667121810851245e-18,0.19809335396695266,-9.029371217730842e-19,-0.01642512559742321,-5.7667121810851245e-18,-0.01642512559742321,7.900699815514487e-19,0.19877314113523373,-2.004338630515395e-19,-0.1987731411352337,0.1775927512678753,0.9679471211766751,0.17759275126787535,300.0,109.28571428571416,[1.0358712]
-3.741979802732685e-18,0.1943179061399277,-6.5757360757950374e-18,0.1943179061399277,-1.3413825510955914e-18,-0.018788756524097474,-6.5757360757950374e-18,-0.018788756524097474,1.6973481471792113e-18,0.19522414302111196,3.680009545003862e-19,-0.19522414302111196,0.16822402846612555,0.9712885011639212,0.16822402846612552,300.0,109.28571428571416,[1.01160517]
-3.188496711261204e-18,0.1879916935201157,-7.415149397138016e-18,0.1879916935201157,-1.847114160165612e-18,-0.022498587117880123,-7.415149397138016e-18,-0.022498587117880123,2.5112938699313903e-18,0.1893332069523515,6.225546522342235e-19,-0.18933320695235156,0.15257710900206375,0.9764427538863427,0.15257710900206387,300.0,109.28571428571416,[1.00510513]
-2.628502054007704e-18,0.17626752277041743,-8.32279850157172e-18,0.17626752277041743,-2.5026117822220337e-18,-0.028962680554361728,-8.32279850157172e-18,-0.028962680554361728,3.1407452288597426e-18,0.17863111836551207,3.260544209405973e-19,-0.17863111836551218,0.122238021373669,0.984944532581049,0.12223802137366908,300.0,109.28571428571416,[0.49071935]
-2.2747069798514236e-18,0.14859180394213026,-9.408938060298795e-18,0.14859180394213026,-3.689887276476546e-18,-0.04262596403658659,-9.408938060298795e-18,-0.04262596403658659,3.2633797177544043e-18,0.15458491843910535,-1.518339882740753e-18,-0.15458491843910532,0.040449103269518345,0.9983625293896923,0.040449103269518394,300.0,109.28571428571416,[0.47841516]
-3.0278780886381067e-18,0.02020174378737251,-1.1207112674058772e-17,0.02020174378737251,-8.662553012010526e-18,-0.07374209502988309,-1.1207112674058772e-17,-0.07374209502988309,1.103710400051955e-18,0.07645918539617687,-3.468565514824861e-18,-0.07645918539617691,0.5820026281865208,0.5679312296114424,0.5820026281865209,300.0,109.28571428571416,[0.37201521]
-1.1957405297711348e-17,0.046086227709653954,1.0801907601049285e-18,0.046086227709653954,-3.748491368514703e-18,-0.03743423857880651,1.0801907601049285e-18,-0.03743423857880651,-1.5184971403664656e-17,0.0593739219058425,-1.5876264714156648e-17,-0.059373921905842494,0.3815628144013083,0.8419142695858681,0.3815628144013082,300.0,96.42857142857144,[0.28694248]
-9.628435269676446e-18,0.16333680844469797,9.089230142758241e-19,0.16333680844469797,6.75032319402474e-19,-0.019742414550621038,9.089230142758241e-19,-0.019742414550621038,-1.1276946673490526e-17,0.16452560872152555,-1.1075260805682274e-17,-0.16452560872152558,0.0057176831987364365,0.9999673075644412,0.0057176831987364495,300.0,96.42857142857144,[0.47871747]
-8.174185578359219e-18,0.18624459895040563,3.4468905638299057e-19,0.18624459895040563,1.306654200258165e-18,-0.012505284834249042,3.4468905638299057e-19,-0.012505284834249042,-9.887812639993473e-18,0.18666395685022621,-9.830957374596761e-18,-0.18666395685022627,0.03191923084442635,0.9989806431581149,0.03191923084442634,300.0,96.42857142857144,[1.04729034]
-6.813268329917576e-18,0.19568182480721252,-3.074171251619637e-19,0.19568182480721252,1.4195213404798006e-18,-0.008938284176975543,-3.074171251619637e-19,-0.008938284176975543,-9.077122700132303e-18,0.1958858583050573,-9.103710275050922e-18,-0.1958858583050574,0.04702592664119716,0.997786111572552,0.04702592664119716,300.0,96.42857142857144,[1.04729034]
-5.5022730858047316e-18,0.20066412788444107,-9.940142567085416e-19,0.20066412788444107,1.3739403800056785e-18,-0.00675000239404946,-9.940142567085416e-19,-0.00675000239404946,-8.471547082404681e-18,0.20077762512775912,-8.53525185500502e-18,-0.20077762512775915,0.05550312989165214,0.9969146428578831,0.055503129891652146,300.0,96.42857142857144,[1.04729034]
-4.206471495183262e-18,0.20355346680932077,-1.6986368945735689e-18,0.20355346680932077,1.245879586292669e-18,-0.005223105693549945,-1.6986368945735689e-18,-0.005223105693549945,-7.961474429479982e-18,0.20362046725017416,-8.046175820942989e-18,-0.20362046725017416,0.061120713362328265,0.9962572543254882,0.06112071336232827,300.0,96.42857142857144,[1.03553544]
-2.910669904561793e-18,0.20522217859736747,-2.4186397151581006e-18,0.20522217859736747,1.0765788759602157e-18,-0.004068232139627099,-2.4186397151581006e-18,-0.004068232139627099,-7.514346912448119e-18,0.20526249803846702,-7.60814613333411e-18,-0.20526249803846702,0.06522879653591156,0.9957361137394551,0.06522879653591157,300.0,96.42857142857144,[1.08860132]
-1.6409145770683935e-18,0.2060419792555678,-3.134369320698184e-18,0.2060419792555678,8.70379292862997e-19,-0.0031482990660997505,-3.134369320698184e-18,-0.0031482990660997505,-7.108459312035699e-18,0.20606603068570387,-7.202934669374305e-18,-0.20606603068570384,0.06842627455514155,0.9953068320377435,0.06842627455514157,300.0,96.42857142857144,[1.09036433]
-3.646476837929763e-19,0.2061606241784714,-3.8513537592275094e-18,0.2061606241784714,6.403039685650477e-19,-0.00239219167655431,-3.8513537592275094e-18,-0.00239219167655431,-6.739470584388045e-18,0.20617450264927115,-6.827996291922773e-18,-0.20617450264927115,0.07101271362939109,0.9949444150333123,0.07101271362939111,300.0,96.42857142857144,[1.09036433]
9.051076437004233e-19,0.20558659949170177,-4.569949131999782e-18,0.20558659949170177,3.841823811390286e-19,-0.0017628836886738252,-4.569949131999782e-18,-0.0017628836886738252,-6.407380729505156e-18,0.20559415762482447,-6.485223019387407e-18,-0.20559415762482447,0.07314290943924456,0.9946357270868191,0.07314290943924459,300.0,96.42857142857144,[1.08512331]
2.174862971193823e-18,0.20419181774346337,-5.309707093563612e-18,0.20419181774346337,9.984400865760066e-20,-0.0012456188210384258,-5.309707093563612e-18,-0.0012456188210384258,-6.1143602693143704e-18,0.20419561699416344,-6.178825602529189e-18,-0.2041956169941635,0.0748830493939495,0.9943767182647263,0.07488304939394955,300.0,96.42857142857144,[1.02702828]
3.433765689050527e-18,0.20163441528826012,-6.034644460092329e-18,0.20163441528826012,-2.344163681526276e-19,-0.0008469580671330761,-6.034644460092329e-18,-0.0008469580671330761,-5.882114423089082e-18,0.20163619408877478,-5.932643986757663e-18,-0.20163619408877478,0.07621866730238178,0.9941737421141729,0.07621866730238179,300.0,96.42857142857144,[1.03878319]
4.666622143779161e-18,0.1970991253493599,-6.769298303686401e-18,0.1970991253493599,-6.403039685650477e-19,-0.0006064138564983294,-6.769298303686401e-18,-0.0006064138564983294,-5.754053629376072e-18,0.19710005822233545,-5.795608252127034e-18,-0.19710005822233548,0.07700860346918006,0.9940519855538006,0.07700860346918012,300.0,96.42857142857144,[1.03878319]
5.882114423089082e-18,0.1883615898586836,-7.502510785063097e-18,0.1883615898586836,-1.2111512354552427e-18,-0.0006384148862483588,-7.502510785063097e-18,-0.0006384148862483588,-5.8321924187602816e-18,0.18836267174697305,-5.882914309671593e-18,-0.1883626717469731,0.07678886799675054,0.994085981947012,0.0767888679967506,300.0,96.42857142857144,[1.03878319]
7.00210373759608e-18,0.16685764497687308,-8.27007855882096e-18,0.16685764497687308,-2.296412199124815e-18,-0.0012554052197339383,-8.27007855882096e-18,-0.0012554052197339383,-6.513736303944774e-18,0.1668623676252196,-6.637376612147808e-18,-0.16686236762521964,0.07388206401271828,0.9945264608015422,0.07388206401271834,300.0,96.42857142857144,[0.47759352]
7.351557767897683e-18,0.053715780229936144,-9.036628900425382e-18,0.053715780229936144,-7.186598101419908e-18,-0.00047154311094685993,-9.036628900425382e-18,-0.00047154311094685993,-9.797735980008899e-18,0.053717849906863166,-9.955055410883391e-18,-0.053717849906863166,0.07299973249259187,0.9946567639703761,0.0729997324925921,300.0,96.42857142857144,[0.2826664]
-3.218884018243952e-18,0.014788545160434551,-1.1526109448917078e-17,0.014788545160434551,-8.824256895597292e-18,-0.07812051045406855,-1.1526109448917078e-17,-0.07812051045406855,1.8080447654735075e-18,0.07950795697014512,-5.5108742760654476e-18,-0.07950795697014511,0.5183022785843945,0.6802392932111826,0.5183022785843946,300.0,122.14285714285735,[0.38452954]
-2.3658689007996676e-18,0.1420345237980784,-9.971305666085162e-18,0.1420345237980784,-4.171743144345836e-18,-0.04805186029045781,-9.971305666085162e-18,-0.04805186029045781,4.8934416851861015e-18,0.14994261311555357,-2.120496343255718e-18,-0.14994261311555346,0.1644900044425582,0.9725667467464505,0.1644900044425583,300.0,122.14285714285735,[0.47170626]
-2.6198199662983476e-18,0.17074793039817013,-9.155965213422641e-18,0.17074793039817013,-3.3002785905191698e-18,-0.033694505675673427,-9.155965213422641e-18,-0.033694505675673427,5.722581061429655e-18,0.17404072927905792,1.8416054959547335e-18,-0.1740407292790579,0.25317202407638184,0.933706513016877,0.25317202407638195,300.0,122.14285714285735,[0.51034853]
-3.129892619223047e-18,0.1825952053787302,-8.529193092498349e-18,0.1825952053787302,-2.9573361259995845e-18,-0.02726507694470134,-8.529193092498349e-18,-0.02726507694470134,6.067694047876579e-18,0.1846195911817083,3.242393026955123e-18,-0.1846195911817083,0.28365725197357705,0.9160115320265336,0.2836572519735771,300.0,122.14285714285735,[1.05690908]
-3.644306316002424e-18,0.18862070607687012,-7.992976672530875e-18,0.18862070607687012,-2.7674154573574094e-18,-0.023927416079914256,-7.992976672530875e-18,-0.023927416079914256,6.239165280136372e-18,0.19013230130937345,4.016436479437425e-18,-0.1901323013093733,0.29786542826775353,0.9069467312283206,0.29786542826775353,300.0,122.14285714285735,[1.05703795]
-4.221665148674636e-18,0.19185123009464597,-7.48613012739271e-18,0.19185123009464597,-2.6632304048451304e-18,-0.022130169714049377,-7.48613012739271e-18,-0.022130169714049377,6.330327201084616e-18,0.1931233774052262,4.49398929660962e-18,-0.19312337740522606,0.3051170181954406,0.9021126373214413,0.30511701819544074,300.0,122.14285714285735,[1.05944875]
-4.831581810256936e-18,0.1934153722033568,-7.005122119651287e-18,0.1934153722033568,-2.6024557908796344e-18,-0.021262431901345795,-7.005122119651287e-18,-0.021262431901345795,6.366140812885712e-18,0.19458056741340438,4.6135678531014454e-18,-0.19458056741340446,0.3085261873567295,0.8997906331087476,0.30852618735672954,300.0,122.14285714285735,[1.05817253]
-5.432816384129879e-18,0.19378443738357345,-6.533677974152202e-18,0.19378443738357345,-2.5698979619695472e-18,-0.021062083456936914,-6.533677974152202e-18,-0.021062083456936914,6.373737639631399e-18,0.19492567694281612,4.85036177514128e-18,-0.19492567694281598,0.3093076225701819,0.8992539069917703,0.30930762257018185,300.0,122.14285714285735,[1.05817253]
-6.066608786912909e-18,0.1931252683658407,-6.089424702953806e-18,0.1931252683658407,-2.5633863961875298e-18,-0.02143394714804236,-6.089424702953806e-18,-0.02143394714804236,6.353117681321677e-18,0.19431104799193238,4.855358334027296e-18,-0.19431104799193227,0.30786397774585583,0.9002441571112796,0.30786397774585583,300.0,122.14285714285735,[1.05817253]
-6.70040118969594e-18,0.19140365656465527,-5.647969370177372e-18,0.19140365656465527,-2.580750571606243e-18,-0.022394429602881103,-5.647969370177372e-18,-0.022394429602881103,6.307536720847555e-18,0.1927092894065018,4.871435806973212e-18,-0.1927092894065019,0.30407787639655004,0.9028140950230721,0.3040778763965501,300.0,122.14285714285735,[1.05944875]
-7.366751421389057e-18,0.1883734214155448,-5.2236662477876836e-18,0.1883734214155448,-2.628502054007704e-18,-0.02407678202160132,-5.2236662477876836e-18,-0.02407678202160132,6.227227409536007e-18,0.18990586438631687,4.6931695811178636e-18,-0.1899058643863168,0.29725980895753834,0.9073440427737737,0.2972598089575384,300.0,122.14285714285735,[1.05703795]
-8.037442696936853e-18,0.18344266168036746,-4.825680703766983e-18,0.18344266168036746,-2.7218344968832874e-18,-0.02680107241491677,-4.825680703766983e-18,-0.02680107241491677,6.107848703532353e-18,0.1853901497031796,4.338727715034815e-18,-0.18539014970317957,0.28569647762749195,0.9147431581282737,0.2856964776274921,300.0,122.14285714285735,[1.05690908]
-8.781931718014179e-18,0.1752519244102526,-4.478566767418293e-18,0.1752519244102526,-2.8889646852884015e-18,-0.03128926984189895,-4.478566767418293e-18,-0.03128926984189895,5.914672251999169e-18,0.17802318786252566,4.052977415577334e-18,-0.17802318786252547,0.26511566256731345,0.9270530572318871,0.2651156625673136,300.0,122.14285714285735,[0.50700114]
-9.59153639691168e-18,0.16021732243737705,-4.2090489899719775e-18,0.16021732243737705,-3.230821888844317e-18,-0.03936093783665577,-4.2090489899719775e-18,-0.03936093783665577,5.569559265552245e-18,0.164981434823387,2.9364671353709007e-18,-0.16498143482338715,0.22249752500232278,0.9492047738689906,0.22249752500232278,300.0,122.14285714285735,[0.48914724]
-1.0685479448290609e-17,0.12546589703421743,-4.1791703990659496e-18,0.12546589703421743,-4.088178050143279e-18,-0.05673293065746407,-4.1791703990659496e-18,-0.05673293065746407,4.814217634838223e-18,0.1376964659662166,-4.0913072941714263e-19,-0.1376964659662167,0.09610498685764099,0.9907207795348725,0.09610498685764128,300.0,122.14285714285735,[0.48167687]
-1.3255377410260158e-17,-0.018772930683699025,-5.045174733669154e-18,-0.018772930683699025,-8.745032845249414e-18,-0.09509213500567607,-5.045174733669154e-18,-0.09509213500567607,2.1509872299930923e-18,0.09692748354513643,-2.5179570638762816e-17,-0.09692748354513646,0.6602505641648835,0.35796422312838183,0.6602505641648834,300.0,122.14285714285735,[0.35849189]
-1.3407313945173898e-17,-0.025540762328429795,-4.8157607402709404e-18,-0.025540762328429795,-8.72983919175804e-18,-0.09667701824104745,-4.8157607402709404e-18,-0.09667701824104745,2.5850916154609212e-18,0.09999388179432359,-1.563031244082873e-17,-0.09999388179432361,0.6111262928109216,0.5030400664662401,0.6111262928109216,300.0,135.00000000000023,[0.43469189]
-1.0544395523013565e-17,0.11723141563018435,-3.3491662054919725e-18,0.11723141563018435,-4.063217047978879e-18,-0.05874028019646489,-3.3491662054919725e-18,-0.05874028019646489,5.5152962173687665e-18,0.13112446502547212,9.829931763066718e-19,-0.131124465025472,0.2230366980805515,0.9489516650592112,0.22303669808055143,300.0,135.00000000000023,[0.46301198]
-9.179137230717243e-18,0.15323744806990125,-2.7884423885285074e-18,0.15323744806990125,-3.185240928370195e-18,-0.041168761648974504,-2.7884423885285074e-18,-0.041168761648974504,6.564743569237244e-18,0.15867130309758518,4.269836521556199e-18,-0.15867130309758526,0.3531473058868229,0.8663567167684209,0.3531473058868229,300.0,135.00000000000023,[0.48710411]
-8.130775139812436e-18,0.16838640460077953,-2.4789903990596632e-18,0.16838640460077953,-2.8303605932502446e-18,-0.03315753145996374,-2.4789903990596632e-18,-0.03315753145996374,7.238690627676047e-18,0.17161993808091153,5.88139574743217e-18,-0.17161993808091158,0.393977747145736,0.8303993433932501,0.39397774714573613,300.0,135.00000000000023,[0.50743694]
-7.171404447928534e-18,0.17616314144231135,-2.248728545533583e-18,0.17616314144231135,-2.6371841417170607e-18,-0.028850130442675655,-2.248728545533583e-18,-0.028850130442675655,7.775894804692486e-18,0.17850989448594487,6.5664750541387955e-18,-0.178509894485945,0.4126186154102376,0.8120909779291215,0.41261861541023764,300.0,135.00000000000023,[0.50226551]
-6.296684111210859e-18,0.1803755063707562,-2.0676934510314526e-18,0.1803755063707562,-2.5058675651130425e-18,-0.026375812073461624,-2.0676934510314526e-18,-0.026375812073461624,8.243642280034071e-18,0.18229373758042616,7.439395179303542e-18,-0.18229373758042616,0.422394362914832,0.8019763115925223,0.42239436291483184,300.0,135.00000000000023,[0.73073942]
-5.421963774493183e-18,0.18246034346190526,-1.9167743482711527e-18,0.18246034346190526,-2.438581385365529e-18,-0.024994847297676825,-1.9167743482711527e-18,-0.024994847297676825,8.67666140453823e-18,0.18416438126758,7.888085412568929e-18,-0.18416438126758006,0.4275134395707088,0.7965328103555082,0.4275134395707088,300.0,135.00000000000023,[1.06830319]
-4.590653876322291e-18,0.18302250964702743,-1.7819985023454377e-18,0.18302250964702743,-2.3995119906734244e-18,-0.024384106299006707,-1.7819985023454377e-18,-0.024384106299006707,9.079293222059642e-18,0.18463971316457764,8.47300425910578e-18,-0.1846397131645776,0.42958906464131014,0.7942962111713792,0.42958906464131036,300.0,135.00000000000023,[1.06830319]
-3.757173456224059e-18,0.1822794834739574,-1.6552434132293433e-18,0.1822794834739574,-2.3864888591093895e-18,-0.024416782736823787,-1.6552434132293433e-18,-0.024416782736823787,9.467816647053349e-18,0.18390755660045607,8.849063669533125e-18,-0.1839075566004561,0.42919035969820174,0.7947271671990683,0.4291903596982018,300.0,135.00000000000023,[1.06830319]
-2.96927399659995e-18,0.1801932858033006,-1.5475821341928103e-18,0.1801932858033006,-2.3962562077824157e-18,-0.025092842230861195,-1.5475821341928103e-18,-0.025092842230861195,9.834634852773664e-18,0.18193205044689864,9.1569275414545e-18,-0.18193205044689864,0.42625926325639374,0.7978759809495662,0.42625926325639374,300.0,135.00000000000023,[0.74990191]
-2.1813745369758403e-18,0.17645835816347488,-1.460846043112031e-18,0.17645835816347488,-2.433155080547181e-18,-0.026539023512457433,-1.460846043112031e-18,-0.026539023512457433,1.017649205632958e-17,0.17844290945494012,9.363221605656083e-18,-0.17844290945494018,0.4200764690201249,0.8044075586114093,0.420076469020125,300.0,135.00000000000023,[0.49987968]
-1.4683580838449313e-18,0.1703359680745662,-1.3993083550314548e-18,0.1703359680745662,-2.524317001495425e-18,-0.029078392908656145,-1.3993083550314548e-18,-0.029078392908656145,1.0495558779648434e-17,0.17280015901048773,9.37427234563025e-18,-0.17280015901048773,0.4087310335094582,0.8160134095053707,0.4087310335094584,300.0,135.00000000000023,[0.50967467]
-7.770468499874139e-19,0.16013300875630485,-1.3815032923462509e-18,0.16013300875630485,-2.687106146045861e-18,-0.03345062610985278,-1.3815032923462509e-18,-0.03345062610985278,1.0753850889001792e-17,0.1635895011316068,9.72474894350971e-18,-0.16358950113160675,0.38719594402496993,0.83675480390687,0.38719594402497,300.0,135.00000000000023,[0.48984397]
-2.582921093533582e-19,0.14142326437602837,-1.4571324157519742e-18,0.14142326437602837,-3.0213665228560893e-18,-0.041526443861315265,-1.4571324157519742e-18,-0.041526443861315265,1.0904702162951863e-17,0.14739397968213963,9.055930797486217e-18,-0.14739397968213966,0.3388768684112637,0.8776815687432145,0.33887686841126374,300.0,135.00000000000023,[0.49350626]
-8.356509420255707e-20,0.09869218006314992,-1.776131310260599e-18,0.09869218006314992,-3.861358508736338e-18,-0.05916238027751903,-1.776131310260599e-18,-0.05916238027751903,1.07571066718928e-17,0.11506664871160101,1.007778251609703e-17,-0.11506664871160102,0.17176914522255515,0.9700467625321088,0.1717691452225555,300.0,135.00000000000023,[0.45702223]
-1.809130026437177e-18,-0.06296458646014069,-2.9965750927172625e-18,-0.06296458646014069,-8.504104911314769e-18,-0.09716387109856087,-2.9965750927172625e-18,-0.09716387109856087,9.101541071814868e-18,0.11578150540977727,1.0846264822340906e-17,-0.11578150540977727,0.6915113816838455,0.2088636349472973,0.6915113816838453,300.0,135.00000000000023,[0.31824724]
-1.0613852224688417e-18,-0.06973796945429664,-2.7079974195965003e-18,-0.06973796945429664,-8.482399692041377e-18,-0.0956380836285679,-2.7079974195965003e-18,-0.0956380836285679,9.535102826800862e-18,0.11836396167648902,1.593238815370896e-17,-0.11836396167648897,0.6567303525469715,0.370689206866157,0.6567303525469717,300.0,147.8571428571427,[0.4535419]
2.821678505540888e-18,0.09043838548148728,-1.0374416524578818e-18,0.09043838548148728,-3.811979134889373e-18,-0.05734388174584829,-1.0374416524578818e-18,-0.05734388174584829,1.1444619492377475e-17,0.1070860511092828,1.0474472929739099e-17,-0.10708605110928264,0.30419182929251043,0.902737316157559,0.3041918292925102,300.0,147.8571428571427,[0.47711486]
4.772977718218779e-18,0.1344104778949047,-2.614461490290229e-19,0.1344104778949047,-2.9296619714260104e-18,-0.04003602756571718,-2.614461490290229e-19,-0.04003602756571718,1.188632070459099e-17,0.1402464262331827,1.0820198366511012e-17,-0.14024642623318256,0.46641575353133885,0.7516067387374776,0.46641575353133874,300.0,147.8571428571427,[0.51855738]
6.32055985241159e-18,0.1532208189290579,2.8040430148812575e-19,0.1532208189290579,-2.5785800496789038e-18,-0.032028099478716404,2.8040430148812575e-19,-0.032028099478716404,1.2055078784441609e-17,0.1565324838795759,1.2062545315759128e-17,-0.15653248387957597,0.5090825984926716,0.6940243625578998,0.5090825984926715,300.0,147.8571428571427,[0.49253311]
7.707523363981303e-18,0.16299573031307638,7.316354615388651e-19,0.16299573031307638,-2.3816051847728764e-18,-0.027603305193273874,7.316354615388651e-19,-0.027603305193273874,1.212887652997114e-17,0.1653165162888637,1.2194902371209656e-17,-0.16531651628886368,0.5275036446890002,0.665942797603249,0.527503644689,300.0,147.8571428571427,[0.49556923]
9.038053305440198e-18,0.16838530315054034,1.1402701287655738e-18,0.16838530315054034,-2.2524591300961973e-18,-0.024942052411585924,1.1402701287655738e-18,-0.024942052411585924,1.215383753213554e-17,0.17022254931589312,1.2477451849755212e-17,-0.17022254931589306,0.5371386265022209,0.6503569726224318,0.5371386265022211,300.0,147.8571428571427,[0.49895244]
1.0296956023296902e-17,0.17115996323755306,1.5197723219987773e-18,0.17115996323755306,-2.192227146612536e-18,-0.023322321889403,1.5197723219987773e-18,-0.023322321889403,1.2163062250326732e-17,0.1727416096769781,1.2539163324626796e-17,-0.172741609676978,0.5424501459037336,0.6414792891575192,0.5424501459037336,300.0,147.8571428571427,[0.51654541]
1.1553688219226267e-17,0.17207133257853047,1.8853696091349645e-18,0.17207133257853047,-2.139049359392727e-18,-0.02242399038124637,1.8853696091349645e-18,-0.02242399038124637,1.2146783335871688e-17,0.17352630590192789,1.2597483535531346e-17,-0.17352630590192802,0.5450892613193103,0.6369893204667858,0.5450892613193101,300.0,147.8571428571427,[0.51654541]
1.276918049853619e-17,0.17139620524363067,2.233670549662668e-18,0.17139620524363067,-2.1352509460198835e-18,-0.022113751821175733,2.233670549662668e-18,-0.022113751821175733,1.2120737072743618e-17,0.17281688919641305,1.265585398491837e-17,-0.17281688919641308,0.545663238973391,0.6360057069446279,0.545663238973391,300.0,147.8571428571427,[0.51654541]
1.395862651471804e-17,0.16910031325540348,2.5789191937300505e-18,0.16910031325540348,-2.1379640984290574e-18,-0.022375147544149845,2.5789191937300505e-18,-0.022375147544149845,1.2076784003715e-17,0.17057421601959083,1.2765081346865742e-17,-0.17057421601959094,0.5442022896851934,0.6385042958373778,0.5442022896851934,300.0,147.8571428571427,[0.49895244]
1.5113344180062464e-17,0.1648274054277988,2.893712702004456e-18,0.1648274054277988,-2.1868008417941882e-18,-0.02330330730590344,2.893712702004456e-18,-0.02330330730590344,1.2017094650713174e-17,0.16646656634727988,1.2808158939957543e-17,-0.1664665663472799,0.5401649693235941,0.6453244237058451,0.5401649693235943,300.0,147.8571428571427,[0.49895244]
1.623767453842414e-17,0.15770514220583765,3.1974840286165925e-18,0.15770514220583765,-2.266024892142067e-18,-0.025160309581181834,3.1974840286165925e-18,-0.025160309581181834,1.1944924796629148e-17,0.15969957124671436,1.3025492764802244e-17,-0.15969957124671436,0.531977157905899,0.658787224324155,0.5319771579058988,300.0,147.8571428571427,[0.49895244]
1.7262160888128217e-17,0.1457321121333309,3.4589301776456154e-18,0.1457321121333309,-2.4315271891016768e-18,-0.028557031099502462,3.4589301776456154e-18,-0.028557031099502462,1.1832057656407512e-17,0.14850371218275882,1.3318348434259373e-17,-0.14850371218275876,0.5152067843743346,0.6849262286329207,0.5152067843743345,300.0,147.8571428571427,[0.49253311]
1.8110834961717823e-17,0.12370098674256007,3.646849896386024e-18,0.12370098674256007,-2.7511365429023658e-18,-0.03504482195098101,3.646849896386024e-18,-0.03504482195098101,1.1651361705956528e-17,0.12856933408343912,1.4001991737034256e-17,-0.12856933408343918,0.47350962856904955,0.7426824781188808,0.4735096285690495,300.0,147.8571428571427,[0.4958796]
1.8481994211292816e-17,0.07365661235652601,3.633589363986187e-18,0.07365661235652601,-3.598725355528302e-18,-0.049459924637908985,3.633589363986187e-18,-0.049459924637908985,1.1273148260117682e-17,0.08872192901998459,2.1895826981580875e-17,-0.08872192901998456,0.2873361388772936,0.9137154297647476,0.2873361388772932,300.0,147.8571428571427,[0.42045401]
1.659798117836244e-17,-0.1035482584056926,2.8841488397621178e-18,-0.1035482584056926,-8.237673344733889e-18,-0.07958616086967897,2.8841488397621178e-18,-0.07958616086967897,9.758666585316794e-18,0.13059938292666812,4.9603084204267124e-18,-0.13059938292666806,0.7039655212585534,0.094154605614095,0.7039655212585535,300.0,147.8571428571427,[0.22109233]
1.6072714871946366e-17,-0.10898848624302249,3.735366493735324e-18,-0.10898848624302249,-8.12100779113941e-18,-0.07526009020991244,3.735366493735324e-18,-0.07526009020991244,9.060301155195424e-18,0.13244837225103848,7.222494324759704e-18,-0.13244837225103853,0.6819126232157237,0.2645568910425539,0.6819126232157234,300.0,160.7142857142859,[0.36424405]
1.7369601723531505e-17,0.06701096553386923,5.783525247420724e-18,0.06701096553386923,-3.2405892375173433e-18,-0.044200109243671605,5.783525247420724e-18,-0.044200109243671605,8.686971383693092e-18,0.08027527115453376,1.986881904012254e-17,-0.08027527115453373,0.42855382070883413,0.795413883152489,0.428553820708834,300.0,160.7142857142859,[0.43243373]
1.639178159526522e-17,0.11803245071234654,7.12914709915565e-18,0.11803245071234654,-2.1531577519204315e-18,-0.03059156572708333,7.12914709915565e-18,-0.03059156572708333,7.216442777920821e-18,0.12193237189031052,1.1692498252864586e-17,-0.12193237189031042,0.5874857386430974,0.5565258428698068,0.5874857386430973,300.0,160.7142857142859,[0.45719757]
1.491908246756561e-17,0.14012605031565684,8.286883146555281e-18,0.14012605031565684,-1.591535203221428e-18,-0.024181146938142512,8.286883146555281e-18,-0.024181146938142512,5.561962438806558e-18,0.14219717945272345,8.75620153751546e-18,-0.14219717945272353,0.6179903501599773,0.4859792734451721,0.6179903501599772,300.0,160.7142857142859,[0.48926797]
1.3240183756768784e-17,0.15173740551901607,9.382521918189943e-18,0.15173740551901607,-1.1842910266044208e-18,-0.020523969542208663,9.382521918189943e-18,-0.020523969542208663,3.8456222247631295e-18,0.1531191482454491,6.48842360473484e-18,-0.15311914824544914,0.6300996073769703,0.45381600849548676,0.6300996073769703,300.0,160.7142857142859,[0.49112953]
1.1485316778515084e-17,0.1582532938661097,1.0445704604129863e-17,0.1582532938661097,-8.541003784079535e-19,-0.018211946704011835,1.0445704604129863e-17,-0.018211946704011835,2.1097473133736486e-18,0.15929777155447916,4.603710980434534e-18,-0.15929777155447916,0.6363500582482201,0.4360243189719741,0.6363500582482199,300.0,160.7142857142859,[0.49112953]
9.677272013041576e-18,0.16173705625332846,1.1486605525909441e-17,0.16173705625332846,-5.749169955039559e-19,-0.01668372916879875,1.1486605525909441e-17,-0.01668372916879875,3.5542296560178493e-19,0.16259527110119207,2.739863197258615e-18,-0.16259527110119198,0.6399399195151212,0.4253866462666177,0.6399399195151212,300.0,160.7142857142859,[0.49112953]
7.826902069984955e-18,0.16307129914818724,1.251356762718689e-17,0.16307129914818724,-3.402293121104109e-19,-0.01568555673766101,1.251356762718689e-17,-0.01568555673766101,-1.413552405179618e-18,0.16382394603978975,1.0459627314810605e-18,-0.16382394603978975,0.6419991203792942,0.4191351319854079,0.6419991203792942,300.0,160.7142857142859,[0.49112953]
5.953741646691274e-18,0.16258914207413377,1.3535272995671563e-17,0.16258914207413377,-1.1313845546255291e-19,-0.015103975544353748,1.3535272995671563e-17,-0.015103975544353748,-3.1882253960202864e-18,0.1632891888572152,-6.187176155781495e-19,-0.16328918885721516,0.6429626458372328,0.4161707247224034,0.6429626458372327,300.0,160.7142857142859,[0.49112953]
4.052364438342183e-18,0.1602668562698481,1.4548940650144057e-17,0.1602668562698481,8.573561612989621e-20,-0.014909308621044228,1.4548940650144057e-17,-0.014909308621044228,-4.97266573553398e-18,0.16095885406580693,-2.206801644196458e-18,-0.16095885406580698,0.6429242919707039,0.41628921387412743,0.6429242919707037,300.0,160.7142857142859,[0.49112953]
2.0826157892819093e-18,0.15571630714464382,1.5547380736720064e-17,0.15571630714464382,2.477108149575799e-19,-0.01514617868307471,1.5547380736720064e-17,-0.01514617868307471,-6.759005281734097e-18,0.15645119059778564,-3.666801964268446e-18,-0.15645119059778564,0.6416818017158985,0.4201058565329425,0.6416818017158984,300.0,160.7142857142859,[0.49112953]
7.108459312035699e-20,0.14797132030965282,1.6539919716806117e-17,0.14797132030965282,3.771281848751764e-19,-0.01596370981022404,1.6539919716806117e-17,-0.01596370981022404,-8.568135308171273e-18,0.14882994209864797,-4.932694209712365e-18,-0.148829942098648,0.6385257178322264,0.42961589278526496,0.6385257178322262,300.0,160.7142857142859,[0.49112953]
-2.0256395886892567e-18,0.1348086788891514,1.7499833039171853e-17,0.1348086788891514,4.218951996265463e-19,-0.017722927652686016,1.7499833039171853e-17,-0.017722927652686016,-1.0387846629004229e-17,0.13596868046877808,-5.737329603771853e-18,-0.13596868046877814,0.631290970564444,0.4504924205440142,0.6312909705644442,300.0,160.7142857142859,[0.47727121]
-4.333447027932602e-18,0.11045595359611832,1.842140612655545e-17,0.11045595359611832,2.897646772997758e-19,-0.021348486038947713,1.842140612655545e-17,-0.021348486038947713,-1.2258565215129654e-17,0.11250011351542265,-5.032952084712285e-18,-0.1125001135154227,0.6109809713611836,0.5033929928684839,0.6109809713611836,300.0,160.7142857142859,[0.46174364]
-7.198535972020273e-18,0.05520186606706943,1.9216461525658757e-17,0.05520186606706943,-3.3914405114674135e-19,-0.029698397082213474,1.9216461525658757e-17,-0.029698397082213474,-1.4249476452981484e-17,0.06268365661430013,1.467089791261646e-18,-0.0626836566143002,0.47711539527912755,0.7380527075861754,0.4771153952791275,300.0,160.7142857142859,[0.31227502]
-1.256623669832998e-17,-0.132612433695211,1.959355579612882e-17,-0.132612433695211,-4.7656522067140094e-18,-0.045993129678884935,1.959355579612882e-17,-0.045993129678884935,-1.7112394875141816e-17,0.1403617666895993,-2.953218299681997e-17,-0.14036176668959902,0.7071040940214459,0.0027568888662601126,0.7071040940214457,300.0,160.7142857142859,[0.16148094]
-1.3759481127884674e-17,-0.13565353556605328,1.9636745791042356e-17,-0.13565353556605328,-4.855728866698584e-18,-0.039731272110332914,1.9636745791042356e-17,-0.039731272110332914,-1.73866945837093e-17,0.14135223979504474,-2.766698204269893e-17,-0.1413522397950445,0.696585768677546,0.17186196132892456,0.6965857686775458,300.0,173.57142857142813,[0.21681681]
-1.0483620909048069e-17,0.05144728663295278,1.8787715616199046e-17,0.05144728663295278,-5.746456802630385e-19,-0.022061968869391886,1.8787715616199046e-17,-0.022061968869391886,-1.5358070527369953e-17,0.05597815442015946,-1.86226649848722e-18,-0.05597815442015951,0.6145847287262395,0.49454142640732285,0.6145847287262395,300.0,173.57142857142813,[0.28768412]
-9.730449800261385e-18,0.10719937618519754,1.7548330638485838e-17,0.10719937618519754,-1.098826725715442e-19,-0.014852449582728662,1.7548330638485838e-17,-0.014852449582728662,-1.4178934490342962e-17,0.10822338708940406,-9.408480524207876e-18,-0.10822338708940406,0.6851467468348839,0.24728095479262116,0.6851467468348839,300.0,173.57142857142813,[0.324315]
-9.564947503301776e-18,0.13154274796498489,1.6219225102041758e-17,0.13154274796498489,-1.5085127395007055e-19,-0.011313265784058295,1.6219225102041758e-17,-0.011313265784058295,-1.311673532215137e-17,0.13202834742918004,-1.0320914618589611e-17,-0.1320283474291801,0.6932922571601311,0.1967020394495717,0.693292257160131,300.0,173.57142857142813,[0.22382983]
-9.599675854139202e-18,0.14446088813994679,1.485471292665796e-17,0.14446088813994679,-3.452486440673827e-19,-0.009151774075191603,1.485471292665796e-17,-0.009151774075191603,-1.2081667678051514e-17,0.14475048590904824,-1.0208089200475368e-17,-0.14475048590904827,0.6962493158566747,0.17456740915252283,0.6962493158566747,300.0,173.57142857142813,[0.21783892]
-9.728279278334046e-18,0.15182582980602952,1.3477364148938257e-17,0.15182582980602952,-6.304009622715628e-19,-0.007650252182139978,1.3477364148938257e-17,-0.007650252182139978,-1.1072374981838811e-17,0.15201844938934148,-9.721510365030328e-18,-0.15201844938934145,0.6977860818920291,0.16183067643540386,0.6977860818920288,300.0,173.57142857142813,[0.21589572]
-9.910603120230534e-18,0.15589517665375,1.2086517437982912e-17,0.15589517665375,-9.616768714316998e-19,-0.006519175564823799,1.2086517437982912e-17,-0.006519175564823799,-1.0067965959962622e-17,0.15603142553328453,-9.062817041889057e-18,-0.15603142553328447,0.698739218445965,0.15338516620274592,0.6987392184459648,300.0,173.57142857142813,[0.21626054]
-1.016075577235637e-17,0.1576408191502915,1.0691889270857282e-17,0.1576408191502915,-1.3063828850172477e-18,-0.005621382491422687,1.0691889270857282e-17,-0.005621382491422687,-9.071696395313955e-18,0.1577410149691252,-8.311370458451029e-18,-0.1577410149691252,0.6993929236564062,0.1473060646364863,0.6993929236564062,300.0,173.57142857142813,[0.21626054]
-1.0422846295082572e-17,0.15743807253828387,9.292953974282089e-18,0.15743807253828387,-1.6973481471792113e-18,-0.00488572001805208,9.292953974282089e-18,-0.00488572001805208,-8.077868667833544e-18,0.1575138627063178,-7.503973498854085e-18,-0.15751386270631781,0.6998668478909156,0.1427332842979119,0.6998668478909156,300.0,173.57142857142813,[0.21626054]
-1.073431619165574e-17,0.15527849687320283,7.892153385425589e-18,0.15527849687320283,-2.105134954278053e-18,-0.00427515148225408,7.892153385425589e-18,-0.00427515148225408,-7.09163776709882e-18,0.155337337789076,-6.660411547035682e-18,-0.155337337789076,0.7002155601475663,0.13927073868713574,0.7002155601475663,300.0,173.57142857142813,[0.21626054]
-1.1070747090393307e-17,0.15076719966866425,6.48911444583152e-18,0.15076719966866425,-2.5536190475145036e-18,-0.003774938369422473,6.48911444583152e-18,-0.003774938369422473,-6.112732377868866e-18,0.1508144510835211,-5.791065916541486e-18,-0.15081445108352112,0.7004588189963947,0.1368023602879398,0.7004588189963947,300.0,173.57142857142813,[0.21626054]
-1.1490200452851597e-17,0.14290252248783653,5.0814461899392976e-18,0.14290252248783653,-3.023672702403887e-18,-0.0033917017951603412,5.0814461899392976e-18,-0.0033917017951603412,-5.139660266318636e-18,0.14294276677906415,-4.902218541237618e-18,-0.14294276677906415,0.7005842729465896,0.13551144970000517,0.7005842729465896,300.0,173.57142857142813,[0.21626054]
-1.1991048387585104e-17,0.12936985891831837,3.6704543223458376e-18,0.12936985891831837,-3.592078132125826e-18,-0.003165101700043833,3.6704543223458376e-18,-0.003165101700043833,-4.186394167355375e-18,0.12940857106589662,-4.011804914497082e-18,-0.12940857106589662,0.7005140666975441,0.13623540185185629,0.7005140666975442,300.0,173.57142857142813,[0.21626054]
-1.271708797228005e-17,0.10415959297998331,2.2549687960746832e-18,0.10415959297998331,-4.323137048777741e-18,-0.0032099515415552828,2.2549687960746832e-18,-0.0032099515415552828,-3.2622944567907347e-18,0.10420904278734604,-3.1328230847708626e-18,-0.10420904278734604,0.6998885123505388,0.14252066713111683,0.6998885123505388,300.0,173.57142857142813,[0.20889595]
-1.4031881629765735e-17,0.04683658679128424,8.227465108794373e-19,0.04683658679128424,-5.5546369273017885e-18,-0.003839968548249438,8.227465108794373e-19,-0.003839968548249438,-2.421081552326357e-18,0.04699373597309589,-2.3630657177505884e-18,-0.04699373597309592,0.6938416778241157,0.192788620588539,0.6938416778241158,300.0,173.57142857142813,[0.12753091]
-1.7952115545781148e-17,-0.14454089512879348,-6.256529455555084e-19,-0.14454089512879348,-1.0597234166182227e-17,-0.003074423993432854,-6.256529455555084e-19,-0.003074423993432854,-2.3596286502585676e-18,0.1445735883469877,-2.339996385326272e-18,-0.1445735883469877,0.7041853500705612,0.0908074087946672,0.7041853500705613,300.0,173.57142857142813,[0.22031871]
-1.8016688573119487e-17,-0.14458529480341875,-8.349048251130479e-19,-0.14458529480341875,-1.074672886392771e-17,0.0038870451982941645,-8.349048251130479e-19,0.0038870451982941645,-1.975446269119539e-18,0.1446375352174016,-2.0316912888929386e-18,-0.1446375352174016,0.7045345219374497,0.08521862939955287,0.7045345219374498,300.0,173.57142857142813,[0.22031871]
-1.4213934156421306e-17,0.046703661619762075,-4.20521666219402e-19,0.046703661619762075,-6.001764444333652e-18,0.004672589311420907,-4.20521666219402e-19,0.004672589311420907,-1.2616158702658778e-18,0.04693682029671847,-1.289476022031838e-18,-0.04693682029671848,0.6912886692754517,0.21033295382024525,0.6912886692754519,300.0,173.57142857142813,[0.17827004]
-1.301472079156643e-17,0.10393856871544464,1.209048542338133e-20,0.10393856871544464,-5.060843188832133e-18,0.004061932282953655,1.209048542338133e-20,0.004061932282953655,-1.3206269351654108e-18,0.10401790884499895,-1.339731721712228e-18,-0.10401790884499898,0.6990330381990842,0.15068385119950875,0.6990330381990842,300.0,173.57142857142813,[0.20889595]
-1.2415928054861744e-17,0.1290612337990156,4.566574648690872e-19,0.1290612337990156,-4.6316903065110466e-18,0.004035913456219734,4.566574648690872e-19,0.004035913456219734,-1.4754122801087836e-18,0.12912432252348993,-1.514265157899254e-18,-0.12912432252348996,0.6998427638871018,0.14296926827022882,0.6998427638871018,300.0,173.57142857142813,[0.21626054]
-1.202794726034987e-17,0.14250686458012218,9.143832334992867e-19,0.14250686458012218,-4.363630848484662e-18,0.004280832263863521,9.143832334992867e-19,0.004280832263863521,-1.6589570405894002e-18,0.142571147071659,-1.722439491940438e-18,-0.142571147071659,0.6999666478159594,0.141751133648297,0.6999666478159595,300.0,173.57142857142813,[0.21626054]
-1.1732213647749911e-17,0.15028514478621113,1.3706845971146698e-18,0.15028514478621113,-4.1862585097349165e-18,0.00468187202066748,1.3706845971146698e-18,0.00468187202066748,-1.8557962478749686e-18,0.15035805488576373,-1.952091857705799e-18,-0.1503580548857638,0.6998546814200906,0.14285254561528435,0.6998546814200907,300.0,173.57142857142813,[0.21626054]
-1.1522758281761684e-17,0.15471074643670102,1.8319374638767954e-18,0.15471074643670102,-4.038934333916772e-18,0.005199366058886758,1.8319374638767954e-18,0.005199366058886758,-2.067557793410994e-18,0.15479808936293601,-2.200928371092542e-18,-0.15479808936293601,0.6996049803104677,0.14527815751027687,0.6996049803104676,300.0,173.57142857142813,[0.21626054]
-1.1322527633964648e-17,0.15678539139298456,2.2979383473549753e-18,0.15678539139298456,-3.934206650922658e-18,0.005826686862304338,2.2979383473549753e-18,0.005826686862304338,-2.2799297982390834e-18,0.15689362394323966,-2.4626060273377698e-18,-0.15689362394323966,0.6992356817676652,0.14879154104255216,0.699235681767665,300.0,173.57142857142813,[0.21626054]
-1.1186056067783199e-17,0.15690403335722308,2.764888834176366e-18,0.15690403335722308,-3.84039940637547e-18,0.006578568093950351,2.764888834176366e-18,0.006578568093950351,-2.491148713293274e-18,0.15704188371874345,-2.7381722738121422e-18,-0.15704188371874345,0.698727342505221,0.15349332777415192,0.698727342505221,300.0,173.57142857142813,[0.21626054]
-1.105691001310652e-17,0.15507517127959997,3.2318817140041507e-18,0.15507517127959997,-3.785118926038551e-18,0.007492043632101653,3.2318817140041507e-18,0.007492043632101653,-2.7144411565682884e-18,0.15525604485875127,-3.047892277738369e-18,-0.1552560448587513,0.6980215691025883,0.15978666444707162,0.6980215691025883,300.0,173.57142857142813,[0.21589572]
-1.098094174564965e-17,0.15092354674329475,3.708446934675551e-18,0.15092354674329475,-3.7535107004716745e-18,0.008638266051657852,3.708446934675551e-18,0.008638266051657852,-2.9475687773265584e-18,0.15117055467899387,-3.4017593425179957e-18,-0.1511705546789939,0.6969884956357483,0.16856474691593462,0.6969884956357483,300.0,173.57142857142813,[0.21681681]
-1.0977143332276807e-17,0.14347732402586774,4.1933974920115554e-18,0.14347732402586774,-3.773893257945594e-18,0.01015439960673057,4.1933974920115554e-18,0.01015439960673057,-3.182866920012168e-18,0.14383620664143293,-3.8077521488726285e-18,-0.14383620664143298,0.695318227736385,0.1818381817855258,0.695318227736385,300.0,173.57142857142813,[0.22620724]
-1.1078343917138994e-17,0.13047895237178433,4.694355648561686e-18,0.13047895237178433,-3.857627924173724e-18,0.012329975378722047,4.694355648561686e-18,0.012329975378722047,-3.4386493633870402e-18,0.1310602354067711,-4.3724498363671704e-18,-0.1310602354067711,0.6920958875830603,0.2049550311195899,0.6920958875830603,300.0,173.57142857142813,[0.22382983]
-1.135657769669978e-17,0.10605645067048881,5.225158481612729e-18,0.10605645067048881,-4.129655367598525e-18,0.015882729835630716,5.225158481612729e-18,0.015882729835630716,-3.7303132473732374e-18,0.1072391338824287,-5.429979017824451e-18,-0.1072391338824287,0.6831857178798083,0.2579041484158437,0.6831857178798084,300.0,173.57142857142813,[0.324315]
-1.2238352229681308e-17,0.050226387453207934,5.8532702215390516e-18,0.050226387453207934,-4.907448334498462e-18,0.023105344074392412,5.8532702215390516e-18,0.023105344074392412,-4.132063290361667e-18,0.05528604635345001,-1.0264104014619523e-17,-0.05528604635345004,0.6052673027401584,0.5170135244529944,0.6052673027401587,300.0,173.57142857142813,[0.28859433]
-1.5622874202505328e-17,-0.13695117823820976,6.865700000224862e-18,-0.13695117823820976,-9.471615060426192e-18,0.040787399820479485,6.865700000224862e-18,0.040787399820479485,-5.389405945583096e-18,0.14289589638946792,-2.633423847608825e-18,-0.14289589638946795,0.6960268144610764,0.17633305731578697,0.6960268144610763,300.0,173.57142857142813,[0.22620724]
-1.510222025518485e-17,-0.13398462490211968,7.294352645070506e-18,-0.13398462490211968,-9.346640477578618e-18,0.047078321035615295,7.294352645070506e-18,0.047078321035615295,-5.5271662591589024e-18,0.14201495703514525,-1.9923159152681764e-18,-0.14201495703514538,0.7071061868693898,0.0012965269235049788,0.7071061868693901,300.0,160.7142857142859,[0.16011679]
-1.0930341453218556e-17,0.05375877514289309,6.5802890846816824e-18,0.05375877514289309,-4.5145160368398474e-18,0.030833873566926673,6.5802890846816824e-18,0.030833873566926673,-4.2663982490208915e-18,0.061973652982580923,-1.0385894678428733e-17,-0.061973652982580923,0.4627611459330105,0.75611126405413,0.46276114593301043,300.0,160.7142857142859,[0.31064835]
-9.259039569167415e-18,0.1089435001514136,6.278934159433967e-18,0.1089435001514136,-3.49793174352749e-18,0.02253310636840759,6.278934159433967e-18,0.02253310636840759,-3.878315711293675e-18,0.11124939149429552,-6.531477637822206e-18,-0.11124939149429557,0.6062893220944159,0.5146129767394013,0.6062893220944159,300.0,160.7142857142859,[0.46265384]
-8.156143114838212e-18,0.1332284908629265,6.098183098074671e-18,0.1332284908629265,-2.9851459381936173e-18,0.018955909455737895,6.098183098074671e-18,0.018955909455737895,-3.608628361821787e-18,0.13457026893376942,-5.3829831213276804e-18,-0.1345702689337694,0.6278741072870871,0.4599437039430875,0.6278741072870871,300.0,160.7142857142859,[0.47727121]
-7.267178727972374e-18,0.1463250494077092,5.964225437172347e-18,0.1463250494077092,-2.641067341102691e-18,0.017244355620840684,5.964225437172347e-18,0.017244355620840684,-3.3870994676127356e-18,0.1473376662125016,-4.7777052908377534e-18,-0.1473376662125016,0.6355054902869969,0.43848095013371696,0.6355054902869968,300.0,160.7142857142859,[0.49112953]
-6.451605113774691e-18,0.15400561077370756,5.8533719647543956e-18,0.15400561077370756,-2.3695994853622818e-18,0.016473814658412203,5.8533719647543956e-18,0.016473814658412203,-3.1890393417430386e-18,0.15488419777105217,-4.4859596543970416e-18,-0.15488419777105217,0.6388002134607336,0.4287989908629009,0.6388002134607336,300.0,160.7142857142859,[0.49112953]
-5.7200035666409396e-18,0.15849339054381809,5.752942932608567e-18,0.15849339054381809,-2.14316995961416e-18,0.016283270142613857,5.752942932608567e-18,0.016283270142613857,-2.9895208964534103e-18,0.15932764898978638,-4.173706658092246e-18,-0.15932764898978632,0.6400635530758522,0.42501446569244133,0.6400635530758523,300.0,160.7142857142859,[0.49112953]
-5.019603272212689e-18,0.16075455767993496,5.669873836580812e-18,0.16075455767993496,-1.958997782638922e-18,0.016523603604155217,5.669873836580812e-18,0.016523603604155217,-2.8039073572607988e-18,0.16160153864038174,-3.977975128844326e-18,-0.16160153864038176,0.6400487044628773,0.42505918626796424,0.6400487044628776,300.0,160.7142857142859,[0.49112953]
-4.328699011216548e-18,0.16117723838488748,5.590238574070918e-18,0.16117723838488748,-1.7911893061315144e-18,0.017150197657513088,5.590238574070918e-18,0.017150197657513088,-2.635284935030639e-18,0.16208711069381992,-3.900183297896798e-18,-0.16208711069381995,0.6389689275172583,0.42829594830547907,0.6389689275172583,300.0,160.7142857142859,[0.49112953]
-3.697891076083609e-18,0.1597851508319599,5.52107014483954e-18,0.1597851508319599,-1.6449334340744824e-18,0.01819273566112973,5.52107014483954e-18,0.01819273566112973,-2.472631448100662e-18,0.1608175054439906,-3.801139637217383e-18,-0.1608175054439906,0.6367219423858663,0.4349371634716202,0.6367219423858664,300.0,160.7142857142859,[0.49112953]
-3.098962681758464e-18,0.1562451634243401,5.464089704946248e-18,0.1562451634243401,-1.5373738982532932e-18,0.019764679810981508,5.464089704946248e-18,0.019764679810981508,-2.315980810875982e-18,0.1574902970393077,-3.6599986059780474e-18,-0.15749029703930767,0.6328404970453141,0.44612308906722115,0.6328404970453142,300.0,160.7142857142859,[0.49112953]
-2.5389680245049644e-18,0.14967465710977615,5.4277122661601205e-18,0.14967465710977615,-1.4670693364505737e-18,0.022119801826831004,5.4277122661601205e-18,0.022119801826831004,-2.171301958656782e-18,0.15130032588790857,-3.7267223423651425e-18,-0.15130032588790857,0.6261115917991767,0.4647241646712623,0.6261115917991767,300.0,160.7142857142859,[0.49112953]
-2.079834808062506e-18,0.1380102797612335,5.422527601478215e-18,0.1380102797612335,-1.4809742425475901e-18,0.025819468737362013,5.422527601478215e-18,0.025819468737362013,-2.0651837850529668e-18,0.14040470891552587,-4.004637581634196e-18,-0.14040470891552598,0.6130972856404463,0.49822026923905216,0.6130972856404464,300.0,160.7142857142859,[0.48926797]
-1.8034324063779118e-18,0.11586524914187346,5.488007839153372e-18,0.11586524914187346,-1.6639255009387e-18,0.03227180133310043,5.488007839153372e-18,0.03227180133310043,-2.012870815163582e-18,0.12027562146998665,-4.801286714209383e-18,-0.12027562146998674,0.5802894622044894,0.5714265308058846,0.5802894622044894,300.0,160.7142857142859,[0.45668282]
-2.0294380020621002e-18,0.06479394715790998,5.733899994136677e-18,0.06479394715790998,-2.361510899742432e-18,0.04592177635722176,5.733899994136677e-18,0.04592177635722176,-2.1348100587533928e-18,0.07941703300995775,-1.2784235439544616e-17,-0.07941703300995778,0.40949018109788443,0.8152518526006816,0.4094901810978844,300.0,160.7142857142859,[0.39700528]
-4.53455945026262e-18,-0.11125356133259229,6.688830018600877e-18,-0.11125356133259229,-6.8499806734542105e-18,0.07702305591513094,6.688830018600877e-18,0.07702305591513094,-3.3663777660876697e-18,0.1353141014517343,9.633626512993491e-18,-0.13531410145173442,0.6816859011637975,0.26572290889007505,0.6816859011637973,300.0,160.7142857142859,[0.36424405]
-4.687920390191176e-18,-0.10585780179387934,6.614534155246225e-18,-0.10585780179387934,-6.722072494564217e-18,0.08140229501444007,6.614534155246225e-18,0.08140229501444007,-4.286306004823205e-18,0.13353729005131926,-4.2862380784988995e-18,-0.13353729005131923,0.703949276464216,0.09439720510170316,0.703949276464216,300.0,147.85714285714295,[0.22109233]
-3.0200777754617317e-18,0.07131031808650216,5.1097074876514195e-18,0.07131031808650216,-1.9664589517641504e-18,0.05135020141819917,5.1097074876514195e-18,0.05135020141819917,-4.40446379224273e-18,0.08787493756064775,-4.939579676715208e-18,-0.08787493756064772,0.26602697838515915,0.9265307839152048,0.2660269783851592,300.0,147.85714285714295,[0.39959352]
-3.5661675266182146e-18,0.12131879268599785,4.341346964674002e-18,0.12131879268599785,-1.0304213705991442e-18,0.03700802015233019,4.341346964674002e-18,0.03700802015233019,-5.660263342031441e-18,0.12683786112349654,-7.430453581241046e-18,-0.12683786112349657,0.4629057706573206,0.7559341869397783,0.46290577065732075,300.0,147.85714285714295,[0.49358249]
-4.63345385557701e-18,0.1433151035512326,3.770370399114307e-18,0.1433151035512326,-5.9029717822346065e-19,0.03059247587717347,3.770370399114307e-18,0.03059247587717347,-7.12424646761658e-18,0.14654391316665444,-8.231232531403157e-18,-0.14654391316665435,0.5069965372134704,0.6970717484643171,0.5069965372134705,300.0,147.85714285714295,[0.50133822]
-5.844198118170876e-18,0.15525444214633702,3.279544171092186e-18,0.15525444214633702,-3.2178835432930686e-19,0.02726745961776162,3.279544171092186e-18,0.02726745961776162,-8.646409755175941e-18,0.15763075892787093,-9.823060522289124e-18,-0.15763075892787096,0.5246216754775209,0.6704805703660004,0.5246216754775211,300.0,147.85714285714295,[0.49253311]
-7.154888132637688e-18,0.16234413128261396,2.8266914785469008e-18,0.16234413128261396,-1.2579700717160503e-19,0.025481658654775027,2.8266914785469008e-18,0.025481658654775027,-1.0205505829905183e-17,0.16433177382875497,-1.0940030686467617e-17,-0.16433177382875497,0.533147701173266,0.6568919678815717,0.5331477011732662,300.0,147.85714285714295,[0.49895244]
-8.515534065838414e-18,0.16658556734513172,2.391046107296674e-18,0.16658556734513172,2.89120303602597e-20,0.02462420731724111,2.391046107296674e-18,0.02462420731724111,-1.1786391909920603e-17,0.1683956734411603,-1.2304149790445773e-17,-0.16839567344116016,0.5372770757235577,0.6501282087433872,0.5372770757235579,300.0,147.85714285714295,[0.49895244]
-9.880419299678474e-18,0.16885107353039833,1.9751940307314986e-18,0.16885107353039833,1.2495762564501685e-19,0.024433028024002386,1.9751940307314986e-18,0.024433028024002386,-1.3377893198736918e-17,0.17060966529124216,-1.395744168835587e-17,-0.1706096652912421,0.5386768154956288,0.6478075153122081,0.5386768154956288,300.0,147.85714285714295,[0.49895244]
-1.1302653792567449e-17,0.1694968861601098,1.5711060134404762e-18,0.1694968861601098,2.220206530832142e-19,0.024812986834294344,1.5711060134404762e-18,0.024812986834294344,-1.4983375701061754e-17,0.17130346970686866,-1.5396554357708174e-17,-0.17130346970686863,0.5379178443584693,0.6490676277873325,0.5379178443584695,300.0,147.85714285714295,[0.49895244]
-1.2755173849223829e-17,0.16855726120040734,1.182353666212245e-18,0.16855726120040734,2.824010120892522e-19,0.0257805352994476,1.182353666212245e-18,0.0257805352994476,-1.660855399415694e-17,0.17051740762663625,-1.6731931912568974e-17,-0.17051740762663622,0.5349636902480112,0.6539324890479596,0.5349636902480112,300.0,147.85714285714295,[0.49895244]
-1.4218716087542475e-17,0.16575539653593782,8.115865519463898e-19,0.16575539653593782,3.090153415029927e-19,0.027468970909823233,8.115865519463898e-19,0.027468970909823233,-1.824527166359239e-17,0.16801605829095823,-1.8415621930733394e-17,-0.16801605829095834,0.5291630000567425,0.6633046349467914,0.5291630000567424,300.0,147.85714285714295,[0.49895244]
-1.575341074779171e-17,0.160339667673925,4.652505272650178e-19,0.160339667673925,3.095113396777948e-19,0.030198408870727694,4.652505272650178e-19,0.030198408870727694,-1.9914021488658653e-17,0.16315867408173046,-2.0163598731922152e-17,-0.16315867408173051,0.518749791984324,0.6795566986149435,0.5187497919843239,300.0,147.85714285714295,[0.49253311]
-1.732842963572229e-17,0.15053965553519444,1.587586294675888e-19,0.15053965553519444,2.1472057738228064e-19,0.034690865459769675,1.587586294675888e-19,0.034690865459769675,-2.162661416093691e-17,0.15448509324527993,-2.13519585092643e-17,-0.15448509324527998,0.49895392599877525,0.7085830646161517,0.49895392599877547,300.0,147.85714285714295,[0.52340393]
-1.9071494400996082e-17,0.13170529622859978,-5.2382918349933874e-20,0.13170529622859978,-4.3069174845316484e-20,0.04276594923645457,-5.2382918349933874e-20,0.04276594923645457,-2.3433209085591765e-17,0.1384745878085875,-2.2861721710099827e-17,-0.13847458780858765,0.4532707349047889,0.7675228216527149,0.4532707349047889,300.0,147.85714285714295,[0.52003924]
-2.122332949111704e-17,0.08771036414281858,-3.889664319105173e-20,0.08771036414281858,-8.10993049856883e-19,0.06014054876735583,-3.889664319105173e-20,0.06014054876735583,-2.5508584149381695e-17,0.1063484536046695,-2.523262374192126e-17,-0.10634845360466935,0.281050188056893,0.9176173405000422,0.28105018805689286,300.0,147.85714285714295,[0.47579225]
-2.528115414868269e-17,-0.07248726758454437,8.787232963463667e-19,-0.07248726758454437,-5.3651168725700304e-18,0.09850153696275495,8.787232963463667e-19,0.09850153696275495,-2.9053682351822415e-17,0.12229863754718737,-3.091218140407128e-17,-0.12229863754718738,0.6578693022783981,0.3666278252389847,0.657869302278398,300.0,147.85714285714295,[0.4535419]
-2.480648813469771e-17,-0.06573276004893801,1.3841295390923185e-18,-0.06573276004893801,-5.304068823713297e-18,0.10010301517986875,1.3841295390923185e-18,0.10010301517986875,-2.971591622259474e-17,0.11975562363309826,-2.902205125140045e-17,-0.11975562363309832,0.6923924330137804,0.20294195576695223,0.6923924330137804,300.0,134.9999999999996,[0.22162459]
-2.039213829336405e-17,0.09591642708366406,1.3380515206182345e-18,0.09591642708366406,-6.233573642593089e-19,0.06219756587480958,1.3380515206182345e-18,0.06219756587480958,-2.688037520396323e-17,0.11431753227413158,-2.866111543636483e-17,-0.1143175322741317,0.14747895855552584,0.9780081357364849,0.14747895855552623,300.0,134.9999999999996,[0.45453183]
-1.7865396411902926e-17,0.13864020978666033,2.1903968285615035e-18,0.13864020978666033,2.8078371889534616e-19,0.044656400781987564,2.1903968285615035e-18,0.044656400781987564,-2.5551583375766462e-17,0.14565473524911807,-2.6680778591189454e-17,-0.14565473524911815,0.3226253126749633,0.8898459502873316,0.3226253126749633,300.0,134.9999999999996,[0.48690364]
-1.5702946112981074e-17,0.15734344923691912,3.285019757780466e-18,0.15734344923691912,6.648156048616784e-19,0.03667465529491419,3.285019757780466e-18,0.03667465529491419,-2.452953886323064e-17,0.16156110719715844,-2.55696254342543e-17,-0.16156110719715847,0.3734462954464262,0.8491617801306658,0.3734462954464263,300.0,134.9999999999996,[0.48726844]
-1.369244930617552e-17,0.1675408441753449,4.473766819269407e-18,0.1675408441753449,8.794174818260576e-19,0.03239588792861606,4.473766819269407e-18,0.03239588792861606,-2.3606922907889766e-17,0.17064415613102796,-2.4713919907479698e-17,-0.17064415613102799,0.3959847184657095,0.8284879030397881,0.39598471846570954,300.0,134.9999999999996,[0.48984397]
-1.1734604613310496e-17,0.17365867053258205,5.7108085235542235e-18,0.17365867053258205,1.0227991080496212e-18,0.02994935780798433,5.7108085235542235e-18,0.02994935780798433,-2.2736556332928687e-17,0.17622229678520968,-2.4354282188722494e-17,-0.1762222967852097,0.40775008425794634,0.8169943314217518,0.4077500842579464,300.0,134.9999999999996,[0.50736106]
-9.819017269218357e-18,0.17739007558573397,6.967752684515555e-18,0.17739007558573397,1.1162597897695443e-18,0.02859533740796074,6.967752684515555e-18,0.02859533740796074,-2.1905259152659712e-17,0.1796800830303334,-2.3691221200852054e-17,-0.1796800830303334,0.41405462327355536,0.8106278664662275,0.4140546232735554,300.0,134.9999999999996,[0.49987968]
-7.931121036902349e-18,0.17947382749359553,8.247074523814192e-18,0.17947382749359553,1.1855723552226596e-18,0.028010695967972708,8.247074523814192e-18,0.028010695967972708,-2.1098130225335583e-17,0.18164650793178239,-2.322004891889351e-17,-0.1816465079317824,0.41691726763749154,0.8076880486248241,0.4169172676374916,300.0,134.9999999999996,[0.59403813]
-6.0616911981712815e-18,0.18021552017284584,9.539667493764265e-18,0.18021552017284584,1.2128310583335789e-18,0.02806862405730538,9.539667493764265e-18,0.02806862405730538,-2.0299136515938335e-17,0.18238827091575743,-2.2930363402390568e-17,-0.18238827091575746,0.417096163452894,0.8075033008389213,0.41709616345289413,300.0,134.9999999999996,[0.73073942]
-4.216662773920222e-18,0.17965316989757651,1.0849600793066956e-17,0.17965316989757651,1.2357465979395003e-18,0.028769082001712496,1.0849600793066956e-17,0.028769082001712496,-1.9529186255221167e-17,0.18194208290955877,-2.2467733809847228e-17,-0.18194208290955866,0.4146486768838004,0.8100203389526879,0.4146486768838006,300.0,134.9999999999996,[0.73073942]
-2.3954931336673355e-18,0.17756933836152444,1.2170659606984999e-17,0.17756933836152444,1.2168764109686636e-18,0.030238800802819495,1.2170659606984999e-17,0.030238800802819495,-1.8781759398800782e-17,0.18012566446828773,-2.2273170568632032e-17,-0.18012566446828765,0.4089659793722565,0.8157779449287546,0.40896597937225654,300.0,134.9999999999996,[0.50226551]
-5.99292974180128e-19,0.17335921422968636,1.3520311443890193e-17,0.17335921422968636,1.1520140513616895e-18,0.03280083622359669,1.3520311443890193e-17,0.03280083622359669,-1.8077344486667082e-17,0.1764350079074486,-2.237457764952622e-17,-0.1764350079074486,0.398329049526894,0.8262372156989797,0.3983290495268941,300.0,134.9999999999996,[0.50225096]
1.1432122034092717e-18,0.16558601005357304,1.4919318808576253e-17,0.16558601005357304,1.0128070764427104e-18,0.037194849776388615,1.4919318808576253e-17,0.037194849776388615,-1.7431811340763416e-17,0.16971206078340487,-2.29116451233006e-17,-0.16971206078340487,0.3782617442877033,0.8448882207823992,0.3782617442877035,300.0,134.9999999999996,[0.49809786]
2.7717310654082517e-18,0.15044196417947858,1.6408134432525162e-17,0.15044196417947858,7.070077743872326e-19,0.04529154233743951,1.6408134432525162e-17,0.04529154233743951,-1.6923843500606146e-17,0.15711177038491927,-2.4820001179785175e-17,-0.15711177038491903,0.33463572329565816,0.8809301137938147,0.3346357232956584,300.0,134.9999999999996,[0.49350626]
4.1104937287087345e-18,0.11444241642302085,1.813447224225759e-17,0.11444241642302085,-1.092764525801194e-19,0.06294741411427793,1.813447224225759e-17,0.06294741411427793,-1.6798025296931344e-17,0.13061180505763828,-3.110047054421196e-17,-0.13061180505763823,0.19712996955373654,0.9603538671799503,0.19712996955373646,300.0,134.9999999999996,[0.45149239]
3.940735173907233e-18,-0.028321031733011152,2.0775917411029762e-17,-0.028321031733011152,-4.734970268336828e-18,0.10096781574101112,2.0775917411029762e-17,0.10096781574101112,-1.8549040870554208e-17,0.10486458245724813,1.9237757351647172e-17,-0.10486458245724817,0.6164562164100166,0.48986066028912084,0.616456216410017,300.0,134.9999999999996,[0.43469189]
4.691311830702644e-18,-0.02154438846024132,2.0968149558345534e-17,-0.02154438846024132,-4.890006791843081e-18,0.0994734141700103,2.0968149558345534e-17,0.0994734141700103,-1.808124464325527e-17,0.10177976616579634,3.0836353702835125e-18,-0.1017797661657964,0.6647906471800425,0.3407444656100528,0.6647906471800425,300.0,122.14285714285755,[0.3602397]
5.7517983214359466e-18,0.12271741994094502,1.8856580405522132e-17,0.12271741994094502,-5.834697845438128e-19,0.061222874216414605,1.8856580405522132e-17,0.061222874216414605,-1.4789735046108563e-17,0.1371415527266669,-2.4098133443273947e-17,-0.13714155272666703,0.06935236858374023,0.995178626148919,0.06935236858374051,300.0,122.14285714285755,[0.48568564]
5.361265467939195e-18,0.1574922235160785,1.7643859833961466e-17,0.1574922235160785,-7.765391937358535e-20,0.043957326378567856,1.7643859833961466e-17,0.043957326378567856,-1.3406394016935162e-17,0.16351161124027364,-2.0620904970530942e-17,-0.16351161124027364,0.20139731282335688,0.9585813709722624,0.20139731282335693,300.0,122.14285714285755,[0.49289101]
4.6847663505155116e-18,0.1725513950435039,1.6662020848689092e-17,0.1725513950435039,-8.828873493993527e-20,0.03599035687810699,1.6662020848689092e-17,0.03599035687810699,-1.2438031768395232e-17,0.17626482836820528,-1.8326759897270436e-17,-0.17626482836820534,0.2460282724024604,0.9375180949492771,0.24602827240246042,300.0,122.14285714285755,[0.50776683]
3.917656421226697e-18,0.18076811775047982,1.5780160204913328e-17,0.18076811775047982,-2.5940943002811275e-19,0.031605131667118556,1.5780160204913328e-17,0.031605131667118556,-1.1621069783238165e-17,0.1835102088243245,-1.640257433843413e-17,-0.18351020882432445,0.2674664952381278,0.9257015436143904,0.2674664952381279,300.0,122.14285714285755,[1.05685411]
3.1109259881626654e-18,0.18572637126804542,1.492960229210212e-17,0.18572637126804542,-5.111139311442355e-19,0.02898200419744766,1.492960229210212e-17,0.02898200419744766,-1.0875330168472235e-17,0.18797404488837477,-1.503769633259637e-17,-0.18797404488837477,0.27939322782555187,0.9186287871008826,0.27939322782555187,300.0,122.14285714285755,[1.05690908]
2.264057856645416e-18,0.18878566541770653,1.4110669297104052e-17,0.18878566541770653,-8.05147584187821e-19,0.027398896752784698,1.4110669297104052e-17,0.027398896752784698,-1.0169471774470842e-17,0.19076353689968123,-1.3948246849604005e-17,-0.19076353689968112,0.28630962846058666,0.9143596629890897,0.2863096284605869,300.0,122.14285714285755,[1.05637416]
1.4182495502880003e-18,0.1905379450199895,1.3306778135643216e-17,0.1905379450199895,-1.127131211302827e-18,0.02653562540353825,1.3306778135643216e-17,0.02653562540353825,-9.498619405498752e-18,0.1923768382836079,-1.2980366779012547e-17,-0.19237683828360796,0.2900219860778259,0.9120167186970569,0.29002198607782603,300.0,122.14285714285755,[1.05582088]
5.561538508742625e-19,0.19122942795625208,1.2514010236669266e-17,0.19122942795625208,-1.4820844094025158e-18,0.02625882190521959,1.2514010236669266e-17,0.02625882190521959,-8.857340397786657e-18,0.19302388412920685,-1.2080403436835883e-17,-0.19302388412920685,0.2912560809566484,0.9112298231574449,0.2912560809566484,300.0,122.14285714285755,[1.05582088]
-3.23844415139384e-19,0.19089435690868892,1.1736132218800251e-17,0.19089435690868892,-1.8626819319384073e-18,0.026551964268641398,1.1736132218800251e-17,0.026551964268641398,-8.229362195830474e-18,0.19273209983317552,-1.1298649709631673e-17,-0.19273209983317552,0.2901323322959353,0.9119465222879257,0.2901323322959353,300.0,122.14285714285755,[1.05582088]
-1.2201300742093527e-18,0.18936592225905605,1.0977526591550231e-17,0.18936592225905605,-2.269603391794245e-18,0.02751011797731028,1.0977526591550231e-17,0.02751011797731028,-7.643982606348641e-18,0.19135375382821312,-1.0749574963966364e-17,-0.19135375382821312,0.28621931925910343,0.9144162086083726,0.2862193192591036,300.0,122.14285714285755,[1.05637416]
-2.1435557359723393e-18,0.18617285453392554,1.023708371797686e-17,0.18617285453392554,-2.7253674240535925e-18,0.029395296328425975,1.023708371797686e-17,0.029395296328425975,-7.105809749136115e-18,0.18847921692204206,-1.0193571928646746e-17,-0.18847921692204203,0.27822269465525973,0.9193390366766399,0.27822269465525973,300.0,122.14285714285755,[1.05690908]
-3.1044356188838447e-18,0.18018660498012698,9.533812489668765e-18,0.18018660498012698,-3.2566996397719733e-18,0.03281830964608472,9.533812489668765e-18,0.03281830964608472,-6.653107551763527e-18,0.1831509051637218,-9.898069778997674e-18,-0.18315090516372182,0.26283083849856453,0.9283533274935158,0.26283083849856453,300.0,122.14285714285755,[1.05685411]
-4.120125419761302e-18,0.16838045827102663,8.903764449175427e-18,0.16838045827102663,-3.95476195989763e-18,0.039330438772558145,8.903764449175427e-18,0.039330438772558145,-6.374863173951142e-18,0.17291287442409492,-1.0178127386346706e-17,-0.1729128744240951,0.2301576546533117,0.945544767850245,0.23015765465331173,300.0,122.14285714285755,[0.50916245]
-5.334969086073405e-18,0.13971028688787937,8.487396635191847e-18,0.13971028688787937,-5.17077249371071e-18,0.05376784624261686,8.487396635191847e-18,0.05376784624261686,-6.576031767014631e-18,0.149699517540516,-1.0691824124306889e-17,-0.14969951754051597,0.13605504550390593,0.9813144496978837,0.13605504550390612,300.0,122.14285714285755,[0.5032965]
-7.684461568503324e-18,0.012510531935818003,8.795824701078147e-18,0.012510531935818003,-1.0177336472025677e-17,0.08391422638468063,8.795824701078147e-18,0.08391422638468063,-9.034817659227226e-18,0.08484168078872881,-1.388226539375765e-17,-0.0848416807887288,0.5367054328866255,0.65107185211769,0.536705432886626,300.0,122.14285714285755,[0.41836046]
-8.341048690824055e-18,0.017967319201170184,8.161066400140074e-18,0.017967319201170184,-1.0261209445437166e-17,0.07961850457769123,8.161066400140074e-18,0.07961850457769123,-8.83529179516148e-18,0.08162065198504957,-9.045559208421158e-18,-0.0816206519850496,0.5996441979996434,0.5299562921701454,0.5996441979996436,300.0,109.28571428571402,[0.41127267]
-7.784411559676908e-18,0.14641697976543022,6.96743248483914e-18,0.14641697976543022,-5.4242866462872485e-18,0.04859906177734918,6.96743248483914e-18,0.04859906177734918,-5.5029227586277096e-18,0.1542718404935555,-9.358977087396114e-18,-0.15427184049355544,0.01139744468775153,0.9998700898162615,0.011397444687751534,300.0,109.28571428571402,[0.48091514]
-8.351566395710243e-18,0.17415266898289902,6.494416618628023e-18,0.17415266898289902,-4.384965791342837e-18,0.03502876370837591,6.494416618628023e-18,0.03502876370837591,-4.434680467374745e-18,0.17764055393069572,-7.369754362189587e-18,-0.17764055393069575,0.09734794363674516,0.9904780440471125,0.09734794363674525,300.0,109.28571428571402,[0.4872017]
-9.062518309429796e-18,0.1859381447618636,6.200193654315262e-18,0.1859381447618636,-3.852192875797808e-18,0.028654292687608475,6.200193654315262e-18,0.028654292687608475,-3.891163441793758e-18,0.18813309694711045,-6.0268173759297804e-18,-0.18813309694711047,0.12916303878579916,0.9831753754154117,0.12916303878579918,300.0,109.28571428571402,[1.04234367]
-9.864097992217037e-18,0.19232722841618913,5.974609670327469e-18,0.19232722841618913,-3.486010432695247e-18,0.025030714546942067,5.974609670327469e-18,0.025030714546942067,-3.52155948564082e-18,0.1939492187686856,-5.103909629279493e-18,-0.19394921876868557,0.14545269644097378,0.978614850794785,0.14545269644097383,300.0,109.28571428571402,[1.02267009]
-1.0692809199096018e-17,0.19616717354742874,5.77775635411946e-18,0.19616717354742874,-3.199868767704363e-18,0.022749883035632072,5.77775635411946e-18,0.022749883035632072,-3.236878789632766e-18,0.1974819413407768,-4.628601626012943e-18,-0.19748194134077668,0.1551003307551536,0.9756473619086374,0.15510033075515361,300.0,109.28571428571402,[1.00510513]
-1.1509595253276551e-17,0.1985245385374272,5.60670024212696e-18,0.1985245385374272,-2.9538852028010215e-18,0.02125038935525427,5.60670024212696e-18,0.02125038935525427,-3.0108005959251286e-18,0.1996586373018916,-4.25698775438137e-18,-0.19965863730189154,0.16117940823501603,0.9736746873170831,0.1611794082350161,300.0,109.28571428571402,[1.00510513]
-1.2355674874874884e-17,0.1998602509907702,5.444992715391207e-18,0.1998602509907702,-2.752943412321737e-18,0.020278415802086506,5.444992715391207e-18,0.020278415802086506,-2.825422337918e-18,0.20088637104974522,-4.076660374106891e-18,-0.20088637104974527,0.1649764852811574,0.972401932643365,0.1649764852811575,300.0,109.28571428571402,[1.00328992]
-1.3200141442579952e-17,0.20036417450653957,5.294813370592471e-18,0.20036417450653957,-2.5590591300599293e-18,0.019720453892359362,5.294813370592471e-18,0.019720453892359362,-2.6669037588491136e-18,0.20133230919901474,-3.780602743510358e-18,-0.20133230919901487,0.1670452875423385,0.9716952937108396,0.16704528754233858,300.0,109.28571428571402,[1.01160517]
-1.4065768479426254e-17,0.20005998793618807,5.14869269248239e-18,0.20005998793618807,-2.4118453085365526e-18,0.019546775382512108,5.14869269248239e-18,0.019546775382512108,-2.541486698997309e-18,0.2010126244813546,-3.6117490029896455e-18,-0.20101262448135465,0.1675342066834664,0.9715269317841286,0.16753420668346652,300.0,109.28571428571402,[1.01160517]
-1.49330382452703e-17,0.19881274498204063,5.017220454058021e-18,0.19881274498204063,-2.283898710984515e-18,0.01980195532384916,5.017220454058021e-18,0.01980195532384916,-2.459480607604867e-18,0.19979645893243855,-3.624735600450794e-18,-0.19979645893243853,0.16624364931396748,0.9719702146287966,0.1662436493139675,300.0,109.28571428571402,[1.01160517]
-1.582472426314659e-17,0.19624499568873058,4.896063891348747e-18,0.19624499568873058,-2.202622772888126e-18,0.020635073827284276,4.896063891348747e-18,0.020635073827284276,-2.4358067630970847e-18,0.19732689782370616,-3.616413940190666e-18,-0.19732689782370605,0.16246730095442372,0.973246501273531,0.16246730095442374,300.0,109.28571428571402,[1.00510513]
-1.6720217172997003e-17,0.1914499863948036,4.802444103376704e-18,0.1914499863948036,-2.2008463072030275e-18,0.02240711595278654,4.802444103376704e-18,0.02240711595278654,-2.5027537987934514e-18,0.19275677974040786,-3.763588577585777e-18,-0.1927567797404079,0.15437393300989963,0.975877747268637,0.15437393300989966,300.0,109.28571428571402,[1.00510513]
-1.7668360077137628e-17,0.18196609745485817,4.753725265560605e-18,0.18196609745485817,-2.3615921750843767e-18,0.026042696670696173,4.753725265560605e-18,0.026042696670696173,-2.775899887674457e-18,0.1838202455466558,-4.3612287729589105e-18,-0.18382024554665577,0.1366293913113106,0.9811548393907055,0.13662939131131063,300.0,109.28571428571402,[1.03564176]
-1.8745104285822778e-17,0.15850532622107977,4.826282419501478e-18,0.15850532622107977,-3.0337721075473037e-18,0.03439978302033755,4.826282419501478e-18,0.03439978302033755,-3.601443807063275e-18,0.1621952018781603,-6.4180081022153776e-18,-0.1621952018781604,0.0866759322712897,0.9924588482802726,0.08667593227128981,300.0,109.28571428571402,[0.47252737]
-2.0668905274903627e-17,0.041913722027655496,5.304861572932853e-18,0.041913722027655496,-7.50599813975153e-18,0.050698755805890436,5.304861572932853e-18,0.050698755805890436,-6.94696527383058e-18,0.0657808781826214,-2.2121686165332213e-17,-0.06578087818262146,0.365593250180484,0.8559691296097891,0.3655932501804837,300.0,109.28571428571402,[0.25975406]
-1.9690801113494507e-17,0.04496757673704972,4.414056865916036e-18,0.04496757673704972,-7.422870885818129e-18,0.04445156418781037,4.414056865916036e-18,0.04445156418781037,-6.357895373142207e-18,0.06322993370505371,-1.7042546862647655e-17,-0.06322993370505367,0.4376763058099718,0.7854163880802795,0.4376763058099718,300.0,96.42857142857196,[0.29044664]
-1.6072333334888826e-17,0.16230961874965896,2.700730529670884e-18,0.16230961874965896,-2.774891265317658e-18,0.026807587809305557,2.700730529670884e-18,0.026807587809305557,-1.5634604347374368e-18,0.16450853808484617,-2.9418244378982772e-18,-0.16450853808484614,0.036389892152051795,0.9986748978012434,0.03638989215205171,300.0,96.42857142857196,[0.48610067]
-1.3303088619305545e-17,0.18530762929723832,1.369397042023617e-18,0.18530762929723832,-1.9353643439653584e-18,0.019620725562267963,1.369397042023617e-18,0.019620725562267963,7.031298741274016e-19,0.18634347412064792,2.5269188440254597e-19,-0.1863434741206478,0.004745264663567465,0.9999774822097472,0.0047452646635674925,300.0,96.42857142857196,[1.03295454]
-1.064019311921092e-17,0.19483545312807835,1.360157751236478e-19,0.19483545312807835,-1.5964149032135917e-18,0.016101558062896103,1.360157751236478e-19,0.016101558062896103,2.3967023941747056e-18,0.19549965209093445,2.272762783972154e-18,-0.1954996520909345,0.021029988406681185,0.999557641747203,0.0210299884066812,300.0,96.42857142857196,[1.04633242]
-8.03319703734656e-18,0.19990909072289453,-1.0680645718214753e-18,0.19990909072289453,-1.4226975040056768e-18,0.01395742698641243,-1.0680645718214753e-18,0.01395742698641243,3.889230320702221e-18,0.20039574427051965,3.9894963796859296e-18,-0.2003957442705196,0.030038742138774416,0.9990972665068405,0.030038742138774402,300.0,96.42857142857196,[1.04729034]
-5.427824607627063e-18,0.20289056768132846,-2.25815668391639e-18,0.20289056768132846,-1.3347167145137457e-18,0.012470588256635254,-2.25815668391639e-18,0.012470588256635254,5.274045566672952e-18,0.2032734562738536,5.507437473635418e-18,-0.2032734562738536,0.03591430634613435,0.9987093296847447,0.03591430634613434,300.0,96.42857142857196,[1.04663529]
-2.8322322444825107e-18,0.20465221040185394,-3.4381097136634675e-18,0.20465221040185394,-1.293403338762911e-18,0.011351496936376583,-3.4381097136634675e-18,0.011351496936376583,6.600801470737681e-18,0.20496678683401687,6.950032134530885e-18,-0.20496678683401687,0.04013448943584888,0.9983879233621806,0.04013448943584885,300.0,96.42857142857196,[1.08860132]
-2.3391613067718618e-19,0.2055656964197677,-4.608686271504279e-18,0.2055656964197677,-1.2732538765850827e-18,0.010462974280302456,-4.608686271504279e-18,0.010462974280302456,7.886315868445225e-18,0.20583179874677862,8.333287074994927e-18,-0.20583179874677857,0.043350389740340944,0.9981189745810475,0.043350389740340924,300.0,96.42857142857196,[1.08860132]
2.3334636867125965e-18,0.2057787304792268,-5.775185483237994e-18,0.2057787304792268,-1.2870200780643059e-18,0.009733854360664712,-5.775185483237994e-18,0.009733854360664712,9.134661667884827e-18,0.20600881980720367,9.667240049880526e-18,-0.2060088198072037,0.045881912541034894,0.9978926295965683,0.045881912541034846,300.0,96.42857142857196,[1.08860132]
4.9144050268476095e-18,0.20529974222213868,-6.942770684565176e-18,0.20529974222213868,-1.3260197892521514e-18,0.009127091799287956,-6.942770684565176e-18,0.009127091799287956,1.0350719893830099e-17,0.20550252543749736,1.0956883742295148e-17,-0.2055025254374973,0.047885080245774606,0.9977043841638221,0.04788508024577455,300.0,96.42857142857196,[1.08860132]
7.485034268177442e-18,0.20400058536237262,-8.10833907173273e-18,0.20400058536237262,-1.3878117028929427e-18,0.00862794367720655,-8.10833907173273e-18,0.00862794367720655,1.1527166094601432e-17,0.2041829577616304,1.2203054504120602e-17,-0.20418295776163037,0.04940853747834584,0.9975558093903828,0.04940853747834579,300.0,96.42857142857196,[1.03553544]
1.0041546638378291e-17,0.20153933836675744,-9.263581019335912e-18,0.20153933836675744,-1.4989846463575118e-18,0.008243030863954486,-9.263581019335912e-18,0.008243030863954486,1.2637140061348005e-17,0.2017078393794709,1.3390450253686647e-17,-0.2017078393794709,0.05038964000591005,0.997457652414452,0.05038964000590998,300.0,96.42857142857196,[1.04729034]
1.2583959094652716e-17,0.1971006834720832,-1.0425081102029763e-17,0.1971006834720832,-1.6953520989688097e-18,0.008012016651047511,-1.0425081102029763e-17,0.008012016651047511,1.3646999234108638e-17,0.1972634579337466,1.4495807187337718e-17,-0.19726345793374656,0.05056637491069442,0.9974397643250354,0.050566374910694344,300.0,96.42857142857196,[1.04729034]
1.5103576831389438e-17,0.18846023577609997,-1.1568945859661666e-17,0.18846023577609997,-2.051254767933564e-18,0.008049719547120632,-1.1568945859661666e-17,0.008049719547120632,1.444333331226728e-17,0.1886320716462884,1.5428028000168308e-17,-0.1886320716462884,0.04911325016651562,0.9975849724791178,0.04911325016651554,300.0,96.42857142857196,[1.04729034]
1.7526055233276456e-17,0.1670539015814158,-1.2705316063675807e-17,0.1670539015814158,-2.922658050618178e-18,0.008669855331040635,-1.2705316063675807e-17,0.008669855331040635,1.4649014110948762e-17,0.16727872675577896,1.596858666845195e-17,-0.16727872675577887,0.04264637702805019,0.9981796296522799,0.04264637702805008,300.0,96.42857142857196,[0.48610067]
1.9182339394812755e-17,0.054010666197619815,-1.3821100687458847e-17,0.054010666197619815,-7.584065722132813e-18,0.007891650266723052,-1.3821100687458847e-17,0.007891650266723052,1.2245999928034667e-17,0.05458415710664571,1.632326784358223e-17,-0.054584157106645714,0.0232500103168242,0.9994592908370682,0.02325001031682457,300.0,96.42857142857196,[0.27763432]
1.9219293378485832e-17,0.05405166913803135,-1.3956063791242492e-17,0.05405166913803135,-7.533281947470924e-18,0.0009301984443495426,-1.3956063791242492e-17,0.0009301984443495426,1.177960002038381e-17,0.0540596726382345,1.226204837497729e-17,-0.054059672638234496,0.09124971833966009,0.9916385318279365,0.09124971833966042,300.0,83.57142857142804,[0.27324155]
1.7658081892737562e-17,0.16718825028575304,-1.2494251982453561e-17,0.16718825028575304,-2.761893966991894e-18,0.00015759491080473228,-1.2494251982453561e-17,0.00015759491080473228,1.3265824636773217e-17,0.16718832456175736,1.3289383142414216e-17,-0.16718832456175733,0.07983314648556951,0.9936062285656362,0.0798331464855696,300.0,83.57142857142804,[0.4663338]
1.532579249230206e-17,0.18868606810929156,-1.1035628856375207e-17,0.18868606810929156,-1.787833965914554e-18,0.0007787454958437428,-1.1035628856375207e-17,0.0007787454958437428,1.2137927966748699e-17,0.18868767512238718,1.2229071425886302e-17,-0.1886876751223871,0.0820701636508107,0.9932416505949891,0.08207016365081077,300.0,83.57142857142804,[1.03045605]
1.2900709040172174e-17,0.19741720885525643,-9.612498115715914e-18,0.19741720885525643,-1.335783958449698e-18,0.0008128611387582692,-9.612498115715914e-18,0.0008128611387582692,1.0418291166545608e-17,0.1974188823173479,1.0497491526021044e-17,-0.19741888231734783,0.08206333485049863,0.9932427790557704,0.08206333485049867,300.0,83.57142857142804,[1.03045605]
1.0435477291337469e-17,0.20194598517078247,-8.179770095202208e-18,0.20194598517078247,-1.0386547548314563e-18,0.0005736480608579593,-8.179770095202208e-18,0.0005736480608579593,8.483502440120184e-18,0.20194679992189932,8.529990157813641e-18,-0.20194679992189926,0.08116649168632314,0.9933901556058766,0.0811664916863232,300.0,83.57142857142804,[1.02752347]
7.96753662939423e-18,0.2044968053146813,-6.759794255326521e-18,0.2044968053146813,-8.206136789843447e-19,0.000175921007714107,-6.759794255326521e-18,0.000175921007714107,6.446157612453146e-18,0.2044968809838224,6.457789135785595e-18,-0.20449688098382238,0.07977528364318515,0.9936155233485929,0.07977528364318519,300.0,83.57142857142804,[1.01576856]
5.4740838562034784e-18,0.20588496006533036,-5.340599374115485e-18,0.20588496006533036,-6.459830416840158e-19,-0.0003406546997405988,-5.340599374115485e-18,-0.0003406546997405988,4.355092367084463e-18,0.20588524188665672,4.337422368521084e-18,-0.20588524188665666,0.07800811994688026,0.9938961044519222,0.07800811994688027,300.0,83.57142857142804,[1.0714742]
2.981716343976396e-18,0.2064523275215411,-3.919946868994779e-18,0.2064523275215411,-5.136773832495829e-19,-0.0009694504114639397,-3.919946868994779e-18,-0.0009694504114639397,2.2122064406131385e-18,0.2064546036618268,2.1754101660245587e-18,-0.2064546036618268,0.0758704786730004,0.9942270067403416,0.07587047867300044,300.0,83.57142857142804,[1.07356015]
4.958709957829292e-19,0.20632700501871262,-2.510791777761919e-18,0.20632700501871262,-3.8896841908269205e-19,-0.0017251956161704316,-2.510791777761919e-18,-0.0017251956161704316,3.8797549538607293e-20,0.2063342174722988,-3.1558458911097633e-21,-0.20633421747229883,0.07329300728992615,0.9946136285838827,0.07329300728992619,300.0,83.57142857142804,[1.07826637]
-2.00517860415351e-18,0.20550051328077792,-1.1027738126864884e-18,0.20550051328077792,-3.00072934238752e-19,-0.0026449168188864254,-1.1027738126864884e-18,-0.0026449168188864254,-2.1679836460813432e-18,0.20551753342146264,-2.1963554749165427e-18,-0.2055175334214627,0.07012136205185002,0.9950708463059236,0.07012136205185004,300.0,83.57142857142804,[1.07998136]
-4.506770834571784e-18,0.20382510071350166,3.0546452978311533e-19,0.20382510071350166,-2.4047962789203545e-19,-0.0037997560530391872,3.0546452978311533e-19,-0.0037997560530391872,-4.421159217985588e-18,0.20386051561528945,-4.409862621277759e-18,-0.20386051561528945,0.06606019527484237,0.9956264867913566,0.06606019527484236,300.0,83.57142857142804,[1.02458893]
-7.029529893082254e-18,0.20092905046323417,1.7030022481678509e-18,0.20092905046323417,-2.339287161009592e-19,-0.005326864083911218,1.7030022481678509e-18,-0.005326864083911218,-6.729954414277899e-18,0.20099964875846266,-6.639378634398313e-18,-0.2009996487584627,0.06052122033054216,0.996330449087753,0.06052122033054214,300.0,83.57142857142804,[1.03634384]
-9.550105711763466e-18,0.1959400150145356,3.081784704372519e-18,0.1959400150145356,-2.916793839291601e-19,-0.007515756177177082,3.081784704372519e-18,-0.007515756177177082,-9.142118597709416e-18,0.19608410459497017,-8.906377650370721e-18,-0.19608410459497017,0.052180209086010974,0.9972735089028887,0.05218020908601093,300.0,83.57142857142804,[1.03634384]
-1.2134177775420628e-17,0.18649599888755117,4.427992208866861e-18,0.18649599888755117,-5.240215417658485e-19,-0.011084152606956109,4.427992208866861e-18,-0.011084152606956109,-1.17617054024726e-17,0.18682509478140183,-1.1245980300116217e-17,-0.18682509478140183,0.03734320148428579,0.9986045116089792,0.03734320148428576,300.0,83.57142857142804,[1.03634384]
-1.4800729672316676e-17,0.16358122455053264,5.686513290307416e-18,0.16358122455053264,-1.278374355605746e-18,-0.018324726142734796,5.686513290307416e-18,-0.018324726142734796,-1.4947525525292644e-17,0.16460441249753302,-1.3685856016028086e-17,-0.164604412497533,0.00045441775024756626,0.999999793504487,0.000454417750247511,300.0,83.57142857142804,[0.46661158]
-1.833983350365338e-17,0.046322903546631496,6.5479813082702435e-18,0.046322903546631496,-5.803873758011384e-18,-0.03602709514183657,6.5479813082702435e-18,-0.03602709514183657,-2.0662954356631162e-17,0.05868358354215824,-1.6677525302066602e-17,-0.058683583542158246,0.3688833793347732,0.853141315903242,0.3688833793347735,300.0,83.57142857142804,[0.25605806]
-1.9944529615709622e-17,0.04333722462342619,7.569919639572862e-18,0.04333722462342619,-5.823783500985872e-18,-0.04232375319339833,7.569919639572862e-18,-0.04232375319339833,-2.2231608994476943e-17,0.06057569745728883,-1.1870831038517285e-17,-0.0605756974572889,0.2992437616605962,0.9060388193749938,0.2992437616605961,300.0,70.71428571428592,[0.25889628]
-1.9348926952736035e-17,0.16000300109845703,9.299401884315445e-18,0.16000300109845703,-1.332948065039201e-18,-0.026070340946454735,9.299401884315445e-18,-0.026070340946454735,-1.9921822861660188e-17,0.16211299465982734,-1.7042750227450825e-17,-0.1621129946598274,0.12317013783984346,0.9847122596418856,0.12317013783984335,300.0,70.71428571428592,[0.4602214]
-1.96323962685864e-17,0.18353488950121627,1.0610142704150855e-17,0.18353488950121627,-6.208551170569419e-19,-0.017762780215121805,1.0610142704150855e-17,-0.017762780215121805,-2.0127534925183883e-17,0.18439244026042487,-1.805632301570379e-17,-0.18439244026042498,0.16816232794989966,0.9713098696692735,0.16816232794989955,300.0,70.71428571428592,[0.97221423]
-2.0035235811839138e-17,0.19308784536578827,1.179958799170291e-17,0.19308784536578827,-4.170708754989839e-19,-0.014180905578377428,1.179958799170291e-17,-0.014180905578377428,-2.0881846935755127e-17,0.19360788752275912,-1.916771568516828e-17,-0.1936078875227592,0.18402928529936982,0.9655394576631274,0.18402928529936974,300.0,70.71428571428592,[0.99628988]
-2.0477687380265816e-17,0.1979500888718641,1.2941264375977437e-17,0.1979500888718641,-4.049700567802942e-19,-0.01246677956779354,1.2941264375977437e-17,-0.01246677956779354,-2.1847378921205722e-17,0.1983422755671893,-2.02192761438114e-17,-0.19834227556718936,0.1911297763667938,0.9627766185216375,0.19112977636679374,300.0,70.71428571428592,[0.99548203]
-2.093315784095589e-17,0.2005832782261332,1.4067627876430112e-17,0.2005832782261332,-4.549998983191075e-19,-0.011695769876624563,1.4067627876430112e-17,-0.011695769876624563,-2.290407017804166e-17,0.2009239720315855,-2.1262757007962665e-17,-0.20092397203158546,0.19429572450207747,0.9615083685961479,0.19429572450207735,300.0,70.71428571428592,[0.97544059]
-2.141196141236486e-17,0.2018941611273219,1.5174439192421592e-17,0.2018941611273219,-5.549506843615614e-19,-0.01150685796630493,1.5174439192421592e-17,-0.01150685796630493,-2.4023437375179837e-17,0.2022218091046603,-2.228539276020238e-17,-0.20222180910466037,0.19518617019017562,0.9611476046544483,0.19518617019017556,300.0,70.71428571428592,[0.97047385]
-2.1890764983773828e-17,0.20226016835495866,1.6268261026297868e-17,0.20226016835495866,-6.820329944957546e-19,-0.011750921370021133,1.6268261026297868e-17,-0.011750921370021133,-2.5176174227300536e-17,0.20260123359945437,-2.3279871941405585e-17,-0.20260123359945434,0.19443852181627416,0.9614506344414178,0.1944385218162741,300.0,70.71428571428592,[0.97544059]
-2.2380425404120133e-17,0.20181622385405362,1.7360165768938147e-17,0.20181622385405362,-8.325832781004325e-19,-0.012383336271602798,1.7360165768938147e-17,-0.012383336271602798,-2.6361196533265242e-17,0.2021957843970173,-2.421779921015844e-17,-0.20219578439701721,0.1922281130534212,0.9623391840218511,0.19222811305342108,300.0,70.71428571428592,[0.98096855]
-2.288744999988515e-17,0.2005386276056542,1.8438911589915785e-17,0.2005386276056542,-1.0097216604461449e-18,-0.013433777017528138,1.8438911589915785e-17,-0.013433777017528138,-2.758339114688595e-17,0.20098807807160068,-2.509813366115904e-17,-0.20098807807160074,0.18841042502175703,0.9638480292485128,0.18841042502175695,300.0,70.71428571428592,[0.99628988]
-2.340369507454072e-17,0.19823749908118807,1.9508482703201963e-17,0.19823749908118807,-1.2215883936292837e-18,-0.015015694248857974,1.9508482703201963e-17,-0.015015694248857974,-2.8840585426585e-17,0.19880537496692385,-2.586566248852041e-17,-0.19880537496692388,0.18246500927374834,0.9661330347221659,0.18246500927374823,300.0,70.71428571428592,[0.9950793]
-2.391993590989565e-17,0.19445190211497426,2.055248189135817e-17,0.19445190211497426,-1.482019760067766e-18,-0.017382845813297555,2.055248189135817e-17,-0.017382845813297555,-3.0155569852599456e-17,0.19522731767019802,-2.646105111491361e-17,-0.19522731767019802,0.17318799309828647,0.969542076494453,0.17318799309828636,300.0,70.71428571428592,[0.99648026]
-2.449858348996222e-17,0.18811528743310063,2.1565771122009535e-17,0.18811528743310063,-1.820725043598336e-18,-0.02109658317451588,2.1565771122009535e-17,-0.02109658317451588,-3.15512663234862e-17,0.18929455139458543,-2.6681292438307073e-17,-0.18929455139458543,0.15770402203209313,0.9748122295446453,0.1577040220320929,300.0,70.71428571428592,[0.96500928]
-2.5095137875929342e-17,0.17638045713822498,2.251589404450502e-17,0.17638045713822498,-2.3047191087275905e-18,-0.027565011814206293,2.251589404450502e-17,-0.027565011814206293,-3.313729361535197e-17,0.17852141478435168,-2.6143402571142726e-17,-0.17852141478435182,0.12768625184233637,0.9835611024135263,0.1276862518423362,300.0,70.71428571428592,[0.47666965]
-2.588838733296029e-17,0.14869381642289342,2.3278978559119565e-17,0.14869381642289342,-3.315132570046817e-18,-0.04123310166646907,2.3278978559119565e-17,-0.04123310166646907,-3.5234207505865195e-17,0.15430495687255968,-2.243571398686341e-17,-0.1543049568725598,0.046701536459052985,0.9978165828371103,0.04670153645905282,300.0,70.71428571428592,[0.4616491]
-2.777830571168126e-17,0.02029256684259595,2.333664285119724e-17,0.02029256684259595,-8.133860820765291e-18,-0.0723545536163861,2.333664285119724e-17,-0.0723545536163861,-3.960528256627253e-17,0.0751463219198898,-1.72513383697897e-17,-0.07514632191988985,0.5795646819574792,0.5728957661346887,0.5795646819574793,300.0,70.71428571428592,[0.31252548]
-2.7673756079314e-17,0.014866511977065205,2.299370131402467e-17,0.014866511977065205,-8.190007178257794e-18,-0.07673899736646181,2.299370131402467e-17,-0.07673899736646181,-3.9102873509078586e-17,0.07816576549343102,-1.4482919096989302e-17,-0.0781657654934311,0.5162449058573636,0.6833611009946675,0.516244905857363,300.0,57.857142857142705,[0.3347902]
-2.5062524936110943e-17,0.14209770815810316,2.2647190418191926e-17,0.14209770815810316,-3.488590444568717e-18,-0.04667707833454846,2.2647190418191926e-17,-0.04667707833454846,-3.4212492598954083e-17,0.14956773818452643,-1.9356366069130917e-17,-0.14956773818452626,0.1705645021931715,0.9704717930899337,0.1705645021931715,300.0,57.857142857142705,[0.4182983]
-2.3583475336053608e-17,0.17079570498967037,2.15701632361891e-17,0.17079570498967037,-2.5962356770165712e-18,-0.032327030633442125,2.15701632361891e-17,-0.032327030633442125,-3.157565925936493e-17,0.1738281040352625,-2.3266298475513806e-17,-0.17382810403526236,0.2582951567367679,0.9308959254463719,0.2582951567367677,300.0,57.857142857142705,[0.45645666]
-2.2335069126579896e-17,0.18262693200058724,2.028688546700324e-17,0.18262693200058724,-2.2237892697849596e-18,-0.025905521663715257,2.028688546700324e-17,-0.025905521663715257,-2.942101987187105e-17,0.1844551228473102,-2.370621044533407e-17,-0.18445512284731042,0.2883878728388678,0.9130525010090855,0.28838787283886763,300.0,57.857142857142705,[0.86813507]
-2.1119720983491712e-17,0.1886357359896063,1.89280974073077e-17,0.1886357359896063,-1.995682570721401e-18,-0.022576430906881977,1.89280974073077e-17,-0.022576430906881977,-2.744240048622297e-17,0.18998193631193905,-2.2916021298683284e-17,-0.18998193631193902,0.3023885459648871,0.9039481923973757,0.30238854596488707,300.0,57.857142857142705,[0.87054588]
-1.9963824792569552e-17,0.19184890441888092,1.753364768824336e-17,0.19184890441888092,-1.8522256969114894e-18,-0.020788442814275238,1.753364768824336e-17,-0.020788442814275238,-2.554944040929328e-17,0.19297191889331267,-2.174924393163997e-17,-0.19297191889331272,0.3095148720958862,0.8991112767076912,0.309514872095886,300.0,57.857142857142705,[0.86926965]
-1.881361774310538e-17,0.19339502235431685,1.6115441458308766e-17,0.19339502235431685,-1.7554318650638897e-18,-0.019930689444088788,1.6115441458308766e-17,-0.019930689444088788,-2.370050758915339e-17,0.19441930730548196,-2.0381809246927463e-17,-0.19441930730548201,0.312843886190709,0.8968039951662735,0.3128438861907091,300.0,57.857142857142705,[0.86765563]
-1.7665309900327627e-17,0.19374538557540738,1.4682142788185564e-17,0.19374538557540738,-1.6999489581214429e-18,-0.019741089640783572,1.4682142788185564e-17,-0.019741089640783572,-2.1887795353675975e-17,0.19474851745769148,-1.8918922264280317e-17,-0.19474851745769148,0.31357474934461854,0.8962933410144913,0.31357474934461843,300.0,57.857142857142705,[0.86765563]
-1.6554155288353e-17,0.1930668281740245,1.3236346394821316e-17,0.1930668281740245,-1.6531460192380327e-18,-0.020124504048897443,1.3236346394821316e-17,-0.020124504048897443,-2.009916022617966e-17,0.19411284296612732,-1.7386744857742958e-17,-0.19411284296612724,0.31210393598400693,0.8973194895278838,0.3121039359840069,300.0,57.857142857142705,[0.86926965]
-1.5441398220736707e-17,0.19132513357224168,1.177778122793139e-17,0.19132513357224168,-1.6376789308554216e-18,-0.021097376822484845,1.177778122793139e-17,-0.021097376822484845,-1.8341866248309942e-17,0.1924848202981889,-1.5705504865310166e-17,-0.19248482029818884,0.30831349685961146,0.8999364284816994,0.3083134968596114,300.0,57.857142857142705,[0.86926965]
-1.4367142481526846e-17,0.18827411394962754,1.0298578483138462e-17,0.18827411394962754,-1.6602659246617946e-18,-0.02279299611796457,1.0298578483138462e-17,-0.02279299611796457,-1.6614955338122333e-17,0.18964878764587684,-1.4088064708569188e-17,-0.18964878764587687,0.3015186958826937,0.9045291327903151,0.3015186958826936,300.0,57.857142857142705,[0.87054588]
-1.3292903699519545e-17,0.1833218616476785,8.794109374056957e-18,0.1833218616476785,-1.7209006417061926e-18,-0.02553146609693024,8.794109374056957e-18,-0.02553146609693024,-1.4927185890737698e-17,0.1850912226958082,-1.2465484764954736e-17,-0.18509122269580822,0.29001921804650915,0.9120184791589383,0.29001921804650904,300.0,57.857142857142705,[0.86813507]
-1.2288375977225453e-17,0.1751089182506043,7.250384076098926e-18,0.1751089182506043,-1.8627963930556694e-18,-0.030034790909288445,7.250384076098926e-18,-0.030034790909288445,-1.331375258006379e-17,0.17766604041251519,-1.060993397696481e-17,-0.17766604041251535,0.2695733132244678,0.9244784787080584,0.26957331322446765,300.0,57.857142857142705,[0.44784205]
-1.1370414773986568e-17,0.16005139219559,5.616801766920696e-18,0.16005139219559,-2.162157787177738e-18,-0.03812256785052582,5.616801766920696e-18,-0.03812256785052582,-1.1847781222478803e-17,0.16452895891989505,-9.19433210006264e-18,-0.16452895891989494,0.22723646940062636,0.9469567962418752,0.2272364694006263,300.0,57.857142857142705,[0.43684415]
-1.0700164385705263e-17,0.12527632157900856,3.7457164812899685e-18,0.12527632157900856,-2.983492610944277e-18,-0.05551168332340831,3.7457164812899685e-18,-0.05551168332340831,-1.0797057841117887e-17,0.13702446399736634,-9.203418820335271e-18,-0.1370244639973663,0.10139203106170358,0.9896662629767496,0.10139203106170364,300.0,57.857142857142705,[0.41645023]
-1.1531728641914515e-17,-0.018986874296429337,9.82020745287285e-19,-0.018986874296429337,-7.603204773498885e-18,-0.09388905425720397,9.82020745287285e-19,-0.09388905425720397,-1.165415540507785e-17,0.09578964403765469,-2.982921777924343e-17,-0.0957896440376547,0.6614138598886695,0.35364305718385425,0.6614138598886695,300.0,57.857142857142705,[0.33733509]
-1.1541343375764525e-17,-0.025781980180172182,3.5559730684057755e-19,-0.025781980180172182,-7.599431795929877e-18,-0.09549229497229153,3.5559730684057755e-19,-0.09549229497229153,-1.0995054377477994e-17,0.09891152056806085,-3.90268232296001e-18,-0.09891152056806088,0.6130442361818471,0.49835080913793217,0.613044236181847,300.0,45.00000000000011,[0.3850178]
-1.0116463559276606e-17,0.11695979676483723,2.0188082206652595e-18,0.11695979676483723,-2.994898449314406e-18,-0.05757397611252393,2.0188082206652595e-18,-0.05757397611252393,-9.423897492429846e-18,0.13036240556493847,-9.782861620551326e-18,-0.13036240556493867,0.2277720344103756,0.946699424675603,0.22777203441037558,300.0,45.00000000000011,[0.40010308]
-1.020482754180289e-17,0.15293441587219117,2.7718423470500342e-18,0.15293441587219117,-2.1735212325414736e-18,-0.04002178312281801,2.7718423470500342e-18,-0.04002178312281801,-9.729941084184665e-18,0.15808440366620036,-8.209515194466417e-18,-0.15808440366620047,0.35712768031118025,0.8630872724766081,0.3571276803111803,300.0,45.00000000000011,[0.41905452]
-1.06011004083653e-17,0.16805095536452885,3.2839843085993086e-18,0.16805095536452885,-1.866619182407189e-18,-0.03203079615658017,3.2839843085993086e-18,-0.03203079615658017,-1.0419285282545532e-17,0.1710762856194723,-9.202013372871307e-18,-0.17107628561947238,0.3975424142376465,0.8269945935519816,0.3975424142376465,300.0,45.00000000000011,[0.42738223]
-1.1086279887935828e-17,0.17579428279623038,3.701709096221909e-18,0.17579428279623038,-1.7344123526689108e-18,-0.02774456479057387,3.701709096221909e-18,-0.02774456479057387,-1.1242523552299132e-17,0.1779701962106559,-1.0139409854358372e-17,-0.177970196210656,0.41593963809090767,0.8086955143498754,0.4159396380909077,300.0,45.00000000000011,[0.44145823]
-1.1643561392780153e-17,0.17997226014404286,4.076347486840347e-18,0.17997226014404286,-1.6630182906018824e-18,-0.025292348508335654,4.076347486840347e-18,-0.025292348508335654,-1.2133700854098703e-17,0.18174079705564772,-1.0955820307201529e-17,-0.1817407970556478,0.42555087834336097,0.7986318926028361,0.4255508783433608,300.0,45.00000000000011,[0.46911437]
-1.2217766185776701e-17,0.18202174871254026,4.425245373889326e-18,0.18202174871254026,-1.6578336259199766e-18,-0.02393442127474441,4.425245373889326e-18,-0.02393442127474441,-1.3056859439921413e-17,0.18358859857335386,-1.1941562269274622e-17,-0.18358859857335388,0.4305477809250521,0.7932573458096852,0.43054778092505197,300.0,45.00000000000011,[0.80487468]
-1.2829208995589163e-17,0.1825476258374398,4.756645812505744e-18,0.1825476258374398,-1.6602500272843971e-18,-0.023347653078491213,4.756645812505744e-18,-0.023347653078491213,-1.4010422289929425e-17,0.1840346396827497,-1.2817098383695672e-17,-0.1840346396827497,0.43252719442760074,0.7911007850844146,0.43252719442760057,300.0,45.00000000000011,[0.73246731]
-1.3459915187506757e-17,0.1817673938162459,5.071902464374996e-18,0.1817673938162459,-1.7125799543763393e-18,-0.02340523394245423,5.071902464374996e-18,-0.02340523394245423,-1.497869551315593e-17,0.18326808350242332,-1.3743691396330175e-17,-0.1832680835024235,0.43205056998289937,0.7916215067536401,0.43205056998289937,300.0,45.00000000000011,[0.74526113]
-1.4092995387782378e-17,0.179643100759569,5.378512532677747e-18,0.179643100759569,-1.774672990840668e-18,-0.024107122189985813,5.378512532677747e-18,-0.024107122189985813,-1.5969182671732544e-17,0.18125340545985763,-1.4523426271814897e-17,-0.18125340545985758,0.42905670703116666,0.7948714891749127,0.4290567070311666,300.0,45.00000000000011,[0.46911437]
-1.4769519941009898e-17,0.1758692191057752,5.659643874225518e-18,0.1758692191057752,-1.862799572531149e-18,-0.025580045385286732,5.659643874225518e-18,-0.025580045385286732,-1.698837837423873e-17,0.17771978210314257,-1.5356203617944208e-17,-0.17771978210314263,0.4228262378615377,0.8015210197815877,0.42282623786153783,300.0,45.00000000000011,[0.44145823]
-1.548053544423904e-17,0.16970705109178044,5.913374496090953e-18,0.16970705109178044,-2.0160757264469186e-18,-0.028147054619642415,5.913374496090953e-18,-0.028147054619642415,-1.8032602907719548e-17,0.17202540473438604,-1.609751706736874e-17,-0.17202540473438604,0.4114508455617702,0.8132751092791474,0.41145084556177014,300.0,45.00000000000011,[0.45371678]
-1.6250324611531914e-17,0.15946352861761376,6.125366023686662e-18,0.15946352861761376,-2.2301180157269057e-18,-0.03254780609288959,6.125366023686662e-18,-0.03254780609288959,-1.9125045246672153e-17,0.16275127231650405,-1.6360840824093783e-17,-0.1627512723165041,0.38990700569734876,0.834233213086278,0.389907005697349,300.0,45.00000000000011,[0.42738223]
-1.716336822602917e-17,0.14071247861038652,6.247432976208234e-18,0.14071247861038652,-2.62540736454099e-18,-0.04065299664178512,6.247432976208234e-18,-0.04065299664178512,-2.0332686341198027e-17,0.14646729250121154,-1.6692453716131152e-17,-0.1464672925012116,0.3415761985488104,0.8755863185145638,0.34157619854881044,300.0,45.00000000000011,[0.43220461]
-1.843899074560741e-17,0.0979393931748769,6.123324270516243e-18,0.0979393931748769,-3.525343061461426e-18,-0.05831913190636425,6.123324270516243e-18,-0.05831913190636425,-2.183918117359441e-17,0.11398791989406172,-1.604422317950207e-17,-0.11398791989406182,0.17379149170076394,0.9693260724982314,0.17379149170076405,300.0,45.00000000000011,[0.40582326]
-2.1609241506916918e-17,-0.06376001868746514,5.099661934873937e-18,-0.06376001868746514,-8.217714717323903e-18,-0.09635161446802658,5.099661934873937e-18,-0.09635161446802658,-2.4853154356135502e-17,0.11553775830273463,-2.0555643440483185e-17,-0.11553775830273469,0.6928974367667912,0.1994649950342702,0.6928974367667913,300.0,45.00000000000011,[0.19474348]
-2.1564135348114402e-17,-0.07057891783603776,5.346454941243101e-18,-0.07057891783603776,-8.224251718909756e-18,-0.09485496521491206,5.346454941243101e-18,-0.09485496521491206,-2.4270708362696086e-17,0.11823217865212644,-2.8748564812630865e-17,-0.11823217865212647,0.6592290831844373,0.3617098723668072,0.6592290831844373,300.0,32.14285714285738,[0.3120268]
-1.7691924229741368e-17,0.08954898391248428,6.730769419825811e-18,0.08954898391248428,-3.560156198311639e-18,-0.05658784410070787,6.730769419825811e-18,-0.05658784410070787,-2.0700131963412964e-17,0.10593018748083283,-1.2677015269869565e-17,-0.10593018748083288,0.3051690939678319,0.9020774069744264,0.30516909396783176,300.0,32.14285714285738,[0.36777836]
-1.5725363534761873e-17,0.13347198968680477,7.22778608660652e-18,0.13347198968680477,-2.6760670071810346e-18,-0.03930752943713613,7.22778608660652e-18,-0.03930752943713613,-1.8600321570737914e-17,0.13913969204150856,-1.4818700718884086e-17,-0.13913969204150853,0.46805702487131634,0.7495633681932593,0.46805702487131645,300.0,32.14285714285738,[0.40346817]
-1.4159196306566222e-17,0.1522326777474999,7.484956900940774e-18,0.1522326777474999,-2.300939772207624e-18,-0.03132755954644712,7.484956900940774e-18,-0.03132755954644712,-1.676972372586315e-17,0.15542266295913965,-1.3735058689359154e-17,-0.15542266295913965,0.5106069053181365,0.6917811622781235,0.5106069053181365,300.0,32.14285714285738,[0.41548149]
-1.2783017575822976e-17,0.1619574407715502,7.656168476036407e-18,0.1619574407715502,-2.102167443830519e-18,-0.026931098988223674,7.656168476036407e-18,-0.026931098988223674,-1.503919033327923e-17,0.1641812922168165,-1.2645335463530918e-17,-0.1641812922168166,0.5289049727297974,0.6637160986772764,0.5289049727297975,300.0,32.14285714285738,[0.41548149]
-1.1438379241836375e-17,0.167296444577898,7.780692633191052e-18,0.167296444577898,-1.9745136229788855e-18,-0.024298509275038183,7.780692633191052e-18,-0.024298509275038183,-1.3350507316606819e-17,0.16905182022502677,-1.1151492134685058e-17,-0.16905182022502688,0.5384342101181635,0.6482107703122948,0.5384342101181634,300.0,32.14285714285738,[0.41548149]
-1.0153430260851601e-17,0.17002019337965327,7.88271564237727e-18,0.17002019337965327,-1.9006141342340105e-18,-0.022707721992372157,7.88271564237727e-18,-0.022707721992372157,-1.1688955824026145e-17,0.17152990058569262,-9.676911704858937e-18,-0.17152990058569265,0.5436516760610165,0.6394417176194362,0.5436516760610167,300.0,32.14285714285738,[0.44378136]
-8.89425622775398e-18,0.1708803912052387,7.961632343428798e-18,0.1708803912052387,-1.870108126833361e-18,-0.02183856182910294,7.961632343428798e-18,-0.02183856182910294,-1.0043683245900516e-17,0.17227022633414907,-8.034675694536133e-18,-0.17227022633414907,0.5462030350987442,0.6350783328833065,0.5462030350987441,300.0,32.14285714285738,[0.45036321]
-7.656923071550209e-18,0.17015391761521947,8.036732614079764e-18,0.17015391761521947,-1.8227975316983907e-18,-0.021557667871980574,8.036732614079764e-18,-0.021557667871980574,-8.411552499756823e-18,0.17151410648656717,-6.3550195549942526e-18,-0.17151410648656723,0.54669110434881,0.6342378677213755,0.54669110434881,300.0,32.14285714285738,[0.44378136]
-6.453368662840654e-18,0.167806593437865,8.090139323534097e-18,0.167806593437865,-1.8303265296338484e-18,-0.021848523964636025,8.090139323534097e-18,-0.021848523964636025,-6.796480699385812e-18,0.1692229618008566,-4.65648878265476e-18,-0.16922296180085664,0.5451412380098439,0.6369003542487549,0.5451412380098438,300.0,32.14285714285738,[0.41274902]
-5.2975657365325585e-18,0.1634822594234356,8.129357093748578e-18,0.1634822594234356,-1.8845217490070976e-18,-0.022806199892885015,8.129357093748578e-18,-0.022806199892885015,-5.1912101620929404e-18,0.16506535644933412,-2.9953758246391436e-18,-0.16506535644933412,0.5410041901168294,0.6439168677337681,0.5410041901168293,300.0,32.14285714285738,[0.41274902]
-4.169843937659414e-18,0.15630867085687555,8.149461977030621e-18,0.15630867085687555,-1.954961968430276e-18,-0.024692711877534888,8.149461977030621e-18,-0.024692711877534888,-3.610052766836603e-18,0.1582470555963364,-1.095661004413052e-18,-0.15824705559633645,0.532688169759807,0.6576371549691317,0.5326881697598072,300.0,32.14285714285738,[0.41548149]
-3.1225671077182773e-18,0.14428451377105397,8.127525715872386e-18,0.14428451377105397,-2.1106630023117448e-18,-0.028118872331745554,8.127525715872386e-18,-0.028118872331745554,-2.0615549437056966e-18,0.14699895202129318,6.896831754364483e-19,-0.1469989520212932,0.5157060192733571,0.684174395436175,0.5157060192733572,300.0,32.14285714285738,[0.41548149]
-2.253951363921243e-18,0.12220255955101746,8.039534791802364e-18,0.12220255955101746,-2.4372926379711714e-18,-0.03463596521554885,8.039534791802364e-18,-0.03463596521554885,-5.873635821810413e-19,0.12701620230203967,3.525592903374403e-18,-0.12701620230203975,0.4734473627141585,0.7427618659287889,0.4734473627141585,300.0,32.14285714285738,[0.3703787]
-1.8720751623300122e-18,0.07210775640340167,7.742448842298458e-18,0.07210775640340167,-3.2680259912551147e-18,-0.049080165365088586,7.742448842298458e-18,-0.049080165365088586,6.965679666502921e-19,0.08722609223046024,-3.184915489721169e-18,-0.08722609223046025,0.2832701174961683,0.9162511015368079,0.28327011749616854,300.0,32.14285714285738,[0.30680925]
-3.7548672766762615e-18,-0.10514703949230364,6.7096386257890496e-18,-0.10514703949230364,-7.897206631787675e-18,-0.07923522558924863,6.7096386257890496e-18,-0.07923522558924863,8.439260568735513e-19,0.1316591086411236,1.4174562800682128e-18,-0.13165910864112362,0.7045670431934502,0.08467917861716218,0.7045670431934502,300.0,32.14285714285738,[0.16988452]
-3.587330115409771e-18,-0.1106385189508563,6.508850509957941e-18,-0.1106385189508563,-7.891746412564212e-18,-0.07493389175201717,6.508850509957941e-18,-0.07493389175201717,1.46849374146539e-18,0.13362623248727024,6.1679815480381e-18,-0.13362623248727026,0.6835731971831386,0.25584246751789297,0.6835731971831387,300.0,19.285714285714306,[0.28663706]
-9.037510674958363e-19,0.06530830618521787,6.7453377764728834e-18,0.06530830618521787,-3.2317036633772987e-18,-0.0438945445828172,6.7453377764728834e-18,-0.0438945445828172,2.0853967705013125e-18,0.07868866437368913,6.4310599453584954e-18,-0.07868866437368917,0.4236599660997212,0.8006400353771764,0.4236599660997211,300.0,19.285714285714306,[0.30282693]
-4.992200432880033e-19,0.11627776726057361,6.268844623912351e-18,0.11627776726057361,-2.378213744261409e-18,-0.030306243641018176,6.268844623912351e-18,-0.030306243641018176,1.5958762470761063e-18,0.12016233837077599,4.363667796611343e-18,-0.12016233837077603,0.5869479862190097,0.5576595044889835,0.5869479862190096,300.0,19.285714285714306,[0.37962759]
-6.028624653184474e-19,0.13832003716131738,5.612299894598013e-18,0.13832003716131738,-2.0454456012762264e-18,-0.02391563003002865,5.612299894598013e-18,-0.02391563003002865,9.3563060830363e-19,0.14037232647513334,2.5634584477962014e-18,-0.14037232647513337,0.6178790058953205,0.48626234498223375,0.6178790058953207,300.0,19.285714285714306,[0.42104961]
-8.91813196895471e-19,0.1498808489280721,4.888028098269672e-18,0.1498808489280721,-1.865631425358224e-18,-0.02027777445599487,4.888028098269672e-18,-0.02027777445599487,2.123041760178601e-19,0.151246345451015,1.4917960318711075e-18,-0.15124634545101492,0.6300892576028737,0.45384474758106313,0.6300892576028736,300.0,19.285714285714306,[0.4328764]
-1.2730111103844083e-18,0.15634707165824507,4.1313044555472264e-18,0.15634707165824507,-1.7527642851365886e-18,-0.017984544542391307,4.1313044555472264e-18,-0.017984544542391307,-5.370685193959796e-19,0.15737805011660824,3.5047341725429393e-19,-0.15737805011660827,0.636365689976514,0.43597868897622816,0.6363656899765139,300.0,19.285714285714306,[0.4328764]
-1.681340547965085e-18,0.15978213715745823,3.3561525729455954e-18,0.15978213715745823,-1.697890777661046e-18,-0.016474546121223076,3.3561525729455954e-18,-0.016474546121223076,-1.3029914445057803e-18,0.1606292066359824,-6.436679714639475e-19,-0.16062920663598232,0.6399539384797628,0.42534446422691335,0.6399539384797628,300.0,19.285714285714306,[0.4328764]
-2.1615685243888706e-18,0.16106874181235034,2.568905965619943e-18,0.16106874181235034,-1.6745576669421503e-18,-0.015493974924000946,2.568905965619943e-18,-0.015493974924000946,-2.0807165825954875e-18,0.16181224566749927,-1.596668928583817e-18,-0.16181224566749927,0.641997222731233,0.4191409452806627,0.6419972227312329,300.0,19.285714285714306,[0.43039139]
-2.6599746219541217e-18,0.16054009372735434,1.7670931212975384e-18,0.16054009372735434,-1.6736080635989394e-18,-0.014929334077547641,1.7670931212975384e-18,-0.014929334077547641,-2.86413934074446e-18,0.16123277182380374,-2.5182879267794973e-18,-0.16123277182380374,0.6429340957416277,0.4162589303135619,0.642934095741628,300.0,19.285714285714306,[0.43039139]
-3.1779154168654255e-18,0.15817255101708552,9.631479087535488e-19,0.15817255101708552,-1.6931427609449917e-18,-0.014750904892135083,9.631479087535488e-19,-0.014750904892135083,-3.659364311873339e-18,0.15885888420352626,-3.4856782787379494e-18,-0.15885888420352617,0.6428570702764232,0.41649678797228185,0.642857070276423,300.0,19.285714285714306,[0.43039139]
-3.7544603038148854e-18,0.15357806389873527,1.485069406965187e-19,0.15357806389873527,-1.765719587890394e-18,-0.015003269868344426,1.485069406965187e-19,-0.015003269868344426,-4.458998155667126e-18,0.15430916958374954,-4.422653511676352e-18,-0.15430916958374963,0.6415570612937471,0.42048671109591823,0.6415570612937473,300.0,19.285714285714306,[0.43039139]
-4.3757722055157156e-18,0.14579054034741182,-6.816541070011141e-19,0.14579054034741182,-1.8613582103137752e-18,-0.015835514600067976,-6.816541070011141e-19,-0.015835514600067976,-5.2765388053614606e-18,0.14664803161801826,-5.4389187943820734e-18,-0.1466480316180183,0.6383050199162859,0.4302713133586061,0.638305019916286,300.0,19.285714285714306,[0.4328764]
-5.090416550092129e-18,0.1325868430427582,-1.538018271950472e-18,0.1325868430427582,-2.047344807962648e-18,-0.017608628197894344,-1.538018271950472e-18,-0.017608628197894344,-6.109612252598316e-18,0.13375101769727463,-6.564171293490217e-18,-0.13375101769727468,0.6308705818769808,0.4516687036361929,0.6308705818769809,300.0,19.285714285714306,[0.40261877]
-6.0259115007753e-18,0.10819461906982858,-2.437402859787794e-18,0.10819461906982858,-2.39476397395737e-18,-0.021247230110317167,-2.437402859787794e-18,-0.021247230110317167,-6.985010877418285e-18,0.1102611462983497,-7.814714624069834e-18,-0.1102611462983498,0.6099138664609907,0.5059744568624083,0.6099138664609907,300.0,19.285714285714306,[0.38656889]
-7.507292716184266e-18,0.052902662897907037,-3.458633426600862e-18,0.052902662897907037,-3.257275124833763e-18,-0.029609300434867997,-3.458633426600862e-18,-0.029609300434867997,-7.989419899294474e-18,0.060625097228226024,-1.1793032060764265e-17,-0.06062509722822605,0.4683472371759018,0.7492007280157956,0.4683472371759023,300.0,19.285714285714306,[0.21019747]
-1.1510277780679484e-17,-0.1349478065321675,-4.899258005663268e-18,-0.1349478065321675,-7.911281109910265e-18,-0.04591527861265545,-4.899258005663268e-18,-0.04591527861265545,-9.856611387287973e-18,0.14254516230977837,-6.351903029849145e-18,-0.14254516230977854,0.7070803804165577,0.008641253378526092,0.7070803804165579,300.0,19.285714285714306,[0.1185249]
-1.2145698074908019e-17,-0.13802550717011347,-4.696543127691582e-18,-0.13802550717011347,-7.970427832430256e-18,-0.03966067341431641,-4.696543127691582e-18,-0.03966067341431641,-1.045947385260642e-17,0.14361061814936973,-7.463092726067623e-18,-0.14361061814936976,0.6971981712396614,0.16682152151369026,0.6971981712396615,300.0,6.428571428571418,[0.17674047]
-9.145494140843486e-18,0.0490381015157238,-3.420293191618723e-18,0.0490381015157238,-3.421827818450162e-18,-0.02199489285824082,-3.420293191618723e-18,-0.02199489285824082,-1.0066880698998953e-17,0.05374486684430359,-1.2507649628291569e-17,-0.05374486684430365,0.6087239893307408,0.5088322018372425,0.6087239893307409,300.0,6.428571428571418,[0.21461218]
-8.684800861765752e-18,0.10475452843551782,-2.531532291183572e-18,0.10475452843551782,-2.6702846011089827e-18,-0.014788303052875495,-2.531532291183572e-18,-0.014788303052875495,-1.0519027547987788e-17,0.10579321875683433,-1.1071451782710389e-17,-0.10579321875683437,0.6846949425666079,0.24977123783057864,0.6846949425666079,300.0,6.428571428571418,[0.27835795]
-8.79332695813271e-18,0.12906384006863292,-1.736027526212497e-18,0.12906384006863292,-2.4494339950022247e-18,-0.011251446880810879,-1.736027526212497e-18,-0.011251446880810879,-1.1091638363943946e-17,0.12955334758381723,-1.1361169583988225e-17,-0.12955334758381726,0.6931298643626668,0.19784332755284387,0.6931298643626668,300.0,6.428571428571418,[0.17660857]
-9.104796854705877e-18,0.14194957122052002,-9.716900995418073e-19,0.14194957122052002,-2.3704812598952633e-18,-0.009091673851727355,-9.716900995418073e-19,-0.009091673851727355,-1.1696128720707898e-17,0.14224042780839666,-1.1819447463086445e-17,-0.14224042780839663,0.6961634110338698,0.17525127752850997,0.6961634110338697,300.0,6.428571428571418,[0.17776257]
-9.522622325718662e-18,0.14928380046940928,-2.1996035297249777e-19,0.14928380046940928,-2.3794346628455373e-18,-0.007591256203262918,-2.1996035297249777e-19,-0.007591256203262918,-1.2309708138042583e-17,0.14947668799292413,-1.2322612160958154e-17,-0.14947668799292416,0.697733180807312,0.16228621876493968,0.6977331808073121,300.0,6.428571428571418,[0.17674047]
-1.0000137149733274e-17,0.15332417367176396,5.154735219392108e-19,0.15332417367176396,-2.4391240158473638e-18,-0.006460665548094858,5.154735219392108e-19,-0.006460665548094858,-1.2944721459409743e-17,0.15346023078131213,-1.2897648796192838e-17,-0.15346023078131213,0.6987045794542027,0.1537004271283973,0.6987045794542027,300.0,6.428571428571418,[0.17674047]
-1.0510752433139808e-17,0.15504261998832536,1.2484570810813842e-18,0.15504261998832536,-2.523503055772673e-18,-0.005562737978541042,1.2484570810813842e-18,-0.005562737978541042,-1.358095569936103e-17,0.15514237998258942,-1.3486810090034835e-17,-0.1551423799825894,0.6993700902081728,0.1475227231460457,0.6993700902081728,300.0,6.428571428571418,[0.17674047]
-1.1052840284492759e-17,0.15481448973978698,1.973835334876592e-18,0.15481448973978698,-2.6363701959943085e-18,-0.004826320068646152,1.973835334876592e-18,-0.004826320068646152,-1.4224786766058002e-17,0.15488970139681865,-1.4100736306224086e-17,-0.15488970139681865,0.699852501385012,0.14287390458121943,0.6998525013850121,300.0,6.428571428571418,[0.17674047]
-1.1651361705956528e-17,0.15263137431559803,2.7042329206287715e-18,0.15263137431559803,-2.771213870730253e-18,-0.0042143763817841535,2.7042329206287715e-18,-0.0042143763817841535,-1.48721449308869e-17,0.15268954579065178,-1.4720555765712562e-17,-0.15268954579065178,0.7002077530439375,0.13934922014249046,0.7002077530439376,300.0,6.428571428571418,[0.17674047]
-1.2263448889466167e-17,0.14809840871240512,3.428932886321686e-18,0.14809840871240512,-2.9402432658217888e-18,-0.0037121713423100495,3.428932886321686e-18,-0.0037121713423100495,-1.5525472031015984e-17,0.1481449252563895,-1.535198799456767e-17,-0.14814492525638953,0.7004561719891406,0.1368294640954161,0.7004561719891408,300.0,6.428571428571418,[0.17674047]
-1.2959101167178364e-17,0.14021395802816208,4.147748702727204e-18,0.14021395802816208,-3.1564815128329514e-18,-0.0033263307143903543,4.147748702727204e-18,-0.0033263307143903543,-1.6186124642649836e-17,0.1402534081651662,-1.5987597785855224e-17,-0.14025340816516624,0.7005853381818388,0.13550043486748548,0.7005853381818387,300.0,6.428571428571418,[0.1733172]
-1.3747000626802474e-17,0.12666343536516547,4.867955009742424e-18,0.12666343536516547,-3.4465175053736446e-18,-0.0030965207837371513,4.867955009742424e-18,-0.0030965207837371513,-1.686224222301598e-17,0.12670127978623408,-1.6622801437272516e-17,-0.1267012797862341,0.7005158655822916,0.13621690106218548,0.7005158655822917,300.0,6.428571428571418,[0.17000332]
-1.4754122801087836e-17,0.10143724018725485,5.577444364741407e-18,0.10143724018725485,-3.9036836863194516e-18,-0.0031375630270174437,5.577444364741407e-18,-0.0031375630270174437,-1.7570375001810376e-17,0.1014857526875341,-1.7223095021386222e-17,-0.1014857526875341,0.699877085669233,0.14263285003911946,0.699877085669233,300.0,6.428571428571418,[0.16328108]
-1.6354882722500455e-17,0.044100245942668204,6.269349100688432e-18,0.044100245942668204,-4.869837259226288e-18,-0.0037631843344133765,6.269349100688432e-18,-0.0037631843344133765,-1.837021233203485e-17,0.04426051568315259,-1.7295118604016907e-17,-0.04426051568315262,0.6933848870482827,0.1960479452227962,0.6933848870482828,300.0,6.428571428571418,[0.09500428]
-2.0558098434792708e-17,-0.14728927563834618,6.948518977514895e-18,-0.14728927563834618,-9.639287879313141e-18,-0.002992667241577953,6.948518977514895e-18,-0.002992667241577953,-1.994601125128307e-17,0.1473196754520167,-2.022855680728567e-17,-0.14731967545201669,0.7041239309400582,0.0917549985289119,0.7041239309400581,300.0,6.428571428571418,[0.17536248]
-2.0333449415313107e-17,-0.1473466885683405,7.763278645989827e-18,-0.1473466885683405,-9.664791511959376e-18,0.003975297296160289,7.763278645989827e-18,0.003975297296160289,-1.993570127212821e-17,0.14740030400459958,-1.9517237204053617e-17,-0.1474003040045996,0.7045402459565832,0.08512393115261031,0.7045402459565832,300.0,6.428571428571418,[0.17536248]
-1.5673338837315963e-17,0.04392813544288621,8.090383083320859e-18,0.04392813544288621,-4.935766862769215e-18,0.004768479792239706,8.090383083320859e-18,0.004768479792239706,-1.8346065275593202e-17,0.04418619108972344,-2.005791538692468e-17,-0.04418619108972342,0.6900130234194829,0.2185498913818262,0.6900130234194831,300.0,6.428571428571418,[0.14819109]
-1.3650412401035882e-17,0.1011506827869553,8.434020793145295e-18,0.1011506827869553,-4.0078687388317305e-18,0.004165508118085724,8.434020793145295e-18,0.004165508118085724,-1.7529135085190932e-17,0.10123641679825048,-1.8215892757235816e-17,-0.10123641679825049,0.6988079900667169,0.15275727818284207,0.6988079900667168,300.0,6.428571428571418,[0.16328108]
-1.220593005839168e-17,0.12626277672999955,8.792987814081563e-18,0.12626277672999955,-3.591128528782615e-18,0.004147205745071337,8.792987814081563e-18,0.004147205745071337,-1.6807707859591584e-17,0.12633086757820383,-1.737787644503126e-17,-0.12633086757820383,0.6996828859737051,0.14452583904276278,0.6996828859737052,300.0,6.428571428571418,[0.17000332]
-1.0967647298844698e-17,0.13969963806641586,9.162264814172692e-18,0.13969963806641586,-3.3344643108747613e-18,0.004399855962283288,9.162264814172692e-18,0.004399855962283288,-1.611395478856581e-17,0.1397689078743067,-1.668607030361156e-17,-0.13976890787430674,0.6998201430317328,0.14319055420693777,0.6998201430317328,300.0,6.428571428571418,[0.17674047]
-9.831379069882656e-18,0.1474709606781186,9.5309143977692e-18,0.1474709606781186,-3.1559388823511167e-18,0.0048086257353785015,9.5309143977692e-18,0.0048086257353785015,-1.5434038794826823e-17,0.14754933793409622,-1.6048495913644325e-17,-0.14754933793409628,0.6997072195367656,0.14429003380780156,0.6997072195367656,300.0,6.428571428571418,[0.17674047]
-8.769993847413814e-18,0.15189142377277745,9.9087886995569e-18,0.15189142377277745,-3.024622305747098e-18,0.005333831908436169,9.9087886995569e-18,0.005333831908436169,-1.4764432780242696e-17,0.15198504656231454,-1.5451351366388597e-17,-0.15198504656231457,0.6994493459556869,0.14676929135321098,0.699449345955687,300.0,6.428571428571418,[0.17674047]
-7.724887539400016e-18,0.15396275339861432,1.0281762369805528e-17,0.15396275339861432,-2.9302046019078452e-18,0.005968830405631224,1.0281762369805528e-17,0.005968830405631224,-1.409808254854958e-17,0.15407840981297058,-1.4882899234730276e-17,-0.1540784098129706,0.6990662091087836,0.1503757645518346,0.6990662091087836,300.0,6.428571428571418,[0.17674047]
-6.743811628242723e-18,0.1540799044255598,1.0661637621494993e-17,0.1540799044255598,-2.859662639269323e-18,0.006728338326791503,1.0661637621494993e-17,0.006728338326791503,-1.3444212817938663e-17,0.1542267404973256,-1.4358207568958713e-17,-0.15422674049732557,0.6985377246614276,0.15520984005426716,0.6985377246614276,300.0,6.428571428571418,[0.17674047]
-5.773588326722125e-18,0.15225137394295793,1.104493822810104e-17,0.15225137394295793,-2.8097406349405227e-18,0.007649373051459552,1.104493822810104e-17,0.007649373051459552,-1.2789800456845911e-17,0.15244341171595044,-1.3877431347243386e-17,-0.1524434117159505,0.6978028088936942,0.16168636244328255,0.6978028088936941,300.0,6.428571428571418,[0.17674047]
-4.8630543782033535e-18,0.14810189865793139,1.1436887008011329e-17,0.14810189865793139,-2.7945469814491487e-18,0.008803070787742553,1.1436887008011329e-17,0.008803070787742553,-1.2135930726234992e-17,0.14836329209537713,-1.3463963066376756e-17,-0.14836329209537713,0.6967250944972269,0.17072868943344227,0.6967250944972271,300.0,6.428571428571418,[0.17674047]
-4.006783477868061e-18,0.1406596349751349,1.1827513126122146e-17,0.1406596349751349,-2.8178800921680445e-18,0.010326579622052141,1.1827513126122146e-17,0.010326579622052141,-1.1504851475861136e-17,0.1410381904238308,-1.3204757168846178e-17,-0.1410381904238307,0.6949779003643718,0.18442189677545992,0.6949779003643717,300.0,6.428571428571418,[0.18613089]
-3.253612369081378e-18,0.1276670213000569,1.2244626394627523e-17,0.1276670213000569,-2.9236930361258278e-18,0.012509414733452578,1.2244626394627523e-17,0.012509414733452578,-1.0881911682714802e-17,0.12827842291127023,-1.3176084897756602e-17,-0.1282784229112702,0.6915910585756267,0.2083353436085386,0.6915910585756267,300.0,6.428571428571418,[0.2779605]
-2.7066408433919133e-18,0.10325206277045952,1.2689244245680902e-17,0.10325206277045952,-3.2026051037889083e-18,0.01606929701770142,1.2689244245680902e-17,0.01606929701770142,-1.0297498653778737e-17,0.10449502750369519,-1.39553093455994e-17,-0.10449502750369517,0.6821275871760295,0.26344621771210874,0.6821275871760297,300.0,6.428571428571418,[0.30746471]
-2.7348576284473222e-18,0.04743131130284134,1.323021292166507e-17,0.04743131130284134,-3.983992997631e-18,0.02329889239333591,1.323021292166507e-17,0.02329889239333591,-9.824867504100638e-18,0.05284475072004116,-1.788378987498403e-17,-0.05284475072004118,0.5957738912716223,0.5386157637482756,0.5957738912716223,300.0,6.428571428571418,[0.21188376]
-5.2895619369254954e-18,-0.13973519345851065,1.4156822298208195e-17,-0.13973519345851065,-8.568135308171273e-18,0.04098776786259905,1.4156822298208195e-17,0.04098776786259905,-1.0204708841384988e-17,0.14562253055501295,-2.3354020406343405e-18,-0.14562253055501306,0.6965368367496998,0.17225814959369648,0.6965368367496997,300.0,6.428571428571418,[0.17674047]
-4.482127779955334e-18,-0.13675889047455,1.4502410086326724e-17,-0.13675889047455,-8.505190172278438e-18,0.047283891024222265,1.4502410086326724e-17,0.047283891024222265,-9.344096897195018e-18,0.14470231675484846,7.443217271539979e-19,-0.14470231675484835,0.7071018916659952,0.003718817653725634,0.7071018916659955,300.0,19.28571428571425,[0.11386784]
-6.0557561772762135e-19,0.050993007170866904,1.3702877985748283e-17,0.050993007170866904,-3.801669155734512e-18,0.03104264129904271,1.3702877985748283e-17,0.03104264129904271,-6.96683275627682e-18,0.05969867971026759,-1.5000971311412755e-17,-0.05969867971026757,0.44865810025293706,0.7729241994884429,0.44865810025293706,300.0,19.28571428571425,[0.2126894]
7.531711087866832e-19,0.10618803444448992,1.3322968819653703e-17,0.10618803444448992,-2.895476251070419e-18,0.02274437304922402,1.3322968819653703e-17,0.02274437304922402,-5.461575799667123e-18,0.1085965246432244,-1.0688727822547292e-17,-0.10859652464322449,0.6037109227413372,0.5206402246519236,0.6037109227413373,300.0,19.28571428571425,[0.38656889]
1.5627757876841843e-18,0.13048512239996307,1.3063082733259955e-17,0.13048512239996307,-2.504782304149373e-18,0.019168965577124605,1.3063082733259955e-17,0.019168965577124605,-4.077325440506583e-18,0.1318856186588604,-7.846371345429834e-18,-0.1318856186588604,0.6263945558955285,0.4639609042676838,0.6263945558955286,300.0,19.28571428571425,[0.38895276]
2.1531577519204315e-18,0.14359555974899382,1.2847828003997119e-17,0.14359555974899382,-2.2855595894881193e-18,0.017458482817447572,1.2847828003997119e-17,0.017458482817447572,-2.7386560418201657e-18,0.14465297577967062,-5.721660797107287e-18,-0.14465297577967065,0.6343606434747603,0.4417840513424807,0.6343606434747603,300.0,19.28571428571425,[0.4328764]
2.6654009267724696e-18,0.15129176434954897,1.2657500362493567e-17,0.15129176434954897,-2.1281967497560313e-18,0.016688287604143707,1.2657500362493567e-17,0.016688287604143707,-1.421149231925305e-18,0.1522093850692461,-4.09398011972956e-18,-0.15220938506924617,0.6377969236572933,0.43177559952663475,0.6377969236572932,300.0,19.28571428571425,[0.4328764]
3.1081873999496555e-18,0.15579693098929112,1.2478567961108547e-17,0.15579693098929112,-2.0261822191710915e-18,0.01649735847609757,1.2478567961108547e-17,0.01649735847609757,-1.1069661829429638e-19,0.15666794995266514,-2.6839650966191605e-18,-0.15666794995266517,0.639123281912013,0.42783508626109157,0.6391232819120127,300.0,19.28571428571425,[0.4328764]
3.509733956507397e-18,0.15807720422012728,1.2306452355151574e-17,0.15807720422012728,-1.9480434297868823e-18,0.016736573873727227,1.2306452355151574e-17,0.016736573873727227,1.1937870600365295e-18,0.1589607354005465,-1.3718110542222805e-18,-0.15896073540054648,0.6391275269595301,0.4278224030660269,0.63912752695953,300.0,19.28571428571425,[0.4328764]
3.900427903428443e-18,0.15852068230449073,1.2153125329628132e-17,0.15852068230449073,-1.8992066864217515e-18,0.017361315273524754,1.2153125329628132e-17,0.017361315273524754,2.484162345839651e-18,0.15946856112195915,-9.459465767852809e-20,-0.15946856112195906,0.6380333917501715,0.4310763064975209,0.6380333917501713,300.0,19.28571428571425,[0.4328764]
4.2390293240933494e-18,0.15715105203338733,1.2004953293682121e-17,0.15715105203338733,-1.8796719890756992e-18,0.018401266846310865,1.2004953293682121e-17,0.018401266846310865,3.763685022006077e-18,0.1582247129141006,1.0304992637285835e-18,-0.15822471291410056,0.635736762300856,0.43780993378228616,0.6357367623008559,300.0,19.28571428571425,[0.4328764]
4.532049784284134e-18,0.15363514709815074,1.1867023408080741e-17,0.15363514709815074,-1.885098293894047e-18,0.019969893537976898,1.1867023408080741e-17,0.019969893537976898,5.041037176245163e-18,0.15492758008756397,2.014686596140426e-18,-0.1549275800875639,0.631755289239722,0.44918872318355285,0.6317552892397218,300.0,19.28571428571425,[0.4328764]
4.7946829374921705e-18,0.14709031052266275,1.1749103021497019e-17,0.14709031052266275,-1.949128690750552e-18,0.022320971734064363,1.1749103021497019e-17,0.022320971734064363,6.2934283283198506e-18,0.1487742760990833,2.709723430417405e-18,-0.14877427609908334,0.6248327848953026,0.4681538014797712,0.6248327848953027,300.0,19.28571428571425,[0.4328764]
4.9466194724059106e-18,0.13545314918516754,1.1669539827097994e-17,0.13545314918516754,-2.0750189625362223e-18,0.026015875013011742,1.1669539827097994e-17,0.026015875013011742,7.521943739193806e-18,0.13792889971602,3.3474072030008112e-18,-0.13792889971601996,0.6113960211936434,0.5023841264780999,0.6113960211936436,300.0,19.28571428571425,[0.42104961]
4.924914253132519e-18,0.11333683693011418,1.164651194602513e-17,0.11333683693011418,-2.372380466581685e-18,0.032462732559041224,1.164651194602513e-17,0.032462732559041224,8.694025579956944e-18,0.11789430694704109,2.1677342049620026e-18,-0.11789430694704103,0.5773184310361187,0.5774139402300467,0.577318431036119,300.0,19.28571428571425,[0.37835226]
4.401818468643785e-18,0.06229570897529236,1.1812489044656345e-17,0.06229570897529236,-3.1874114502975343e-18,0.046106531305162006,1.1812489044656345e-17,0.046106531305162006,9.681613056896255e-18,0.07750204891309777,-1.799435795740125e-19,-0.07750204891309778,0.3975373250352759,0.8269994863405873,0.39753732503527545,300.0,19.28571428571425,[0.29741168]
1.604015704303628e-18,-0.1137202191085686,1.2687582439830283e-17,-0.1137202191085686,-7.786747414329181e-18,0.07720094528671492,1.2687582439830283e-17,0.07720094528671492,9.570916438601958e-18,0.13744916946734595,1.3703554893023692e-17,-0.13744916946734584,0.683376789934493,0.25688971555446877,0.6833767899344927,300.0,19.28571428571425,[0.29331136]
1.601845182376289e-18,-0.10829400185952011,1.2031779588127828e-17,-0.10829400185952011,-7.757445368310103e-18,0.08156936411296542,1.2031779588127828e-17,0.08156936411296542,9.943160949140621e-18,0.13557710721409894,1.376533765490488e-17,-0.13557710721409885,0.7045801841629378,0.08446021649180047,0.7045801841629376,300.0,32.142857142857125,[0.16988452]
3.889575293791747e-18,0.06890357815666814,9.444720937170256e-18,0.06890357815666814,-3.0712885271848896e-18,0.0515022219219163,9.444720937170256e-18,0.0515022219219163,1.1284543500236213e-17,0.08602431020174692,-8.891479739823776e-19,-0.086024310201747,0.25433437878025555,0.9330745133915741,0.2543343787802556,300.0,32.142857142857125,[0.32923187]
3.937326776193208e-18,0.11894299432285514,7.591502184084002e-18,0.11894299432285514,-2.1792040150485012e-18,0.03714397501374202,7.591502184084002e-18,0.03714397501374202,1.1498339910079119e-17,0.12460782791746375,5.898388819267041e-18,-0.1246078279174636,0.45936425994269414,0.7602426937331277,0.45936425994269414,300.0,32.142857142857125,[0.37362276]
3.50105186879804e-18,0.1409716663658595,5.940515028696551e-18,0.1409716663658595,-1.8058742435461683e-18,0.0307113817529592,5.940515028696551e-18,0.0307113817529592,1.1507021997788475e-17,0.14427820239780922,8.875850498732352e-18,-0.14427820239780914,0.50492347029792,0.7000746947894999,0.5049234702979202,300.0,32.142857142857125,[0.41548149]
2.895476251070419e-18,0.15294472063785172,4.36230818668519e-18,0.15294472063785172,-1.5975041385216106e-18,0.027368369662788387,4.36230818668519e-18,0.027368369662788387,1.1449503166713988e-17,0.1553741137673504,9.862546042506119e-18,-0.1553741137673504,0.5230965538351342,0.6728595624137426,0.5230965538351343,300.0,32.142857142857125,[0.41548149]
2.2161028878132667e-18,0.16006941185007156,2.8244255723551766e-18,0.16006941185007156,-1.4672728228812618e-18,0.02556366509920951,2.8244255723551766e-18,0.02556366509920951,1.1351829679983726e-17,0.16209786421582598,1.0359845886794422e-17,-0.1620978642158259,0.5319029135467709,0.658907111147628,0.5319029135467709,300.0,32.142857142857125,[0.41548149]
1.4651023009539226e-18,0.16434706562102747,1.309163866236651e-18,0.16434706562102747,-1.3761109019330177e-18,0.024686443815230216,1.309163866236651e-18,0.024686443815230216,1.1237877278798421e-17,0.1661907894153127,1.0580169938858816e-17,-0.16619078941531273,0.5361998463541677,0.6519044788460455,0.5361998463541676,300.0,32.142857142857125,[0.41548149]
7.010785825305437e-19,0.16664993202303058,-1.9134507365699147e-19,0.16664993202303058,-1.3283594195315565e-18,0.02447467176862957,-1.9134507365699147e-19,0.02447467176862957,1.1111987007012751e-17,0.1684375534180631,1.0889862619823038e-17,-0.16843755341806307,0.5377062635548115,0.649418161332009,0.5377062635548115,300.0,32.142857142857125,[0.41548149]
-9.767348673026152e-20,0.16733417221689983,-1.6800518005707275e-18,0.16733417221689983,-1.2979721125488085e-18,0.024833260431914212,-1.6800518005707275e-18,0.024833260431914212,1.0970903081735706e-17,0.1691668289446673,1.1110026083476253e-17,-0.1691668289446674,0.5370124690904151,0.6505653050100596,0.5370124690904151,300.0,32.142857142857125,[0.41548149]
-9.354949506831713e-19,0.16643396529679083,-3.1514621808759797e-18,0.16643396529679083,-1.291460546766791e-18,0.025778708399273265,-3.1514621808759797e-18,0.025778708399273265,1.0813540242003618e-17,0.16841854592398112,1.134198735475496e-17,-0.16841854592398117,0.5340863104672113,0.6553652614710693,0.5340863104672116,300.0,32.142857142857125,[0.41548149]
-1.7906805900547943e-18,0.163672430867165,-4.607814565310316e-18,0.163672430867165,-1.3305299414588957e-18,0.027444361590593255,-4.607814565310316e-18,0.027444361590593255,1.0640983748780156e-17,0.1659573969700722,1.1905921167927417e-17,-0.16595739697007222,0.5282682107397245,0.6647295653449607,0.5282682107397245,300.0,32.142857142857125,[0.41548149]
-2.6936177118278785e-18,0.15829786506672427,-6.035237962181836e-18,0.15829786506672427,-1.3934750773517308e-18,0.030150384782115576,-6.035237962181836e-18,0.030150384782115576,1.0443466253392294e-17,0.16114359989522536,1.2074117802622365e-17,-0.16114359989522536,0.5177625300431682,0.6810608819823638,0.5177625300431681,300.0,32.142857142857125,[0.41548149]
-3.661670491421137e-18,0.14853976865676907,-7.42003095182421e-18,0.14853976865676907,-1.5432410903381318e-18,0.03461884472365112,-7.42003095182421e-18,0.03461884472365112,1.0196026753675632e-17,0.15252057986582254,1.2724976697792273e-17,-0.15252057986582235,0.4977076351566979,0.7103338791114037,0.49770763515669797,300.0,32.142857142857125,[0.41430233]
-4.783830327855475e-18,0.12974799708200735,-8.720784045592422e-18,0.12974799708200735,-1.8688193794390035e-18,0.0426694011129386,-8.720784045592422e-18,0.0426694011129386,9.858510593974395e-18,0.13658411524818476,1.403101319351656e-17,-0.1365841152481848,0.4512304890525842,0.7699234322312393,0.451230489052584,300.0,32.142857142857125,[0.38622118]
-6.318389330484251e-18,0.08579624385631653,-9.789460865160918e-18,0.08579624385631653,-2.6914471899005393e-18,0.060018994089267245,-9.789460865160918e-18,0.060018994089267245,9.247508671428426e-18,0.10470565940454224,8.470045745694395e-18,-0.10470565940454243,0.27495124693992623,0.9213053910687593,0.2749512469399264,300.0,32.142857142857125,[0.3483929]
-9.778201282662847e-18,-0.0743576987073753,-9.95482750450007e-18,-0.0743576987073753,-7.316829417060257e-18,0.09835454834938935,-9.95482750450007e-18,0.09835454834938935,7.167063404073856e-18,0.1232991668182279,-6.757122359881985e-18,-0.12329916681822782,0.6611650072108578,0.35457251230140974,0.6611650072108577,300.0,32.142857142857125,[0.31192898]
-9.459134559343992e-18,-0.06756126128220084,-9.93081610567888e-18,-0.06756126128220084,-7.347216724043005e-18,0.09992663191430043,-9.93081610567888e-18,0.09992663191430043,6.5484646547822e-18,0.12062278305435443,-1.901629425863425e-17,-0.1206227830543546,0.6942630942324906,0.18973010297118462,0.6942630942324906,300.0,45.0,[0.20220302]
-5.9949815633107174e-18,0.09412814820027213,-9.845114403954099e-18,0.09412814820027213,-2.7869501547034617e-18,0.06198783983402592,-9.845114403954099e-18,0.06198783983402592,8.000543824172087e-18,0.1127058142728282,9.695372584918549e-18,-0.11270581427282828,0.14258496144858973,0.9794585532514424,0.14258496144858981,300.0,45.0,[0.39191723]
-4.4191826440624984e-18,0.13689259180645758,-8.862953231833136e-18,0.13689259180645758,-2.0142443485707262e-18,0.044413027878170766,-8.862953231833136e-18,0.044413027878170766,7.948451297915948e-18,0.14391698557431157,1.231287326466947e-17,-0.1439169855743115,0.32129481992427844,0.8908082158240633,0.3212948199242785,300.0,45.0,[0.42474366]
-3.218884018243952e-18,0.15563684337760791,-7.63487870822567e-18,0.15563684337760791,-1.755952239217368e-18,0.03639740654411521,-7.63487870822567e-18,0.03639740654411521,7.596826745687006e-18,0.15983616055099564,1.0615391468824826e-17,-0.1598361605509956,0.37300519614098665,0.8495494378219837,0.3730051961409865,300.0,45.0,[0.4177153]
-2.1509872299930923e-18,0.1658755157068157,-6.314896146757439e-18,0.1658755157068157,-1.6713018840511415e-18,0.03208460811690874,-6.314896146757439e-18,0.03208460811690874,7.133420314200099e-18,0.16895001861206665,9.109460062584468e-18,-0.16895001861206668,0.39594818837253276,0.8285228205964028,0.39594818837253276,300.0,45.0,[0.42738223]
-1.1633997530537815e-18,0.1720348004479984,-4.9479760486104976e-18,0.1720348004479984,-1.6517671867050892e-18,0.029603963834937935,-4.9479760486104976e-18,0.029603963834937935,6.6211771393480614e-18,0.17456336167685063,7.815680834592088e-18,-0.1745633616768506,0.40796314657575905,0.8167815754973978,0.407963146575759,300.0,45.0,[0.45371678]
-1.9534697346052304e-19,0.17580776254256836,-3.562725214499075e-18,0.17580776254256836,-1.6864955375425156e-18,0.02821581633303378,-3.562725214499075e-18,0.02821581633303378,6.077461396549605e-18,0.17805757962401828,7.07425984720392e-18,-0.1780575796240183,0.41445005183487804,0.8102236167059892,0.4144500518348781,300.0,45.0,[0.44145823]
7.379774552953092e-19,0.1779330899777248,-2.155090873011968e-18,0.1779330899777248,-1.7494406734353506e-18,0.027597102792064336,-2.155090873011968e-18,0.027597102792064336,5.50661412965941e-18,0.18006050258603884,6.1158893625491945e-18,-0.18006050258603895,0.41745964558169846,0.8071275541211597,0.4174596455816984,300.0,45.0,[0.44145823]
1.6452556209230718e-18,0.1787162988713087,-7.299397412831314e-19,0.1787162988713087,-1.8362615505289163e-18,0.0276210792668341,-7.299397412831314e-19,0.0276210792668341,4.9162321654231626e-18,0.1808381583132377,5.1577095417067855e-18,-0.18083815831323774,0.41776365401475674,0.8068129019596038,0.4177636540147567,300.0,45.0,[0.4648008]
2.5481927426961558e-18,0.17819533024559248,7.065388017540062e-19,0.17819533024559248,-1.951299212677891e-18,0.028287768906333836,7.065388017540062e-19,0.028287768906333836,4.31282706962288e-18,0.18042664324049787,4.007376121452286e-18,-0.18042664324049779,0.4154252350065639,0.8092241643941944,0.4154252350065639,300.0,45.0,[0.44145823]
3.416401513631814e-18,0.17615267324008888,2.158210998282518e-18,0.17615267324008888,-2.098894703736953e-18,0.029723962696145797,2.158210998282518e-18,0.029723962696145797,3.67903466683985e-18,0.1786428790855975,3.2650568959637306e-18,-0.1786428790855974,0.4098364046007709,0.8149038243423739,0.4098364046007709,300.0,45.0,[0.44384406]
4.26290506529408e-18,0.17198344679040006,3.6464090091195336e-18,0.17198344679040006,-2.294241677197476e-18,0.03225277339571008,3.6464090091195336e-18,0.03225277339571008,3.004002347437376e-18,0.1749815629191298,1.6678608352559988e-18,-0.1749815629191299,0.399272560673345,0.8253259020451863,0.39927256067334493,300.0,45.0,[0.45371678]
5.039951915281494e-18,0.16425079663959252,5.171878951177576e-18,0.16425079663959252,-2.5568748304055124e-18,0.03661391640816117,5.171878951177576e-18,0.03661391640816117,2.268195414069406e-18,0.16828221258197368,6.021940057794629e-19,-0.1682822125819738,0.37923461509414375,0.8440155291395968,0.37923461509414386,300.0,45.0,[0.43563611]
5.7258368443206635e-18,0.149146897332302,6.794428877876374e-18,0.149146897332302,-2.9909792158733413e-18,0.04467814330186973,6.794428877876374e-18,0.04467814330186973,1.39564559927907e-18,0.15569500143792245,-1.6371490818868923e-18,-0.1556950014379224,0.33549167624397164,0.8802787458197661,0.33549167624397164,300.0,45.0,[0.43220461]
6.099166615822996e-18,0.11318702794633193,8.655770130987591e-18,0.11318702794633193,-3.9394972981205475e-18,0.062302001712706015,8.655770130987591e-18,0.062302001712706015,1.410839252770444e-19,0.12920078448962188,-1.772670800364013e-18,-0.12920078448962208,0.19692228044371193,0.9604390823626955,0.19692228044371207,300.0,45.0,[0.38407503]
4.996541476734711e-18,-0.029537267670135314,1.1420489393138384e-17,-0.029537267670135314,-8.682087709356578e-18,0.10029088639870853,1.1420489393138384e-17,0.10029088639870853,-2.9931497378006804e-18,0.10455004579652695,2.11490361455218e-17,-0.10455004579652696,0.6208899913899254,0.47853028867944875,0.6208899913899255,300.0,45.0,[0.3850178]
5.1571600993578076e-18,-0.022724295084105995,1.2023343379855553e-17,-0.022724295084105995,-8.725498147903361e-18,0.09876331227491056,1.2023343379855553e-17,0.09876331227491056,-3.8939163376464254e-18,0.10134389689853564,1.3284255345752841e-17,-0.10134389689853565,0.6678346534100227,0.32862402743778424,0.6678346534100228,300.0,57.8571428571429,[0.33733249]
6.016686782584109e-18,0.12157113092525168,1.0599650567546647e-17,0.12157113092525168,-4.078410701470253e-18,0.06047814229340207,1.0599650567546647e-17,0.06047814229340207,-1.9599813003872476e-18,0.13578345101559938,-1.0079476514217145e-17,-0.1357834510155993,0.07015393043341167,0.9950662551255007,0.07015393043341162,300.0,57.8571428571429,[0.42127304]
5.4263048183478615e-18,0.15637909061476363,1.0065507165591808e-17,0.15637909061476363,-3.2449302813720216e-18,0.04317879324158353,1.0065507165591808e-17,0.04317879324158353,-1.933935037259178e-18,0.16223078674314523,-6.522062801634511e-18,-0.16223078674314526,0.2032793041519372,0.9577865362422926,0.20327930415193726,300.0,57.8571428571429,[0.43607946]
4.5407318719934905e-18,0.17147091330187042,9.769951603618702e-18,0.17147091330187042,-2.9041583387797755e-18,0.03517888757879707,9.769951603618702e-18,0.03517888757879707,-2.3181174183982065e-18,0.17504236127251946,-5.606676581503576e-18,-0.1750423612725194,0.24819990075458365,0.9363725853157118,0.24819990075458365,300.0,57.8571428571429,[0.46223851]
3.57702013625491e-18,0.1797197419763267,9.569475076384585e-18,0.1797197419763267,-2.732687106519983e-18,0.030761622565298675,9.569475076384585e-18,0.030761622565298675,-2.8564068563783143e-18,0.18233338443326097,-5.820407714008142e-18,-0.182333384433261,0.26979951819447107,0.9243464934558158,0.2697995181944712,300.0,57.8571428571429,[0.64750792]
2.5481927426961558e-18,0.18470951918418083,9.405456534648742e-18,0.18470951918418083,-2.6350136197897216e-18,0.028107378157471462,9.405456534648742e-18,0.028107378157471462,-3.4663235179606143e-18,0.18683584020240435,-6.053970790922572e-18,-0.18683584020240435,0.28185059012801816,0.9171262125187437,0.2818505901280183,300.0,57.8571428571429,[0.86922327]
1.515024305282723e-18,0.1877997207314403,9.273927993012757e-18,0.1877997207314403,-2.598114747024956e-18,0.02649409849115042,9.273927993012757e-18,0.02649409849115042,-4.117480096162357e-18,0.1896593587505392,-6.667480133630651e-18,-0.18965935875053921,0.28887710430247227,0.9127431386866939,0.2888771043024724,300.0,57.8571428571429,[0.86813507]
4.471275170318638e-19,0.1895822603927948,9.151855211452807e-18,0.1895822603927948,-2.5850916154609212e-18,0.025601617010982857,9.151855211452807e-18,0.025601617010982857,-4.801194503274188e-18,0.1913031004694343,-7.175854636476122e-18,-0.19130310046943427,0.29269360675135786,0.910308137464322,0.29269360675135797,300.0,57.8571428571429,[0.86813507]
-6.164282273643171e-19,0.19030332787457116,9.046012592390548e-18,0.19030332787457116,-2.595944225097617e-18,0.025296578560361178,9.046012592390548e-18,0.025296578560361178,-5.510955173514088e-18,0.1919772733606691,-7.711467876733239e-18,-0.1919772733606691,0.2940300981666769,0.9094463165817918,0.2940300981666771,300.0,57.8571428571429,[0.86813507]
-1.7060302348885679e-18,0.1899971404434499,8.950397021164394e-18,0.1899971404434499,-2.624161010153026e-18,0.025562470159688155,8.950397021164394e-18,0.025562470159688155,-6.251103150736737e-18,0.1917090328006299,-8.566467353525159e-18,-0.1917090328006298,0.29301025171886264,0.9101043812526658,0.29301025171886275,300.0,57.8571428571429,[0.86813507]
-2.7956322424128183e-18,0.18849686572266072,8.870893441930609e-18,0.18849686572266072,-2.6957882337552176e-18,0.026494362441870076,8.870893441930609e-18,0.026494362441870076,-7.021638434942133e-18,0.19034972978301784,-9.384666963900429e-18,-0.1903497297830179,0.28920638220419004,0.9125345675560615,0.2892063822041901,300.0,57.8571428571429,[0.86813507]
-3.9243036446291735e-18,0.18533121402743274,8.820341901456867e-18,0.18533121402743274,-2.8129964178315314e-18,0.028354270221540984,8.820341901456867e-18,0.028354270221540984,-7.83992520154899e-18,0.18748766234789485,-1.0222022471549783e-17,-0.1874876623478949,0.2813297398780991,0.9174459956423822,0.2813297398780994,300.0,57.8571428571429,[0.86922327]
-5.083362353828277e-18,0.17937161882416655,8.805201239223485e-18,0.17937161882416655,-2.9953202597280196e-18,0.031753001943582666,8.805201239223485e-18,0.031753001943582666,-8.745032845249414e-18,0.18216045337018474,-1.16007151270656e-17,-0.1821604533701848,0.26607823039160833,0.9265013494989309,0.2660782303916084,300.0,57.8571428571429,[0.64716326]
-6.311877764702233e-18,0.16759134934091796,8.859663534537012e-18,0.16759134934091796,-3.355626899666318e-18,0.03824183341036983,8.859663534537012e-18,0.03824183341036983,-9.82161172120963e-18,0.17189909306478646,-1.3148047946394376e-17,-0.17189909306478648,0.23357965423533622,0.9438649745883156,0.23357965423533633,300.0,57.8571428571429,[0.46303405]
-7.722717017472677e-18,0.1389462648397756,9.12261039599236e-18,0.1389462648397756,-4.228176714456654e-18,0.05265691919559574,9.12261039599236e-18,0.05265691919559574,-1.1382216986966474e-17,0.14858941971788084,-1.525870319102379e-17,-0.1485894197178808,0.1396134805918104,0.9803143128987154,0.13961348059181045,300.0,57.8571428571429,[0.4286583]
-1.0279591847878189e-17,0.011770795340911827,1.0115022197059233e-17,0.011770795340911827,-8.896969380163154e-18,0.08278194298170766,1.0115022197059233e-17,0.08278194298170766,-1.519582401330135e-17,0.08361460223420504,-1.7192594913563546e-17,-0.08361460223420507,0.5398023260213793,0.6459310316464265,0.5398023260213796,300.0,57.8571428571429,[0.36174853]
-1.0197112014639301e-17,0.017249213022912897,9.558987046602872e-18,0.017249213022912897,-8.838365288124997e-18,0.07846534061749708,9.558987046602872e-18,0.07846534061749708,-1.5033034868750916e-17,0.08033893843043774,-6.7058163242869185e-18,-0.08033893843043775,0.6017182669238617,0.5252335237780318,0.6017182669238618,300.0,70.71428571428567,[0.38103341]
-7.939769210206591e-18,0.1457180970529919,7.842723139970951e-18,0.1457180970529919,-4.0436823506328264e-18,0.04742560696691161,7.842723139970951e-18,0.04742560696691161,-1.0411993685445877e-17,0.1532414826505054,-1.402837917032999e-17,-0.1532414826505052,0.015519821874352451,0.9997591061140562,0.015519821874352451,300.0,70.71428571428567,[0.46764377]
-6.7937336325715234e-18,0.17347252645050568,6.8348887631781805e-18,0.17347252645050568,-3.04524226405682e-18,0.0338361011364504,6.8348887631781805e-18,0.0338361011364504,-8.063488960064922e-18,0.17674161698150626,-1.054238226254489e-17,-0.1767416169815063,0.101448176600477,0.9896547554217464,0.101448176600477,300.0,70.71428571428567,[0.47272904]
-5.821339809123586e-18,0.1852762541358553,6.0147027898849004e-18,0.1852762541358553,-2.5568748304055124e-18,0.027443475316743952,6.0147027898849004e-18,0.027443475316743952,-6.227227409536007e-18,0.18729771670811896,-7.93064962826877e-18,-0.18729771670811893,0.13322850200398476,0.9820897782318826,0.13322850200398478,300.0,70.71428571428567,[1.00187937]
-4.892356424222432e-18,0.19168309735968564,5.257682396117702e-18,0.19168309735968564,-2.2443196728686755e-18,0.023802763222611493,5.257682396117702e-18,0.023802763222611493,-4.575460222830917e-18,0.19315532959365755,-5.936748129213374e-18,-0.1931553295936574,0.1495147552895804,0.9773897256987071,0.1495147552895804,300.0,70.71428571428567,[0.96500928]
-4.019806609432096e-18,0.1955403065026788,4.529896219559352e-18,0.1955403065026788,-1.996880173152013e-18,0.021505784803536928,4.529896219559352e-18,0.021505784803536928,-3.004002347437376e-18,0.19671936927302702,-3.993288816488746e-18,-0.19671936927302708,0.159178317228903,0.9743328623465133,0.15917831722890308,300.0,70.71428571428567,[0.96500928]
-3.1559388823511167e-18,0.19791443749793608,3.830869458538246e-18,0.19791443749793608,-1.8102152874008466e-18,0.019991096071600822,3.830869458538246e-18,0.019991096071600822,-1.4976601298640098e-18,0.19892151339729058,-2.309919423282228e-18,-0.19892151339729047,0.16528560107878093,0.9722969403181582,0.16528560107878096,300.0,70.71428571428567,[0.96389898]
-2.2877301114154584e-18,0.1992664162057729,3.136946815486899e-18,0.1992664162057729,-1.6517671867050892e-18,0.019004843021393266,3.136946815486899e-18,0.019004843021393266,-2.6046263128069738e-20,0.20017064891177247,-6.230101332994484e-19,-0.20017064891177241,0.16911998784772178,0.9709772702904909,0.16911998784772178,300.0,70.71428571428567,[0.97221423]
-1.4325444720438354e-18,0.19978610513212852,2.460422262259379e-18,0.19978610513212852,-1.5063422175733664e-18,0.018433480014844544,2.460422262259379e-18,0.018433480014844544,1.4130097746977831e-18,0.2006346953777526,9.36804400823664e-19,-0.2006346953777527,0.17123444093612986,0.970235812817988,0.17123444093612988,300.0,70.71428571428567,[0.97221423]
-5.903819642362473e-19,0.1994971826377148,1.785525600477364e-18,0.1994971826377148,-1.3978161212064091e-18,0.018247241043403455,1.785525600477364e-18,0.018247241043403455,2.8260195493955663e-18,0.20032994705256083,2.4666466337006352e-18,-0.2003299470525608,0.17177858572684473,0.9700434191165723,0.1717785857268447,300.0,70.71428571428567,[0.97535021]
2.430984558619842e-19,0.1982647024943516,1.115834799880451e-18,0.1982647024943516,-1.3109952441128433e-18,0.01849066300599349,1.115834799880451e-18,0.01849066300599349,4.1956188855465665e-18,0.19912507846470517,3.963773774115051e-18,-0.19912507846470515,0.17055657906753288,0.9704745780666079,0.17055657906753283,300.0,70.71428571428567,[0.97221423]
1.0635557443961809e-18,0.19571121534706143,4.706132425737756e-19,0.19571121534706143,-1.2827784590574345e-18,0.0193127876770043,4.706132425737756e-19,0.0193127876770043,5.5022730858047316e-18,0.19666180000315497,5.372671263809045e-18,-0.19666180000315492,0.16687041724549118,0.9717553847016396,0.1668704172454912,300.0,70.71428571428567,[0.97221423]
1.8557962478749686e-18,0.190929968634196,-1.5749849735254668e-19,0.190929968634196,-1.3283594195315565e-18,0.02107456177984095,-1.5749849735254668e-19,0.02107456177984095,6.717765365114653e-18,0.19208953661474493,6.651458030421741e-18,-0.19208953661474493,0.15890796638551188,0.9744211186332336,0.1589079663855119,300.0,70.71428571428567,[0.96500928]
2.6176494443710084e-18,0.18145934429311344,-7.380961557132105e-19,0.18145934429311344,-1.5367295245561144e-18,0.0247005621111056,-7.380961557132105e-19,0.0247005621111056,7.727058061327355e-18,0.18313276986899776,7.886489119897026e-18,-0.18313276986899774,0.14138745213798037,0.9798056831616464,0.14138745213798037,300.0,70.71428571428567,[0.98257423]
3.2492713252267e-18,0.15801134171865341,-1.1964323836354741e-18,0.15801134171865341,-2.2573428044327104e-18,0.03304871784183872,-1.1964323836354741e-18,0.03304871784183872,8.187208709923254e-18,0.16143048616267777,8.533027613398395e-18,-0.1614304861626778,0.09195778762742818,0.9915077057639732,0.09195778762742818,300.0,70.71428571428567,[0.45693233]
3.0213665228560893e-18,0.041432012739057646,-1.2406567679050092e-18,0.041432012739057646,-6.772028413298132e-18,0.04933937233286639,-1.2406567679050092e-18,0.04933937233286639,6.127383400878405e-18,0.06442814091536908,6.273072986696139e-18,-0.06442814091536903,0.36093322048753074,0.8599153567049485,0.3609332204875306,300.0,70.71428571428567,[0.24078113]
3.6855462326218676e-18,0.044496659684533216,-2.0267757212605983e-18,0.044496659684533216,-6.7199358870419925e-18,0.043084829486731605,-2.0267757212605983e-18,0.043084829486731605,6.231568453390685e-18,0.06193751088784489,6.80658217117147e-18,-0.061937510887844875,0.43190589407302193,0.7917793867801605,0.43190589407302193,300.0,83.57142857142856,[0.27430041]
4.994370954807372e-18,0.16184826943671263,-2.9830771594816222e-18,0.16184826943671263,-2.1097473133736486e-18,0.025434456201612284,-2.9830771594816222e-18,0.025434456201612284,8.760226498740788e-18,0.1638345930563215,9.683377744866864e-18,-0.1638345930563215,0.03087338113511105,0.999046379641392,0.030873381135111063,300.0,83.57142857142856,[0.47515417]
5.461033169185288e-18,0.18485569761456447,-3.557688925339546e-18,0.18485569761456447,-1.2892900248394519e-18,0.018241724672827676,-3.557688925339546e-18,0.018241724672827676,8.762397020668127e-18,0.18575357186231048,9.453790312685191e-18,-0.18575357186231042,0.009784139945462286,0.9999042660230305,0.00978413994546223,300.0,83.57142857142856,[1.03053087]
5.7996345898501944e-18,0.194392784361248,-4.035475064595075e-18,0.194392784361248,-9.76734867302615e-19,0.014717171951023953,-4.035475064595075e-18,0.014717171951023953,8.198061319559949e-18,0.194949095309403,8.79787024642185e-18,-0.194949095309403,0.025899389710383327,0.9993289964897744,0.025899389710383264,300.0,83.57142857142856,[1.04454068]
6.103507659677675e-18,0.1994755253697437,-4.485061375997753e-18,0.1994755253697437,-8.356509420255708e-19,0.0125680968084989,-4.485061375997753e-18,0.0125680968084989,7.425355513427214e-18,0.1998710641361652,7.983849459184292e-18,-0.19987106413616518,0.03483014422117527,0.9987861243064327,0.03483014422117523,300.0,83.57142857142856,[1.03634384]
6.392187076013782e-18,0.2024659412396832,-4.917249597576603e-18,0.2024659412396832,-7.618531964960398e-19,0.011076712644963885,-4.917249597576603e-18,0.011076712644963885,6.546294132854861e-18,0.2027687128851243,7.080498947375812e-18,-0.20276871288512432,0.04066815123257931,0.998344731518451,0.040668151232579275,300.0,83.57142857142856,[1.03634384]
6.665672838858514e-18,0.2042363531150083,-5.343570627070614e-18,0.2042363531150083,-7.488300649320049e-19,0.00995343183515939,-5.343570627070614e-18,0.00995343183515939,5.612969704099028e-18,0.20447874886896072,6.1353098711147295e-18,-0.20447874886896072,0.044873508580247204,0.9979843367785874,0.044873508580247176,300.0,83.57142857142856,[1.02458893]
6.945670167485263e-18,0.20515843291577404,-5.7577842139386865e-18,0.20515843291577404,-7.596826745687006e-19,0.009061031783046607,-5.7577842139386865e-18,0.009061031783046607,4.634064314869074e-18,0.20535843029549458,5.147943912456283e-18,-0.2053584302954946,0.04809023473727318,0.9976846488975502,0.048090234737273155,300.0,83.57142857142856,[1.07998136]
7.2083033206933e-18,0.20537987923152115,-6.1736256922522634e-18,0.20537987923152115,-8.09604678897501e-19,0.008328299682698163,-6.1736256922522634e-18,0.008328299682698163,3.622601096729032e-18,0.20554866909994593,4.130331048405957e-18,-0.20554866909994585,0.05063583852344033,0.997432716384447,0.05063583852344028,300.0,83.57142857142856,[1.07998136]
7.468765951973997e-18,0.20490911460758113,-6.578987619385407e-18,0.20490911460758113,-8.616972051536405e-19,0.007718136617989788,-6.578987619385407e-18,0.007718136617989788,2.5742390058242255e-18,0.20505441931866963,3.0758110298422678e-18,-0.2050544193186696,0.052666974909128375,0.9972223320342573,0.052666974909128306,300.0,83.57142857142856,[1.07998136]
7.722717017472677e-18,0.20361798389061753,-6.991675058023318e-18,0.20361798389061753,-9.550296480292236e-19,0.007215731882367873,-6.991675058023318e-18,0.007215731882367873,1.4889780421546532e-18,0.20374579787146047,1.9914029516057656e-18,-0.20374579787146047,0.05423619138681146,0.9970540963697541,0.054236191386811405,300.0,83.57142857142856,[1.02458893]
7.972327039116678e-18,0.2011645529592034,-7.398614004994293e-18,0.2011645529592034,-1.1004546171609463e-18,0.006827606811492393,-7.398614004994293e-18,0.006827606811492393,3.3426037681022827e-19,0.20128038548762894,8.43157999763861e-19,-0.201280385487629,0.0552904153264886,0.9969382829172774,0.055290415326488526,300.0,83.57142857142856,[1.03634384]
8.19589079763261e-18,0.19673348254983622,-7.798549627309088e-18,0.19673348254983622,-1.3131657660401825e-18,0.006593247150250942,-7.798549627309088e-18,0.006593247150250942,-9.137897314097799e-19,0.19684393326737545,-3.8128179346741657e-19,-0.19684393326737543,0.05559094289245636,0.9969048571135841,0.05559094289245631,300.0,83.57142857142856,[1.03634384]
8.402090380729829e-18,0.1881003405811967,-8.190939294485868e-18,0.1881003405811967,-1.6951776252518721e-18,0.006627066879306796,-8.190939294485868e-18,0.006627066879306796,-2.3832330762183808e-18,0.18821704530192002,-1.791996180657451e-18,-0.18821704530192,0.05438127529795024,0.9970382910369777,0.05438127529795017,300.0,83.57142857142856,[1.03634384]
8.514957520951464e-18,0.16670088801181535,-8.575342119258142e-18,0.16670088801181535,-2.5894326593155995e-18,0.007241506710211599,-8.575342119258142e-18,0.007241506710211599,-4.443058385263229e-18,0.16685809984343533,-3.675430536400552e-18,-0.16685809984343536,0.04860134231306734,0.9976351131805337,0.048601342313067265,300.0,83.57142857142856,[0.47515417]
7.861630420822382e-18,0.053663538237416666,-8.930324197593436e-18,0.053663538237416666,-7.28210106622283e-18,0.006450732519643123,-8.930324197593436e-18,0.006450732519643123,-9.111851050969729e-18,0.05404985926159902,-6.781995176493865e-18,-0.05404985926159903,0.005256044004199245,0.9999723736198176,0.005256044004199507,300.0,83.57142857142856,[0.25811529]
