stress_11,stress_12,stress_13,stress_21,stress_22,stress_23,stress_31,stress_32,stress_33,e1,e2,e3,anev1,anev2,anev3,temp,miss,velo
6.867531378101054e-18,0.04310313542641168,-1.535037195740892e-17,0.04310313542641168,-4.219494626747297e-18,-0.043769850213241215,-1.535037195740892e-17,-0.043769850213241215,2.3593573350176502e-18,0.06143028627051288,-5.287296979836755e-18,-0.061430286270512814,0.3116822941025716,0.8976125528789778,0.31168229410257187,700.0,109.28571428571416,[0.20510359]
7.792173719147529e-18,0.15977777185592112,-1.4424983499449923e-17,0.15977777185592112,3.0387306982748025e-19,-0.0275052840477327,-1.4424983499449923e-17,-0.0275052840477327,6.044903567639518e-18,0.1621279649838029,1.3504164839863907e-18,-0.16212796498380289,0.11692714773212413,0.9862332808450848,0.1169271477321243,700.0,109.28571428571416,[0.36234007]
7.831243113839634e-18,0.1833180054548999,-1.3907119011950128e-17,0.1833180054548999,1.0396800031954503e-18,-0.019193104714060952,-1.3907119011950128e-17,-0.019193104714060952,7.219155930329995e-18,0.18432001083042415,4.4002088853017615e-18,-0.18432001083042399,0.16277437281977702,0.9731438779061689,0.1627743728197771,700.0,109.28571428571416,[0.7481303]
7.742251714818729e-18,0.19287933169640387,-1.3514720866172071e-17,0.19287933169640387,1.2567321959293647e-18,-0.01560833921604667,-1.3514720866172071e-17,-0.01560833921604667,7.831243113839634e-18,0.19350983656841472,5.655281949616346e-18,-0.19350983656841467,0.17894758328493246,0.9674479442703697,0.17894758328493252,700.0,109.28571428571416,[0.76073003]
7.625043530742415e-18,0.1977501056632155,-1.31679969454822e-17,0.1977501056632155,1.3153362879675216e-18,-0.01389183788850855,-1.31679969454822e-17,-0.01389183788850855,8.243642280034071e-18,0.19823745218735414,6.391920470708985e-18,-0.1982374521873541,0.18619735255520262,0.9647077753407334,0.18619735255520273,700.0,109.28571428571416,[0.74457362]
7.490471171247388e-18,0.20039202738925663,-1.2840680543119201e-17,0.20039202738925663,1.2892900248394519e-18,-0.013118582995256076,-1.2840680543119201e-17,-0.013118582995256076,8.562709003352926e-18,0.20082096967443416,6.885109959768835e-18,-0.20082096967443414,0.18944426304757267,0.9634426513273762,0.18944426304757273,700.0,109.28571428571416,[0.74205116]
7.353728289825022e-18,0.2017118622260935,-1.2531364211270816e-17,0.2017118622260935,1.2241743670192776e-18,-0.012927386055865145,-1.2531364211270816e-17,-0.012927386055865145,8.817745329815275e-18,0.20212568533700978,7.214196626420105e-18,-0.2021256853370097,0.1903777247269807,0.9630745785532685,0.19037772472698078,700.0,109.28571428571416,[0.73708806]
7.169233926001195e-18,0.2020870503894133,-1.223120476880339e-17,0.2020870503894133,1.124330358361677e-18,-0.01316902865785996,-1.223120476880339e-17,-0.01316902865785996,9.039138566403868e-18,0.20251567655587752,7.44265258115241e-18,-0.20251567655587754,0.1896474016909798,0.9633627178086771,0.18964740169097988,700.0,109.28571428571416,[0.74205116]
7.006444781450759e-18,0.20165252202015857,-1.1942385455546186e-17,0.20165252202015857,9.91928520793989e-19,-0.013798821094675784,-1.1942385455546186e-17,-0.013798821094675784,9.225803452155034e-18,0.20212408837319065,7.591746369667394e-18,-0.2021240883731907,0.18743313208084922,0.9642290402164446,0.18743313208084936,700.0,109.28571428571416,[0.74457362]
6.8393145930456455e-18,0.20038458194525482,-1.1660433809324704e-17,0.20038458194525482,8.421625078075882e-19,-0.014846385264374937,-1.1660433809324704e-17,-0.014846385264374937,9.380995769959783e-18,0.20093380959110094,7.669370680811918e-18,-0.20093380959110096,0.18359011442515608,0.9657066530632976,0.18359011442515616,700.0,109.28571428571416,[0.74784864]
6.6439676195851224e-18,0.19809335396695188,-1.1390704066846422e-17,0.19809335396695188,6.598386659111e-19,-0.016425125597423658,-1.1390704066846422e-17,-0.016425125597423658,9.494948171145088e-18,0.19877314113523298,7.606229035823875e-18,-0.19877314113523298,0.17759275126787355,0.9679471211766758,0.1775927512678736,700.0,109.28571428571416,[0.76073003]
6.437768036487904e-18,0.19431790613992636,-1.1139146086558646e-17,0.19431790613992636,4.254222977584724e-19,-0.01878875652409797,-1.1139146086558646e-17,-0.01878875652409797,9.554637524146915e-18,0.19522414302111057,7.348899209134075e-18,-0.19522414302111074,0.1682240284661233,0.9712885011639217,0.16822402846612342,700.0,109.28571428571416,[0.75154861]
6.203351668335276e-18,0.18799169352011372,-1.0920925966498595e-17,0.18799169352011372,1.2589027178567039e-19,-0.022498587117880654,-1.0920925966498595e-17,-0.022498587117880654,9.534017565837193e-18,0.1893332069523496,6.881851973827356e-18,-0.18933320695234973,0.152577109002061,0.9764427538863434,0.1525771090020611,700.0,109.28571428571416,[0.75178836]
5.901649120435134e-18,0.1762675227704148,-1.0774569411051378e-17,0.1762675227704148,-3.494540303016023e-19,-0.028962680554362328,-1.0774569411051378e-17,-0.028962680554362328,9.325647460812635e-18,0.17863111836550963,6.0187022487337036e-18,-0.1786311183655097,0.12223802137366514,0.9849445325810501,0.12223802137366521,700.0,109.28571428571416,[0.36967024]
5.43064586220254e-18,0.14859180394212707,-1.0800331641036613e-17,0.14859180394212707,-1.3261888976042174e-18,-0.04262596403658724,-1.0800331641036613e-17,-0.04262596403658724,8.606119441899708e-18,0.1545849184391026,3.536532069541535e-18,-0.15458491843910244,0.04044910326951142,0.9983625293896926,0.04044910326951147,700.0,109.28571428571416,[0.36564093]
3.861358508736338e-18,0.020201743787368737,-1.1544060767474339e-17,0.020201743787368737,-6.106763442568683e-18,-0.0737420950298838,-1.1544060767474339e-17,-0.0737420950298838,5.6118844431353584e-18,0.07645918539617655,-8.140478028212445e-18,-0.07645918539617658,0.5820026281865409,0.5679312296114012,0.582002628186541,700.0,109.28571428571416,[0.27680197]
6.926135470139211e-18,0.04608622770965929,-1.4644104470895833e-17,0.04608622770965929,-4.295462894204167e-18,-0.03743423857880643,-1.4644104470895833e-17,-0.03743423857880643,1.740758585725994e-18,0.05937392190584664,-7.203382780945436e-18,-0.059373921905846554,0.38156281440127376,0.8419142695858993,0.38156281440127393,700.0,96.42857142857144,[0.19608504]
7.733569627109372e-18,0.1633368084447029,-1.2849015008176132e-17,0.1633368084447029,9.116192094824407e-20,-0.019742414550620962,-1.2849015008176132e-17,-0.019742414550620962,4.461507821645612e-18,0.16452560872153044,1.4781698867990536e-18,-0.16452560872153044,0.005717683198733609,0.9999673075644414,0.005717683198733512,700.0,96.42857142857144,[0.35282767]
7.66194240350718e-18,0.18624459895041015,-1.1444432963149344e-17,0.18624459895041015,6.685207536204565e-19,-0.012505284834248995,-1.1444432963149344e-17,-0.012505284834248995,4.651428490287787e-18,0.18666395685023074,3.131188848915987e-18,-0.18666395685023074,0.03191923084442763,0.9989806431581146,0.031919230844427694,700.0,96.42857142857144,[0.75080532]
7.475277517756014e-18,0.19568182480721663,-1.0134506022797613e-17,0.19568182480721663,7.553416307140223e-19,-0.008938284176975493,-1.0134506022797613e-17,-0.008938284176975493,4.2694166310760975e-18,0.1958858583050615,3.350889386501271e-18,-0.19588585830506144,0.04702592664119799,0.9977861115725519,0.04702592664119805,700.0,96.42857142857144,[0.75080532]
7.271248456586134e-18,0.2006641278844449,-8.858290001129868e-18,0.2006641278844449,6.576681439837608e-19,-0.006750002394049448,-8.858290001129868e-18,-0.006750002394049448,3.676864144912511e-18,0.200777625127763,3.0869467131163878e-18,-0.20077762512776304,0.05550312989165261,0.996914642857883,0.055503129891652674,700.0,96.42857142857144,[0.75080532]
7.047684698070203e-18,0.20355346680932415,-7.587788556723946e-18,0.20355346680932415,4.8402638979662925e-19,-0.005223105693549899,-7.587788556723946e-18,-0.005223105693549899,2.9931497378006804e-18,0.20362046725017763,2.6079281615254938e-18,-0.2036204672501776,0.0611207133623287,0.9962572543254881,0.061120713362328764,700.0,96.42857142857144,[0.74269478]
6.8110978079902366e-18,0.20522217859737055,-6.3381444714635484e-18,0.20522217859737055,2.7565628477207137e-19,-0.004068232139627075,-6.3381444714635484e-18,-0.004068232139627075,2.2443196728686755e-18,0.20526249803847005,1.9947702156560186e-18,-0.20526249803847013,0.06522879653591182,0.9957361137394551,0.06522879653591188,700.0,96.42857142857144,[0.77910246]
6.572340395982931e-18,0.2060419792555705,-5.085939848616992e-18,0.2060419792555705,2.1705219273391446e-20,-0.003148299066099768,-5.085939848616992e-18,-0.003148299066099768,1.4477381255352095e-18,0.20606603068570653,1.29359363103989e-18,-0.20606603068570647,0.06842627455514161,0.9953068320377435,0.06842627455514162,700.0,96.42857142857144,[0.78097542]
6.307536720847555e-18,0.20616062417847372,-3.8422477414542194e-18,0.20616062417847372,-2.430984558619842e-19,-0.0023921916765543634,-3.8422477414542194e-18,-0.0023921916765543634,6.294513589283519e-19,0.20617450264927348,5.41079961928803e-19,-0.2061745026492735,0.071012713629391,0.9949444150333123,0.07101271362939103,700.0,96.42857142857144,[0.78097542]
6.047074089566857e-18,0.20558659949170374,-2.599674809660231e-18,0.20558659949170374,-5.426304818347862e-19,-0.001762883688673843,-2.599674809660231e-18,-0.001762883688673843,-2.3007532429794933e-19,0.2055941576248264,-2.742035627246087e-19,-0.20559415762482644,0.07314290943924458,0.9946357270868191,0.07314290943924459,700.0,96.42857142857144,[0.77562446]
5.797464067922855e-18,0.20419181774346493,-1.3589841273501073e-18,0.20419181774346493,-8.747203367176753e-19,-0.0012456188210384707,-1.3589841273501073e-18,-0.0012456188210384707,-1.1308419241436943e-18,0.2041956169941651,-1.1471627052248856e-18,-0.20419561699416505,0.07488304939394942,0.9943767182647264,0.07488304939394944,700.0,96.42857142857144,[0.73489553]
5.528319348932801e-18,0.20163441528826131,-1.2551721332940897e-19,0.20163441528826131,-1.2415385424379907e-18,-0.0008469580671331299,-1.2551721332940897e-19,-0.0008469580671331299,-2.101065225664292e-18,0.20163619408877598,-2.101982917139731e-18,-0.20163619408877595,0.07621866730238162,0.994173742114173,0.07621866730238162,700.0,96.42857142857144,[0.74300607]
5.248322020306052e-18,0.19709912534936072,1.1054909063204754e-18,0.19709912534936072,-1.6995186691065504e-18,-0.000606413856498401,1.1054909063204754e-18,-0.000606413856498401,-3.1646209700604732e-18,0.19710005822233628,-3.1577380601343007e-18,-0.19710005822233628,0.07700860346917987,0.9940519855538007,0.07700860346917986,700.0,96.42857142857144,[0.74300607]
4.920573209277841e-18,0.188361589858684,2.33388761677653e-18,0.188361589858684,-2.313776374543528e-18,-0.0006384148862483953,2.33388761677653e-18,-0.0006384148862483953,-4.443058385263229e-18,0.1883626717469735,-4.427131456579482e-18,-0.18836267174697344,0.07678886799675044,0.9940859819470121,0.07678886799675042,700.0,96.42857142857144,[0.74300607]
4.514685608865421e-18,0.1668576449768732,3.5470906737412104e-18,0.1668576449768732,-3.4381067329052055e-18,-0.0012554052197339396,3.5470906737412104e-18,-0.0012554052197339396,-6.3162188085569116e-18,0.16686236762521975,-6.262217500466855e-18,-0.16686236762521972,0.07388206401271834,0.9945264608015422,0.0738820640127183,700.0,96.42857142857144,[0.34806684]
3.338262724247605e-18,0.05371578022993589,4.735604043782408e-18,0.05371578022993589,-8.371703073747081e-18,-0.0004715431109469322,4.735604043782408e-18,-0.0004715431109469322,-1.0794005544657566e-17,0.053717849906862916,-1.0709774988959032e-17,-0.053717849906862916,0.0729997324925911,0.9946567639703763,0.07299973249259097,700.0,96.42857142857144,[0.20235669]
3.0235370447834285e-18,0.014788545160430674,-1.0794293817101041e-17,0.014788545160430674,-6.2326537143543545e-18,-0.07812051045406923,-1.0794293817101041e-17,-0.07812051045406923,5.0508045249181895e-18,0.07950795697014505,-1.0627591131286244e-17,-0.07950795697014504,0.5183022785844182,0.6802392932111464,0.5183022785844186,700.0,122.14285714285735,[0.25495633]
3.4359362109778663e-18,0.14203452379807477,-8.149008371862212e-18,0.14203452379807477,-1.6919218423608634e-18,-0.04805186029045847,-8.149008371862212e-18,-0.04805186029045847,6.4583879947976256e-18,0.1499426131155505,1.3014618893347772e-18,-0.14994261311555016,0.16449000444254983,0.9725667467464534,0.1644900044425498,700.0,122.14285714285735,[0.34627668]
2.7240050188106265e-18,0.17074793039816683,-6.241564724298235e-18,0.17074793039816683,-9.398359945378496e-19,-0.03369450567567402,-6.241564724298235e-18,-0.03369450567567402,5.6042876163896714e-18,0.17404072927905484,3.1715566995114904e-18,-0.17404072927905484,0.2531720240763773,0.9337065130168798,0.2531720240763775,700.0,122.14285714285735,[0.35440733]
1.7928511119821335e-18,0.18259520537872714,-4.532719593785149e-18,0.18259520537872714,-7.075901483125611e-19,-0.027265076944701896,-4.532719593785149e-18,-0.027265076944701896,4.2715871530034366e-18,0.1846195911817056,2.901670694259671e-18,-0.18461959118170546,0.2836572519735735,0.9160115320265357,0.28365725197357355,700.0,122.14285714285735,[0.71423808]
7.987520692608053e-19,0.1886207060768674,-2.902564361739386e-18,0.1886207060768674,-6.4464501241972595e-19,-0.023927416079914745,-2.902564361739386e-18,-0.023927416079914745,2.7652449354300702e-18,0.19013230130937084,2.043896540440429e-18,-0.19013230130937078,0.2978654282677508,0.9069467312283224,0.29786542826775075,700.0,122.14285714285735,[0.71436694]
-2.3007532429794933e-19,0.1918512300946435,-1.309774325528715e-18,0.1918512300946435,-6.468155343470651e-19,-0.02213016971404982,-1.309774325528715e-18,-0.02213016971404982,1.172081840763138e-18,0.19312337740522367,8.362962864661001e-19,-0.19312337740522362,0.3051170181954382,0.9021126373214429,0.30511701819543824,700.0,122.14285714285735,[0.71677775]
-1.2740963713480779e-18,0.19341537220335464,2.629299042527899e-19,0.19341537220335464,-7.173574969855873e-19,-0.021262431901346197,2.629299042527899e-19,-0.021262431901346197,-4.742590411236031e-19,0.19458056741340218,-4.5483757715228265e-19,-0.19458056741340224,0.30852618735672743,0.8997906331087488,0.30852618735672743,700.0,122.14285714285735,[0.71550152]
-2.344163681526276e-18,0.1937844373835716,1.8153617983769984e-18,0.1937844373835716,-8.030931131154836e-19,-0.021062083456937265,1.8153617983769984e-18,-0.021062083456937265,-2.144475664211075e-18,0.19492567694281415,-1.719044301209756e-18,-0.19492567694281424,0.3093076225701801,0.8992539069917717,0.3093076225701801,700.0,122.14285714285735,[0.71550152]
-3.4207425574864923e-18,0.19312526836583913,3.36242673789181e-18,0.19312526836583913,-9.061929046640929e-19,-0.021433947148042667,3.36242673789181e-18,-0.021433947148042667,-3.8429090723539555e-18,0.19431104799193083,-3.152681463928101e-18,-0.19431104799193089,0.30786397774585433,0.9002441571112808,0.30786397774585433,700.0,122.14285714285735,[0.71550152]
-4.521197174647438e-18,0.19140365656465394,4.8860992164787746e-18,0.19140365656465394,-1.0461915689774677e-18,-0.022394429602881336,4.8860992164787746e-18,-0.022394429602881336,-5.566303482661236e-18,0.19270928940650053,-4.423001877136628e-18,-0.1927092894065005,0.3040778763965489,0.902814095023073,0.3040778763965488,700.0,122.14285714285735,[0.71677775]
-5.6194812698810454e-18,0.18837342141554375,6.398367976345931e-18,0.18837342141554375,-1.2089807135279036e-18,-0.02407678202160152,6.398367976345931e-18,-0.02407678202160152,-7.329852548624291e-18,0.18990586438631574,-5.661798608701433e-18,-0.18990586438631576,0.2972598089575373,0.9073440427737745,0.29725980895753723,700.0,122.14285714285735,[0.71436694]
-6.7655168475161145e-18,0.18344266168036674,7.884590473085016e-18,0.18344266168036674,-1.4227771233708093e-18,-0.026801072414916905,7.884590473085016e-18,-0.026801072414916905,-9.128129965424773e-18,0.18539014970317896,-6.786041011124136e-18,-0.1853901497031789,0.2856964776274913,0.9147431581282743,0.28569647762749134,700.0,122.14285714285735,[0.71423808]
-7.935428166351913e-18,0.17525192441025217,9.320356813614746e-18,0.17525192441025217,-1.7212238883799419e-18,-0.031289269841899045,9.320356813614746e-18,-0.031289269841899045,-1.1000205127754785e-17,0.1780231878625251,-7.940513233617036e-18,-0.17802318786252505,0.265115662567313,0.9270530572318875,0.26511566256731317,700.0,122.14285714285735,[0.3510204]
-9.207354015772651e-18,0.1602173224373768,1.0680426201928523e-17,0.1602173224373768,-2.171607188302814e-18,-0.03936093783665583,1.0680426201928523e-17,-0.03936093783665583,-1.3027472607889548e-17,0.16498143482338679,-7.925715266405812e-18,-0.16498143482338679,0.2224975250023223,0.9492047738689908,0.22249752500232226,700.0,122.14285714285735,[0.34666959]
-1.0754936149965462e-17,0.12546589703421762,1.1799075897433492e-17,0.12546589703421762,-3.14725679464176e-18,-0.05673293065746408,1.1799075897433492e-17,-0.05673293065746408,-1.545411612265471e-17,0.13769646596621693,-5.528118440564744e-18,-0.13769646596621687,0.09610498685764157,0.9907207795348723,0.09610498685764136,700.0,122.14285714285735,[0.34105646]
-1.3767620585112196e-17,-0.018772930683698594,1.2021249165339722e-17,-0.018772930683698594,-7.914808208042191e-18,-0.09509213500567602,1.2021249165339722e-17,-0.09509213500567602,-1.9800586282151347e-17,0.09692748354513633,-1.2080641763035504e-17,-0.09692748354513633,0.6602505641648825,0.3579642231283857,0.6602505641648824,700.0,122.14285714285735,[0.25935959]
-1.4926679294311298e-17,-0.02554076232842926,1.3278201804902333e-17,-0.02554076232842926,-7.798685284929547e-18,-0.09667701824104738,1.3278201804902333e-17,-0.09667701824104738,-2.0789259020054327e-17,0.09999388179432335,-3.608808301643754e-17,-0.09999388179432338,0.6111262928109202,0.5030400664662441,0.6111262928109198,700.0,135.00000000000023,[0.30821095]
-1.3661265010672578e-17,0.11723141563018487,1.5718750225764512e-17,0.11723141563018487,-2.8097406349405227e-18,-0.05874028019646486,1.5718750225764512e-17,-0.05874028019646486,-1.902896573698228e-17,0.13112446502547245,-5.558860673138001e-18,-0.13112446502547237,0.22303669808055282,0.9489516650592106,0.2230366980805525,700.0,135.00000000000023,[0.33175656]
-1.387831720340649e-17,0.15323744806990167,1.7247611608334022e-17,0.15323744806990167,-1.609442009121976e-18,-0.041168761648974456,1.7247611608334022e-17,-0.041168761648974456,-1.9148344442985934e-17,0.1586713030975855,-9.549676596657578e-18,-0.1586713030975856,0.35314730588682347,0.8663567167684202,0.35314730588682325,700.0,135.00000000000023,[0.32923125]
-1.4377537246694494e-17,0.16838640460078,1.853317104861086e-17,0.16838640460078,-9.398359945378496e-19,-0.033157531459963675,1.853317104861086e-17,-0.033157531459963675,-1.9644308703382928e-17,0.17161993808091197,-1.2324342505958941e-17,-0.17161993808091208,0.3939777471457366,0.8303993433932494,0.3939777471457366,700.0,135.00000000000023,[0.34369999]
-1.5013500171404863e-17,0.17616314144231174,1.9734894079444223e-17,0.17616314144231174,-4.297633416131507e-19,-0.028850130442675585,1.9734894079444223e-17,-0.028850130442675585,-2.027376006231128e-17,0.17850989448594534,-1.3824873561361459e-17,-0.1785098944859452,0.41261861541023803,0.8120909779291212,0.4126186154102379,700.0,135.00000000000023,[0.33852855]
-1.5690703012734676e-17,0.1803755063707566,2.089144312266484e-17,0.1803755063707566,2.387574120073059e-20,-0.026375812073461565,2.089144312266484e-17,-0.026375812073461565,-2.098135021062384e-17,0.18229373758042663,-1.4899362003899154e-17,-0.18229373758042652,0.42239436291483234,0.8019763115925219,0.42239436291483223,700.0,135.00000000000023,[0.46123347]
-1.6409145770683933e-17,0.18246034346190557,2.2014756048873077e-17,0.18246034346190557,4.1456968812177667e-19,-0.024994847297676797,2.2014756048873077e-17,-0.024994847297676797,-2.1716071883028142e-17,0.18416438126758036,-1.5744658621996697e-17,-0.1841643812675804,0.42751343957070903,0.7965328103555079,0.4275134395707089,700.0,135.00000000000023,[0.71334024]
-1.7147123225979242e-17,0.18302250964702776,2.3127352023065077e-17,0.18302250964702776,7.889847205877792e-19,-0.02438410629900665,2.3127352023065077e-17,-0.02438410629900665,-2.248009560145152e-17,0.18463971316457806,-1.6398302791759346e-17,-0.18463971316457806,0.4295890646413107,0.7942962111713788,0.42958906464131047,700.0,135.00000000000023,[0.71334024]
-1.7876418593565195e-17,0.18227948347395775,2.4219192381326896e-17,0.18227948347395775,1.1047956610156246e-18,-0.024416782736823746,2.4219192381326896e-17,-0.024416782736823746,-2.3259312973366274e-17,0.18390755660045638,-1.680590172762673e-17,-0.18390755660045638,0.4291903596982021,0.794727167199068,0.4291903596982019,700.0,135.00000000000023,[0.71334024]
-1.8664318053189305e-17,0.18019328580330093,2.5299773157090646e-17,0.18019328580330093,1.4282034281891572e-18,-0.025092842230861147,2.5299773157090646e-17,-0.025092842230861147,-2.4065661869372766e-17,0.18193205044689897,-1.703881568765663e-17,-0.18193205044689897,0.42625926325639407,0.797875980949566,0.426259263256394,700.0,135.00000000000023,[0.48039596]
-1.946307012245011e-17,0.17645835816347513,2.6355528588310452e-17,0.17645835816347513,1.7038597129612287e-18,-0.026539023512457387,2.6355528588310452e-17,-0.026539023512457387,-2.4887204418870635e-17,0.17844290945494037,-1.6960685584049927e-17,-0.17844290945494043,0.4200764690201253,0.804407558611409,0.420076469020125,700.0,135.00000000000023,[0.33614273]
-2.0314999978930724e-17,0.1703359680745665,2.7392020637425123e-17,0.1703359680745665,1.9447876468958736e-18,-0.02907839290865615,2.7392020637425123e-17,-0.02907839290865615,-2.5742390058242258e-17,0.17280015901048812,-1.648631434373254e-17,-0.17280015901048812,0.40873103350945883,0.8160134095053706,0.40873103350945844,700.0,135.00000000000023,[0.34593772]
-2.1219022361667478e-17,0.16013300875630498,2.8381303834620164e-17,0.16013300875630498,2.091297876991266e-18,-0.03345062610985278,2.8381303834620164e-17,-0.03345062610985278,-2.665075348483369e-17,0.16358950113160697,-1.50873497638629e-17,-0.16358950113160697,0.3871959440249702,0.8367548039068698,0.38719594402497015,700.0,135.00000000000023,[0.33197111]
-2.2234826623662197e-17,0.14142326437602865,2.927793287704192e-17,0.14142326437602865,2.093468398918605e-18,-0.041526443861315224,2.927793287704192e-17,-0.041526443861315224,-2.766655774682841e-17,0.14739397968213985,-1.1242541653092817e-17,-0.14739397968213985,0.33887686841126413,0.8776815687432142,0.33887686841126397,700.0,135.00000000000023,[0.33702056]
-2.3667371095706033e-17,0.09869218006315013,2.99284789959516e-17,0.09869218006315013,1.5649463096115235e-18,-0.059162380277518974,2.99284789959516e-17,-0.059162380277518974,-2.8989490861541616e-17,0.11506664871160119,3.679884120758557e-18,-0.11506664871160113,0.1717691452225562,0.9700467625321084,0.17176914522255596,700.0,135.00000000000023,[0.33683099]
-2.6967649686225205e-17,-0.06296458646014062,2.9683006531731587e-17,-0.06296458646014062,-2.745710238084018e-18,-0.09716387109856087,2.9683006531731587e-17,-0.09716387109856087,-3.1812254628046173e-17,0.11578150540977726,-6.312730505733489e-17,-0.11578150540977725,0.6915113816838455,0.20886363494729776,0.6915113816838453,700.0,135.00000000000023,[0.22642521]
-2.708051682644684e-17,-0.06973796945429632,2.902683062157287e-17,-0.06973796945429632,-2.6393546636444e-18,-0.09563808362856792,2.902683062157287e-17,-0.09563808362856792,-3.1021099385531055e-17,0.11836396167648874,-5.3318861354686814e-17,-0.11836396167648885,0.656730352546971,0.3706892068661591,0.656730352546971,700.0,147.8571428571427,[0.31911061]
-2.3391714810933962e-17,0.09043838548148737,2.782107177653086e-17,0.09043838548148737,1.890524598712395e-18,-0.05734388174584829,2.782107177653086e-17,-0.05734388174584829,-2.723787966617893e-17,0.10708605110928282,-4.052296930659503e-18,-0.10708605110928283,0.30419182929251065,0.9027373161575588,0.30419182929251043,700.0,147.8571428571427,[0.32663842]
-2.162165417918889e-17,0.1344104778949048,2.5723737135429187e-17,0.1344104778949048,2.6328430978623824e-18,-0.04003602756571719,2.5723737135429187e-17,-0.04003602756571719,-2.4921390139226227e-17,0.14024642623318273,-9.676192278879057e-18,-0.14024642623318262,0.4664157535313387,0.7516067387374774,0.46641575353133863,700.0,147.8571428571427,[0.34620747]
-2.0261822191710915e-17,0.153220818929058,2.3391884382959535e-17,0.153220818929058,2.8564068563783143e-18,-0.032028099478716446,2.3391884382959535e-17,-0.032028099478716446,-2.2877301114154584e-17,0.15653248387957602,-1.3146063418452524e-17,-0.156532483879576,0.5090825984926712,0.6940243625578999,0.5090825984926711,700.0,147.8571428571427,[0.33300514]
-1.905284147818301e-17,0.16299573031307651,2.0965851327486435e-17,0.16299573031307651,2.913383056970967e-18,-0.02760330519327391,2.0965851327486435e-17,-0.02760330519327391,-2.092220348810385e-17,0.16531651628886376,-1.4030387579929952e-17,-0.16531651628886387,0.5275036446890002,0.6659427976032491,0.5275036446890001,700.0,147.8571428571427,[0.33604126]
-1.7905720639584274e-17,0.16838530315054048,1.8495627802148915e-17,0.16838530315054048,2.9068714911889494e-18,-0.02494205241158597,1.8495627802148915e-17,-0.02494205241158597,-1.9021368910236594e-17,0.17022254931589326,-1.3618653068864808e-17,-0.17022254931589337,0.5371386265022211,0.6503569726224319,0.537138626502221,700.0,147.8571428571427,[0.33942447]
-1.6828056502660388e-17,0.17115996323755323,1.6005598264224426e-17,0.17115996323755323,2.8379574199959316e-18,-0.023322321889403065,1.6005598264224426e-17,-0.023322321889403065,-1.7136270616342547e-17,0.17274160967697821,-1.2940214364382065e-17,-0.17274160967697827,0.5424501459037336,0.6414792891575194,0.5424501459037335,700.0,147.8571428571427,[0.35115335]
-1.5764500758264207e-17,0.17207133257853063,1.3496305344194803e-17,0.17207133257853063,2.7511365429023658e-18,-0.022423990381246452,1.3496305344194803e-17,-0.022423990381246452,-1.5275590694131065e-17,0.17352630590192802,-1.1829410839943807e-17,-0.17352630590192802,0.5450892613193101,0.6369893204667861,0.5450892613193101,700.0,147.8571428571427,[0.35115335]
-1.47161386673594e-17,0.17139620524363083,1.0975176296780155e-17,0.17139620524363083,2.6230757491893563e-18,-0.022113751821175833,1.0975176296780155e-17,-0.022113751821175833,-1.3428476533965455e-17,0.17281688919641328,-1.062570502450155e-17,-0.17281688919641325,0.5456632389733909,0.6360057069446281,0.5456632389733909,700.0,147.8571428571427,[0.35115335]
-1.3711187015001378e-17,0.1691003132554037,8.439938856837805e-18,0.1691003132554037,2.4906739116216685e-18,-0.02237514754414995,8.439938856837805e-18,-0.02237514754414995,-1.159492813584571e-17,0.17057421601959127,-9.487104762808263e-18,-0.1705742160195911,0.5442022896851932,0.6385042958373781,0.5442022896851934,700.0,147.8571428571427,[0.33942447]
-1.274313423540812e-17,0.16482740542779897,5.883165769647637e-18,0.16482740542779897,2.293699046715641e-18,-0.023303307305903596,5.883165769647637e-18,-0.023303307305903596,-9.774402869290003e-18,0.16646656634728008,-8.26124075854372e-18,-0.16646656634728005,0.5401649693235937,0.6453244237058456,0.5401649693235937,700.0,147.8571428571427,[0.33942447]
-1.1811980328579625e-17,0.15770514220583784,3.3102155112177693e-18,0.15770514220583784,2.0614532004903526e-18,-0.025160309581181962,3.3102155112177693e-18,-0.025160309581181962,-7.973412300080348e-18,0.15969957124671458,-7.150088485346168e-18,-0.15969957124671458,0.5319771579058987,0.6587872243241556,0.5319771579058987,700.0,147.8571428571427,[0.33942447]
-1.096005047209901e-17,0.14573211213333112,6.994506910850394e-19,0.14573211213333112,1.7754869365634203e-18,-0.02855703109950261,6.994506910850394e-19,-0.02855703109950261,-6.2098632341172935e-18,0.1485037121827592,-5.822431969842135e-18,-0.14850371218275915,0.5152067843743342,0.6849262286329211,0.5152067843743344,700.0,147.8571428571427,[0.33300514]
-1.0286103413660206e-17,0.12370098674256032,-1.9893511752165554e-18,0.12370098674256032,1.3153362879675216e-18,-0.03504482195098121,-1.9893511752165554e-18,-0.03504482195098121,-4.51577086982909e-18,0.12856933408343943,-6.2870532837092355e-18,-0.12856933408343948,0.473509628569049,0.7426824781188812,0.4735096285690489,700.0,147.8571428571427,[0.3371957]
-1.0105950093691057e-17,0.07365661235652615,-4.878078459669154e-18,0.07365661235652615,3.2774881102821084e-19,-0.049459924637909145,-4.878078459669154e-18,-0.049459924637909145,-3.0186533704469154e-18,0.08872192901998473,-1.024693798231151e-17,-0.08872192901998471,0.2873361388772929,0.9137154297647481,0.28733613887729287,700.0,147.8571428571427,[0.27156231]
-1.2177713273336271e-17,-0.10354825840569216,-8.50288399273064e-18,-0.10354825840569216,-4.438717341408551e-18,-0.07958616086967915,-8.50288399273064e-18,-0.07958616086967915,-2.6529204256902695e-18,0.13059938292666792,-8.927091847481286e-18,-0.130599382926668,0.7039655212585535,0.09415460561409816,0.7039655212585535,700.0,147.8571428571427,[0.15895755]
-1.2114768137443436e-17,-0.10898848624302221,-9.374992920254486e-18,-0.10898848624302221,-4.4826704104371684e-18,-0.07526009020991262,-9.374992920254486e-18,-0.07526009020991262,-1.8047889825824988e-18,0.1324483722510383,1.0367841791165046e-17,-0.1324483722510382,0.681912623215723,0.26455689104255586,0.6819126232157228,700.0,160.7142857142859,[0.25052211]
-9.443940905852618e-18,0.06701096553386937,-7.88360695533669e-18,0.06701096553386937,2.1705219273391446e-19,-0.0442001092436718,-7.88360695533669e-18,-0.0442001092436718,-9.61541213811241e-19,0.08027527115453402,-1.3510920919222985e-17,-0.08027527115453398,0.4285538207088335,0.7954138831524896,0.4285538207088336,700.0,160.7142857142859,[0.27183261]
-9.036968044476529e-18,0.11803245071234664,-7.109035856922648e-18,0.11803245071234664,1.1210745754706682e-18,-0.030591565727083506,-7.109035856922648e-18,-0.030591565727083506,-1.210608604973408e-18,0.12193237189031053,-5.15172093973788e-18,-0.12193237189031067,0.5874857386430968,0.5565258428698077,0.5874857386430969,700.0,160.7142857142859,[0.31874572]
-9.152005706625503e-18,0.1401260503156568,-6.509157859254293e-18,0.1401260503156568,1.5009159127550185e-18,-0.02418114693814268,-6.509157859254293e-18,-0.02418114693814268,-1.6463408818867414e-18,0.14219717945272348,-4.12083273937432e-18,-0.14219717945272348,0.6179903501599769,0.48597927344517317,0.6179903501599772,700.0,160.7142857142859,[0.33647063]
-9.449367210670966e-18,0.15173740551901616,-5.980534026731866e-18,0.15173740551901616,1.7290920303665463e-18,-0.020523969542208823,-5.980534026731866e-18,-0.020523969542208823,-2.136878837465388e-18,0.15311914824544928,-3.836725852148445e-18,-0.15311914824544914,0.63009960737697,0.45381600849548764,0.63009960737697,700.0,160.7142857142859,[0.33833219]
-9.831379069882656e-18,0.1582532938661097,-5.484569766334872e-18,0.1582532938661097,1.8888967072668906e-18,-0.018211946704011966,-5.484569766334872e-18,-0.018211946704011966,-2.6561762085812782e-18,0.15929777155447924,-3.960204069587486e-18,-0.1592977715544792,0.6363500582482198,0.43602431897197486,0.63635005824822,700.0,160.7142857142859,[0.33833219]
-1.0254630845713789e-17,0.1617370562533284,-5.00546096527987e-18,0.1617370562533284,1.993353075020087e-18,-0.016683729168798893,-5.00546096527987e-18,-0.016683729168798893,-3.182527775961021e-18,0.1625952711011921,-4.279761009410288e-18,-0.16259527110119215,0.6399399195151207,0.4253866462666186,0.6399399195151209,700.0,160.7142857142859,[0.33833219]
-1.0745168801292435e-17,0.16307129914818716,-4.5438519972640406e-18,0.16307129914818716,2.057654787117509e-18,-0.01568555673766114,-4.5438519972640406e-18,-0.01568555673766114,-3.7365534979143375e-18,0.16382394603978978,-4.700665881029686e-18,-0.16382394603978975,0.6419991203792941,0.41913513198540864,0.6419991203792942,700.0,160.7142857142859,[0.33833219]
-1.1251985671326126e-17,0.16258914207413366,-4.091705148275205e-18,0.16258914207413366,2.0978094427732833e-18,-0.015103975544353877,-4.091705148275205e-18,-0.015103975544353877,-4.2922071113131585e-18,0.16328918885721505,-5.129729890017463e-18,-0.16328918885721508,0.6429626458372325,0.41617072472240413,0.6429626458372326,700.0,160.7142857142859,[0.33833219]
-1.1785934065451555e-17,0.1602668562698479,-3.644882860889373e-18,0.1602668562698479,2.1187007163239225e-18,-0.014909308621044334,-3.644882860889373e-18,-0.014909308621044334,-4.850031246639319e-18,0.1609588540658066,-5.578268825141447e-18,-0.16095885406580662,0.6429242919707033,0.41628921387412804,0.6429242919707034,700.0,160.7142857142859,[0.33833219]
-1.2374145507760465e-17,0.15571630714464368,-3.208777525519779e-18,0.15571630714464368,2.098352073255118e-18,-0.015146178683074808,-3.208777525519779e-18,-0.015146178683074808,-5.420878513529514e-18,0.15645119059778562,-6.103624092200373e-18,-0.15645119059778556,0.6416818017158983,0.42010585653294324,0.6416818017158981,700.0,160.7142857142859,[0.33833219]
-1.3010108432470834e-17,0.1479713203096526,-2.7837622006226823e-18,0.1479713203096526,2.048701384167235e-18,-0.015963709810224134,-2.7837622006226823e-18,-0.015963709810224134,-6.007190749152e-18,0.1488299420986477,-6.673893516161266e-18,-0.14882994209864772,0.6385257178322259,0.4296158927852657,0.6385257178322259,700.0,160.7142857142859,[0.33833219]
-1.37442874743933e-17,0.13480867888915118,-2.3886932954418433e-18,0.13480867888915118,1.906532197926521e-18,-0.017722927652686096,-2.3886932954418433e-18,-0.017722927652686096,-6.608696638265861e-18,0.135968680468778,-7.424443040571661e-18,-0.135968680468778,0.6312909705644438,0.4504924205440148,0.6312909705644439,700.0,160.7142857142859,[0.32447386]
-1.4675984011703626e-17,0.11045595359611805,-2.033762088714221e-18,0.11045595359611805,1.5931630946669323e-18,-0.021348486038947793,-2.033762088714221e-18,-0.021348486038947793,-7.256597433576595e-18,0.11250011351542244,-8.237299444874463e-18,-0.11250011351542248,0.6109809713611831,0.5033929928684849,0.610980971361183,700.0,160.7142857142859,[0.3226123]
-1.61731015110858e-17,0.05520186606706911,-1.8057385859257096e-18,0.05520186606706911,7.968528625743836e-19,-0.02969839708221354,-1.8057385859257096e-18,-0.02969839708221354,-8.0241482501319e-18,0.06268365661429989,-1.1660466746311235e-17,-0.0626836566142999,0.47711539527912555,0.7380527075861776,0.4771153952791255,700.0,160.7142857142859,[0.18501309]
-2.017391605365368e-17,-0.13261243369521128,-1.989181603190982e-18,-0.13261243369521128,-3.810079928202951e-18,-0.04599312967888497,-1.989181603190982e-18,-0.04599312967888497,-9.66858992533222e-18,0.1403617666895995,-9.486797270357715e-18,-0.14036176668959943,0.707104094021446,0.0027568888662605194,0.7071040940214458,700.0,160.7142857142859,[0.10925315]
-2.0023607410185444e-17,-0.135653535566054,-1.6467308975455601e-18,-0.135653535566054,-3.857288780122577e-18,-0.03973127211033298,-1.6467308975455601e-18,-0.03973127211033298,-9.592079027393515e-18,0.14135223979504521,-9.53079130872167e-18,-0.1413522397950454,0.6965857686775462,0.17186196132892362,0.696585768677546,700.0,173.57142857142813,[0.15432422]
-1.544055036060884e-17,0.05144728663295249,-1.3381776398122547e-18,0.05144728663295249,6.527844696472477e-19,-0.02206196886939192,-1.3381776398122547e-18,-0.02206196886939192,-8.084651548856479e-18,0.055978154420159215,-1.0780476798594629e-17,-0.05597815442015928,0.6145847287262381,0.49454142640732496,0.6145847287262384,700.0,173.57142857142813,[0.17977779]
-1.3399717118428211e-17,0.10719937618519712,-1.4159942423478745e-18,0.10719937618519712,1.3677001294645785e-18,-0.014852449582728711,-1.4159942423478745e-18,-0.014852449582728711,-7.420743154331618e-18,0.1082233870894036,-7.93480211246023e-18,-0.10822338708940366,0.6851467468348837,0.24728095479262222,0.685146746834884,700.0,173.57142857142813,[0.2301921]
-1.1919421163982913e-17,0.1315427479649845,-1.5894325101043182e-18,0.1315427479649845,1.5644036791296887e-18,-0.011313265784058325,-1.5894325101043182e-18,-0.011313265784058325,-6.877027411533163e-18,0.13202834742917965,-7.184894538754483e-18,-0.1320283474291797,0.6932922571601311,0.1967020394495722,0.6932922571601312,700.0,173.57142857142813,[0.15894443]
-1.0649123206007678e-17,0.14446088813994645,-1.797412599470057e-18,0.14446088813994645,1.6120195039106912e-18,-0.009151774075191634,-1.797412599470057e-18,-0.009151774075191634,-6.361528453790116e-18,0.1447504859090479,-6.606295390444476e-18,-0.1447504859090479,0.6962493158566747,0.1745674091525232,0.6962493158566747,700.0,173.57142857142813,[0.15534632]
-9.46564612512601e-18,0.15182582980602913,-2.0133117024300727e-18,0.15182582980602913,1.5730857668390453e-18,-0.007650252182139999,-2.0133117024300727e-18,-0.007650252182139999,-5.870447867729634e-18,0.15201844938934106,-6.0806850405654625e-18,-0.15201844938934106,0.697786081892029,0.16183067643540414,0.6977860818920291,700.0,173.57142857142813,[0.15340312]
-8.359765203146715e-18,0.15589517665374963,-2.244285758463561e-18,0.15589517665374963,1.490877248841075e-18,-0.006519175564823822,-2.244285758463561e-18,-0.006519175564823822,-5.37963859691007e-18,0.1560314255332841,-5.5727229180715125e-18,-0.1560314255332841,0.698739218445965,0.1533851662027462,0.6987392184459649,700.0,173.57142857142813,[0.15376795]
-7.278845283331821e-18,0.1576408191502911,-2.476056803017244e-18,0.1576408191502911,1.3809945762695308e-18,-0.005621382491422696,-2.476056803017244e-18,-0.005621382491422696,-4.905650871027384e-18,0.1577410149691248,-5.083427288604501e-18,-0.15774101496912482,0.699392923656406,0.14730606463648643,0.6993929236564059,700.0,173.57142857142813,[0.15376795]
-6.2505605202549025e-18,0.1574380725382835,-2.7218344968832874e-18,0.1574380725382835,1.2494066844245951e-18,-0.0048857200180520855,-2.7218344968832874e-18,-0.0048857200180520855,-4.4254228946035985e-18,0.15751386270631743,-4.595840684482783e-18,-0.15751386270631743,0.6998668478909155,0.14273328429791202,0.6998668478909156,700.0,173.57142857142813,[0.15376795]
-5.2515778031970604e-18,0.15527849687320258,-2.9609988817519693e-18,0.15527849687320258,1.0689820492145287e-18,-0.004275151482254079,-2.9609988817519693e-18,-0.004275151482254079,-3.951435168720913e-18,0.1553373377890758,-4.115768188162763e-18,-0.15533733778907577,0.7002155601475664,0.1392707386871358,0.7002155601475663,700.0,173.57142857142813,[0.15376795]
-4.294377633240498e-18,0.15076719966866395,-3.2087944827223363e-18,0.15076719966866395,8.804179567769405e-19,-0.0037749383694224677,-3.2087944827223363e-18,-0.0037749383694224677,-3.4956255639796924e-18,0.15081445108352082,-3.656580101013996e-18,-0.1508144510835208,0.7004588189963947,0.13680236028793982,0.7004588189963947,700.0,173.57142857142813,[0.15376795]
-3.393611033394753e-18,0.14290252248783622,-3.454741748613953e-18,0.14290252248783622,6.375908161558737e-19,-0.0033917017951603278,-3.454741748613953e-18,-0.0033917017951603278,-3.039815959238472e-18,0.14294276677906387,-3.203952919332797e-18,-0.14294276677906384,0.7005842729465894,0.13551144970000514,0.7005842729465895,700.0,173.57142857142813,[0.15376795]
-2.6067968347343127e-18,0.1293698589183181,-3.70769233916175e-18,0.1293698589183181,3.2693486530545866e-19,-0.0031651017000438133,-3.70769233916175e-18,-0.0031651017000438133,-2.602184475638717e-18,0.12940857106589634,-2.7833210809537368e-18,-0.12940857106589634,0.7005140666975443,0.1362354018518562,0.7005140666975442,700.0,173.57142857142813,[0.15376795]
-2.029166686821183e-18,0.10415959297998297,-3.964865273146324e-18,0.10415959297998297,-1.6333177503227063e-19,-0.0032099515415552563,-3.964865273146324e-18,-0.0032099515415552563,-2.1876147875169404e-18,0.10420904278734568,-2.4314770169925286e-18,-0.1042090427873457,0.699888512350539,0.1425206671311167,0.6998885123505392,700.0,173.57142857142813,[0.14640336]
-2.0408332421806307e-18,0.04683658679128409,-4.241725519299966e-18,0.04683658679128409,-1.147527811460114e-18,-0.0038399685482494103,-4.241725519299966e-18,-0.0038399685482494103,-1.8728891080527644e-18,0.04699373597309572,-2.5602190173413656e-18,-0.04699373597309571,0.6938416778241155,0.19278862058853866,0.693841677824116,700.0,173.57142857142813,[0.08732126]
-4.650885859805952e-18,-0.1445408951287937,-4.5319310838662326e-18,-0.1445408951287937,-5.957133087202741e-18,-0.0030744239934328206,-4.5319310838662326e-18,-0.0030744239934328206,-2.3296483161371957e-18,0.14457358834698794,-2.137716511074299e-18,-0.14457358834698789,0.7041853500705613,0.09080740879466745,0.7041853500705612,700.0,173.57142857142813,[0.15782611]
-4.307943395286367e-18,-0.1445852948034191,-4.171302257079345e-18,-0.1445852948034191,-6.0168224402045676e-18,0.0038870451982941983,-4.171302257079345e-18,0.0038870451982941983,-1.9903686073699956e-18,0.14463753521740194,-2.2161836897903544e-18,-0.14463753521740197,0.7045345219374498,0.0852186293995527,0.7045345219374499,700.0,173.57142857142813,[0.15782611]
-9.515025498972975e-19,0.04670366161976169,-3.780184380094366e-18,0.04670366161976169,-1.336838020810225e-18,0.004672589311420937,-3.780184380094366e-18,0.004672589311420937,-8.683444285561165e-19,0.04693682029671808,-1.1546832306706605e-19,-0.04693682029671808,0.6912886692754517,0.21033295382024675,0.6912886692754517,700.0,173.57142857142813,[0.10893784]
-2.200366603840058e-19,0.1039385687154444,-3.3706340239295613e-18,0.1039385687154444,-4.779896256862173e-19,0.004061932282953688,-3.3706340239295613e-18,0.004061932282953688,-5.092587072019468e-19,0.10401790884499876,-2.4630043836322633e-19,-0.10401790884499876,0.6990330381990842,0.15068385119950917,0.6990330381990842,700.0,173.57142857142813,[0.14640336]
-7.759615890237442e-20,0.1290612337990154,-2.947093975654953e-18,0.1290612337990154,-1.1110359115567247e-19,0.004035913456219762,-2.947093975654953e-18,0.004035913456219762,-2.553076417032669e-19,0.12912432252348977,-7.016612155267361e-20,-0.12912432252348982,0.6998427638871016,0.1429692682702291,0.6998427638871018,700.0,173.57142857142813,[0.15376795]
-1.5953336165942713e-19,0.14250686458012193,-2.514447909607055e-18,0.14250686458012193,7.990233845017226e-20,0.004280832263863542,-2.514447909607055e-18,0.004280832263863542,-2.2112192134767536e-20,0.1425711470716588,1.2935516194588422e-19,-0.1425711470716588,0.6999666478159595,0.1417511336482972,0.6999666478159596,700.0,173.57142857142813,[0.15376795]
-3.3534563777389784e-19,0.15028514478621088,-2.080809847209553e-18,0.15028514478621088,1.988062427822198e-19,0.004681872020667501,-2.080809847209553e-18,0.004681872020667501,1.9480434297868825e-19,0.15035805488576348,3.232645959056849e-19,-0.15035805488576348,0.6998546814200907,0.14285254561528454,0.6998546814200908,700.0,173.57142857142813,[0.15376795]
-5.72203843094782e-19,0.1547107464367008,-1.6375485723607621e-18,0.1547107464367008,2.7463885261863114e-19,0.0051993660588867795,-1.6375485723607621e-18,0.0051993660588867795,3.9686636865191677e-19,0.1547980893629358,5.067624583790875e-19,-0.1547980893629358,0.6996049803104675,0.14527815751027706,0.6996049803104675,700.0,173.57142857142813,[0.15376795]
-8.519298564806144e-19,0.15678539139298425,-1.1958304029446887e-18,0.15678539139298425,3.129621303982129e-19,0.005826686862304357,-1.1958304029446887e-18,0.005826686862304357,6.046938431946398e-19,0.15689362394323933,6.909094301204195e-19,-0.15689362394323933,0.6992356817676652,0.14879154104255232,0.6992356817676652,700.0,173.57142857142813,[0.15376795]
-1.160957915885525e-18,0.15690403335722275,-7.53993533110714e-19,0.15690403335722275,3.295123600941739e-19,0.006578568093950363,-7.53993533110714e-19,0.006578568093950363,7.948179982675031e-19,0.15704188371874306,8.515882240586847e-19,-0.15704188371874309,0.698727342505221,0.1534933277741521,0.698727342505221,700.0,173.57142857142813,[0.15376795]
-1.5166521967282273e-18,0.15507517127959972,-3.0373741220702155e-19,0.15507517127959972,3.0740016795940636e-19,0.007492043632101667,-3.0373741220702155e-19,0.007492043632101667,9.874518193188521e-19,0.15525604485875102,1.0106364154324307e-18,-0.15525604485875105,0.6980215691025883,0.1597866644470718,0.6980215691025883,700.0,173.57142857142813,[0.15340312]
-1.8970361644944124e-18,0.15092354674329447,1.4944382613781157e-19,0.15092354674329447,2.7633457287436485e-19,0.008638266051657855,1.4944382613781157e-19,0.008638266051657855,1.172081840763138e-18,0.15117055467899362,1.1471202870636006e-18,-0.15117055467899365,0.6969884956357483,0.16856474691593476,0.6969884956357482,700.0,173.57142857142813,[0.15432422]
-2.356372867367559e-18,0.14347732402586746,6.099929689938077e-19,0.14347732402586746,1.7550704646843865e-19,0.010154399606730582,6.099929689938077e-19,0.010154399606730582,1.3400938037012338e-18,0.1438362066414327,1.2337690437969632e-18,-0.14383620664143276,0.695318227736385,0.18183818178552602,0.695318227736385,700.0,173.57142857142813,[0.16132183]
-2.9033443930570233e-18,0.1304789523717841,1.0914503426030003e-18,0.1304789523717841,1.8347693167038707e-20,0.012329975378722043,1.0914503426030003e-18,0.012329975378722043,1.5054604430403848e-18,0.13106023540677092,1.2547085904828089e-18,-0.13106023540677092,0.6920958875830605,0.20495503111959004,0.6920958875830603,700.0,173.57142857142813,[0.15894443]
-3.6689960029259066e-18,0.10605645067048851,1.5965121421720064e-18,0.10605645067048851,-3.207285291694733e-19,0.01588272983563072,1.5965121421720064e-18,0.01588272983563072,1.6218546813939467e-18,0.10723913388242837,9.866338962048602e-19,-0.10723913388242834,0.6831857178798082,0.2579041484158442,0.6831857178798083,700.0,173.57142857142813,[0.2301921]
-4.995184900530124e-18,0.05022638745320769,2.207624286534598e-18,0.05022638745320769,-1.165943333437382e-18,0.023105344074392416,2.207624286534598e-18,0.023105344074392416,1.6321646605488076e-18,0.055286046353449796,-1.434099711437677e-18,-0.05528604635344981,0.6052673027401576,0.5170135244529961,0.6052673027401576,700.0,173.57142857142813,[0.18068799]
-8.848132636798023e-18,-0.13695117823821018,3.1932108135721435e-18,-0.13695117823821018,-5.797565811138199e-18,0.040787399820479464,3.1932108135721435e-18,0.040787399820479464,7.841688750614954e-19,0.14289589638946826,1.5504917381208363e-18,-0.14289589638946829,0.6960268144610764,0.17633305731578613,0.6960268144610765,700.0,173.57142857142813,[0.16132183]
-8.445500819276612e-18,-0.13398462490212013,3.2940595364812664e-18,-0.13398462490212013,-5.803297345602579e-18,0.04707832103561527,3.2940595364812664e-18,0.04707832103561527,9.921998360349065e-19,0.14201495703514563,1.8263650630723078e-18,-0.14201495703514577,0.7071061868693896,0.0012965269235038694,0.7071061868693898,700.0,160.7142857142859,[0.107889]
-4.0324227681347546e-18,0.0537587751428928,1.940442363740556e-18,0.0537587751428928,-1.1572951601331402e-18,0.030833873566926625,1.940442363740556e-18,0.030833873566926625,2.5192637551333387e-18,0.06197365298258063,1.0600661066102714e-18,-0.06197365298258069,0.4627611459330094,0.7561112640541309,0.46276114593300943,700.0,160.7142857142859,[0.18338642]
-2.1406772508382314e-18,0.10894350015141326,9.982874717529905e-19,0.10894350015141326,-3.2591743315201843e-19,0.022533106368407517,9.982874717529905e-19,0.022533106368407517,3.185037441939507e-18,0.11124939149429525,2.754322832983012e-18,-0.11124939149429512,0.6062893220944159,0.5146129767394013,0.6062893220944159,700.0,160.7142857142859,[0.3235225]
-7.979381235380531e-19,0.13322849086292604,1.8323105223330568e-19,0.13322849086292604,1.9263382105134908e-20,0.018955909455737798,1.8323105223330568e-19,0.018955909455737798,3.719324980116083e-18,0.1345702689337689,3.5744074096917115e-18,-0.13457026893376886,0.6278741072870874,0.45994370394308737,0.6278741072870873,700.0,160.7142857142859,[0.32447386]
3.489113998197675e-19,0.14632504940770874,-5.858162374476843e-19,0.14632504940770874,1.7181037631093917e-19,0.01724435562084057,-5.858162374476843e-19,0.01724435562084057,4.203792257179203e-18,0.14733766621250127,4.282304630273401e-18,-0.14733766621250116,0.6355054902869969,0.4384809501337166,0.635505490286997,700.0,160.7142857142859,[0.33833219]
1.3796380000649438e-18,0.15400561077370697,-1.336799867104471e-18,0.15400561077370697,2.5822428054312886e-19,0.016473814658412057,-1.336799867104471e-18,0.016473814658412057,4.673031966345834e-18,0.15488419777105167,4.9147635104080786e-18,-0.15488419777105167,0.638800213460734,0.4287989908629005,0.6388002134607339,700.0,160.7142857142859,[0.33833219]
2.359492992638109e-18,0.15849339054381748,-2.070092895193316e-18,0.15849339054381748,2.9156214077085354e-19,0.016283270142613687,-2.070092895193316e-18,0.016283270142613687,5.1335556733979944e-18,0.15932764898978577,5.5131655967232424e-18,-0.15932764898978571,0.6400635530758523,0.4250144656924408,0.6400635530758523,700.0,160.7142857142859,[0.33833219]
3.30963896633082e-18,0.16075455767993427,-2.797378834276224e-18,0.16075455767993427,3.0794279844124114e-19,0.016523603604155026,-2.797378834276224e-18,0.016523603604155026,5.585838180007289e-18,0.16160153864038104,6.175079509980215e-18,-0.16160153864038107,0.640048704462878,0.4250591862679636,0.6400487044628778,700.0,160.7142857142859,[0.33833219]
4.22125817581326e-18,0.16117723838488676,-3.5096661276971675e-18,0.16117723838488676,2.9834502179378836e-19,0.01715019765751287,-3.5096661276971675e-18,0.01715019765751287,6.026216730421332e-18,0.16208711069381915,6.7319209542270764e-18,-0.16208711069381912,0.6389689275172586,0.4282959483054784,0.6389689275172585,700.0,160.7142857142859,[0.33833219]
5.092451414399009e-18,0.15978515083195924,-4.211656159865168e-18,0.15978515083195924,2.589195258479797e-19,0.01819273566112949,-4.211656159865168e-18,0.01819273566112949,6.453436491650883e-18,0.1608175054439899,7.346664462936485e-18,-0.16081750544398987,0.6367219423858668,0.4349371634716194,0.6367219423858669,700.0,160.7142857142859,[0.33833219]
5.929051959767791e-18,0.15624516342433925,-4.901428527590607e-18,0.15624516342433925,1.787797865620047e-19,0.019764679810981234,-4.901428527590607e-18,0.019764679810981234,6.879638820726993e-18,0.15749029703930678,8.153809805249568e-18,-0.15749029703930684,0.6328404970453145,0.4461230890672202,0.6328404970453144,700.0,160.7142857142859,[0.33833219]
6.718647139647635e-18,0.14967465710977526,-5.5805220970055635e-18,0.14967465710977526,6.286034988004851e-20,0.022119801826830737,-5.5805220970055635e-18,0.022119801826830737,7.284576817796201e-18,0.15130032588790762,8.936424711852011e-18,-0.15130032588790765,0.626111591799177,0.4647241646712615,0.626111591799177,700.0,160.7142857142859,[0.33833219]
7.424541567704462e-18,0.1380102797612326,-6.2160653309526396e-18,0.1380102797612326,-1.2183750037446683e-19,0.02581946873736169,-6.2160653309526396e-18,0.02581946873736169,7.655905639396769e-18,0.1404047089155249,9.788988523636902e-18,-0.14040470891552487,0.6130972856404469,0.4982202692390512,0.6130972856404467,700.0,160.7142857142859,[0.33647063]
7.928102654847143e-18,0.11586524914187239,-6.788818163480215e-18,0.11586524914187239,-4.95031614256341e-19,0.032271801333100106,-6.788818163480215e-18,0.032271801333100106,7.97505714872841e-18,0.12027562146998554,1.1626956417122064e-17,-0.12027562146998551,0.5802894622044895,0.5714265308058842,0.5802894622044894,700.0,160.7142857142859,[0.31823097]
7.938955264483839e-18,0.064793947157909,-7.172360410222704e-18,0.064793947157909,-1.3829785689687392e-18,0.04592177635722139,-7.172360410222704e-18,0.04592177635722139,8.117175463361451e-18,0.07941703300995677,1.5385835820219618e-17,-0.0794170330099568,0.4094901810978826,0.8152518526006836,0.4094901810978826,700.0,160.7142857142859,[0.24306851]
5.667571896333653e-18,-0.11125356133259336,-6.8595699715003846e-18,-0.11125356133259336,-6.042834788927523e-18,0.07702305591513055,-6.8595699715003846e-18,0.07702305591513055,7.162213644142457e-18,0.13531410145173503,-1.1179196303501846e-18,-0.13531410145173495,0.6816859011637985,0.26572290889006833,0.6816859011637985,700.0,160.7142857142859,[0.25052211]
5.647291082075078e-18,-0.10585780179388182,-6.458684745842379e-18,-0.10585780179388182,-6.041232333285854e-18,0.08140229501443993,-6.458684745842379e-18,0.08140229501443993,5.649054631141041e-18,0.1335372900513212,-1.7437867369913892e-17,-0.1335372900513213,0.7039492764642169,0.09439720510169121,0.7039492764642169,700.0,147.85714285714295,[0.15895755]
7.36335998087759e-18,0.07131031808649702,-6.367866208245921e-18,0.07131031808649702,-1.3654448215244527e-18,0.05135020141819962,-6.367866208245921e-18,0.05135020141819962,4.0816156127535894e-18,0.08787493756064384,8.868126343670513e-18,-0.0878749375606439,0.26602697838513434,0.9265307839152193,0.26602697838513406,700.0,147.85714285714295,[0.24548057]
6.848132338375461e-18,0.12131879268599005,-5.557116918175799e-18,0.12131879268599005,-4.9386156727988475e-19,0.0370080201523312,-5.557116918175799e-18,0.0370080201523312,1.3920337151343572e-18,0.12683786112348933,4.836698229830481e-18,-0.12683786112348944,0.46290577065730737,0.7559341869397952,0.46290577065730726,700.0,147.85714285714295,[0.3348986]
5.834159454256933e-18,0.14331510355122218,-4.538415094194094e-18,0.14331510355122218,-1.3029914445057803e-19,0.030592475877175035,-4.538415094194094e-18,0.030592475877175035,-1.5068509336500865e-18,0.14654391316664458,7.592878452587317e-19,-0.14654391316664456,0.5069965372134579,0.6970717484643352,0.5069965372134578,700.0,147.85714285714295,[0.3375322]
4.647697905725173e-18,0.15525444214632395,-3.444440248060371e-18,0.15525444214632395,6.84392695214124e-20,0.027267459617763754,-3.444440248060371e-18,0.027267459617763754,-4.468358531478776e-18,0.1576307589278585,-2.947541215744312e-18,-0.15763075892785844,0.5246216754775078,0.6704805703660212,0.5246216754775077,700.0,147.85714285714295,[0.33300514]
3.3903552505037443e-18,0.16234413128259823,-2.3065229311496272e-18,0.16234413128259823,1.8686837218185448e-19,0.025481658654777726,-2.3065229311496272e-18,0.025481658654777726,-7.462966588699387e-18,0.1643317738287398,-6.264260874306081e-18,-0.16433177382873973,0.5331477011732517,0.656891967881595,0.5331477011732518,700.0,147.85714285714295,[0.33942447]
2.0589435345118667e-18,0.16658556734511334,-1.1570916737024521e-18,0.16658556734511334,2.5972923227009253e-19,0.024624207317244354,-1.1570916737024521e-18,0.024624207317244354,-1.0492387782770212e-17,0.1683956734411427,-9.986278779657099e-18,-0.16839567344114262,0.5372770757235416,0.6501282087434137,0.5372770757235414,700.0,147.85714285714295,[0.33942447]
7.32483321666732e-19,0.16885107353037734,1.7684242616982894e-20,0.16885107353037734,3.11923501741576e-19,0.024433028024006206,1.7684242616982894e-20,0.024433028024006206,-1.352007934218019e-17,0.17060966529122185,-1.3262187929634518e-17,-0.17060966529122193,0.5386768154956104,0.6478075153122383,0.5386768154956104,700.0,147.85714285714295,[0.33942447]
-6.2904438606697585e-19,0.16949688616008615,1.1981535396950438e-18,0.16949688616008615,3.271637875399827e-19,0.024812986834298723,1.1981535396950438e-18,0.024812986834298723,-1.6562964555081538e-17,0.17130346970684593,-1.6592238211603187e-17,-0.171303469706846,0.5379178443584486,0.6490676277873669,0.5379178443584485,700.0,147.85714285714295,[0.33942447]
-2.0493796722695286e-18,0.16855726120038103,2.3994748967928302e-18,0.16855726120038103,3.1642987832118835e-19,0.025780535299452532,2.3994748967928302e-18,0.025780535299452532,-1.962919983590434e-17,0.1705174076266109,-1.990375936911396e-17,-0.17051740762661094,0.5349636902479871,0.6539324890479989,0.5349636902479872,700.0,147.85714285714295,[0.33942447]
-3.465848716289009e-18,0.16575539653590896,3.613261917420579e-18,0.16575539653590896,2.8736947243855195e-19,0.02746897090982873,3.613261917420579e-18,0.02746897090982873,-2.2707542559353083e-17,0.16801605829093066,-2.349022175706581e-17,-0.1680160582909306,0.5291630000567139,0.6633046349468364,0.5291630000567141,700.0,147.85714285714295,[0.33942447]
-4.9542162991515976e-18,0.1603396676738934,4.85225369999949e-18,0.1603396676738934,1.962075514903079e-19,0.03019840887073376,4.85225369999949e-18,0.03019840887073376,-2.5811253257827604e-17,0.16315867408170057,-2.6901778216786974e-17,-0.16315867408170057,0.5187497919842894,0.6795566986149966,0.5187497919842894,700.0,147.85714285714295,[0.33300514]
-6.500950573216542e-18,0.15053965553516022,6.1304250990871276e-18,0.15053965553516022,4.337652414166822e-20,0.03469086545977631,6.1304250990871276e-18,0.03469086545977631,-2.896327502638797e-17,0.154485093245248,-3.075290540786563e-17,-0.154485093245248,0.49895392599872934,0.7085830646162162,0.4989539259987294,700.0,147.85714285714295,[0.35105402]
-8.190566236029606e-18,0.13170529622856286,7.503817549485172e-18,0.13170529622856286,-2.788845122089244e-19,0.04276594923646178,7.503817549485172e-18,0.04276594923646178,-3.220333859062604e-17,0.13847458780855482,-3.438373642911084e-17,-0.13847458780855462,0.45327073490471737,0.7675228216527994,0.4532707349047176,700.0,147.85714285714295,[0.34768934]
-1.0299431774870273e-17,0.08771036414277902,9.112819731165817e-18,0.08771036414277902,-1.126399137073672e-18,0.06014054876736359,9.112819731165817e-18,0.06014054876736359,-3.5718159707900636e-17,0.10634845360464124,-4.872609391529245e-17,-0.10634845360464112,0.2810501880567173,0.9176173405001498,0.281050188056717,700.0,147.85714285714295,[0.32531581]
-1.4321001933368332e-17,-0.07248726758458661,1.1614012407498834e-17,-0.07248726758458661,-5.754840019644669e-18,0.09850153696276326,1.1614012407498834e-17,0.09850153696276326,-4.070851180570192e-17,0.1222986375472191,-1.70142908974487e-17,-0.12229863754721913,0.6578693022784597,0.36662782523876325,0.6578693022784597,700.0,147.85714285714295,[0.31911061]
-1.4546804042621833e-17,-0.06573276004897766,1.1967406867744697e-17,-0.06573276004897766,-5.720696692295471e-18,0.10010301517987703,1.1967406867744697e-17,0.10010301517987703,-4.1082778462645544e-17,0.11975562363312697,-1.8339208152610995e-17,-0.11975562363312703,0.6923924330138144,0.20294195576671836,0.6923924330138145,700.0,134.9999999999996,[0.15892511]
-1.1578428777757422e-17,0.09591642708363174,1.0032993849338434e-17,0.09591642708363174,-1.0014521096802535e-18,0.06219756587481714,1.0032993849338434e-17,0.06219756587481714,-3.6247584768243896e-17,0.11431753227410864,-3.8471412346885634e-17,-0.11431753227410867,0.14747895855538126,0.9780081357365287,0.14747895855538143,700.0,134.9999999999996,[0.34302302]
-1.050354562205294e-17,0.13864020978663547,8.997704171867595e-18,0.13864020978663547,-6.949485538060664e-20,0.04465640078199442,8.997704171867595e-18,0.04465640078199442,-3.29072108722779e-17,0.1456547352490965,-3.545163249439416e-17,-0.1456547352490964,0.322625312674902,0.8898459502873759,0.32262531267490213,700.0,134.9999999999996,[0.33316958]
-9.80250095392751e-18,0.15734344923690174,8.20276959283251e-18,0.15734344923690174,3.367933589422305e-19,0.03667465529492035,8.20276959283251e-18,0.03667465529492035,-2.9881706791997823e-17,0.16156110719714295,-3.271068463391923e-17,-0.1615611071971429,0.37344629544638913,0.8491617801306981,0.3734462954463893,700.0,134.9999999999996,[0.32939558]
-9.23926747098556e-18,0.167540844175335,7.507545484484887e-18,0.167540844175335,5.773143200154995e-19,0.0323958879286215,7.507545484484887e-18,0.0323958879286215,-2.6958094302584146e-17,0.1706441561310193,-2.923796629581582e-17,-0.17064415613101924,0.3959847184656849,0.8284879030398118,0.39598471846568495,700.0,134.9999999999996,[0.33197111]
-8.73626597152727e-18,0.17365867053257958,6.852326066532922e-18,0.17365867053257958,7.462027583607775e-19,0.029949357807989112,6.852326066532922e-18,0.029949357807989112,-2.4089974258539348e-17,0.17622229678520807,-2.6086070443910518e-17,-0.17622229678520812,0.40775008425792963,0.8169943314217686,0.4077500842579295,700.0,134.9999999999996,[0.3436241]
-8.256597582787877e-18,0.17739007558573888,6.229488016601932e-18,0.17739007558573888,8.696501331530315e-19,0.028595337407964803,6.229488016601932e-18,0.028595337407964803,-2.1252924048880234e-17,0.179680083030339,-2.2831300406940067e-17,-0.17968008303033897,0.41405462327354514,0.8106278664662383,0.4140546232735452,700.0,134.9999999999996,[0.33614273]
-7.811640587683352e-18,0.17947382749360796,5.619540620089996e-18,0.17947382749360796,9.593177006259102e-19,0.028010695967976076,5.619540620089996e-18,0.028010695967976076,-1.843325073254175e-17,0.1816465079317952,-1.9771721747577116e-17,-0.18164650793179518,0.41691726763748704,0.8076880486248288,0.41691726763748704,700.0,134.9999999999996,[0.37221177]
-7.397596572840853e-18,0.1802155201728657,5.029373800361195e-18,0.1802155201728657,1.0280939945481497e-18,0.028068624057308037,5.029373800361195e-18,0.028068624057308037,-1.5634752722896743e-17,0.1823882709157774,-1.6918773025547774e-17,-0.1823882709157775,0.41709616345289535,0.80750330083892,0.41709616345289535,700.0,134.9999999999996,[0.46123347]
-7.007428299199084e-18,0.1796531698976038,4.452742007748628e-18,0.1796531698976038,1.0603752090915203e-18,0.028769082001714467,4.452742007748628e-18,0.028769082001714467,-1.285781579630339e-17,0.18194208290958605,-1.4264047217236412e-17,-0.18194208290958602,0.4146486768838078,0.8100203389526801,0.41464867688380797,700.0,134.9999999999996,[0.46123347]
-6.649817854467404e-18,0.17756933836155925,3.885888162060686e-18,0.17756933836155925,1.0672884486091147e-18,0.030238800802820782,3.885888162060686e-18,0.030238800802820782,-1.0108845536027723e-17,0.1801256644683223,-1.1375012296505386e-17,-0.18012566446832215,0.4089659793722713,0.8157779449287399,0.4089659793722714,700.0,134.9999999999996,[0.33852855]
-6.2895196931303844e-18,0.17335921422972855,3.3499324590825322e-18,0.17335921422972855,1.0409581523382096e-18,0.03280083622359725,3.3499324590825322e-18,0.03280083622359725,-7.392573001583242e-18,0.1764350079074903,-8.618240760826186e-18,-0.1764350079074904,0.3983290495269182,0.8262372156989565,0.39832904952691833,700.0,134.9999999999996,[0.338514]
-5.994277839404588e-18,0.16558601005362267,2.859670058045442e-18,0.16558601005362267,9.244134188119516e-19,0.03719484977638849,2.859670058045442e-18,0.03719484977638849,-4.7475291964808554e-18,0.1697120607834532,-5.667322290439823e-18,-0.1697120607834532,0.3782617442877422,0.8448882207823644,0.3782617442877421,700.0,134.9999999999996,[0.340225]
-5.815218259000387e-18,0.15044196417953573,2.4650409803059338e-18,0.15044196417953573,6.503643588947678e-19,0.045291542337438685,2.4650409803059338e-18,0.045291542337438685,-2.2325831690486786e-18,0.15711177038497384,-4.225680066259632e-18,-0.15711177038497387,0.33463572329572683,0.8809301137937627,0.3346357232957267,700.0,134.9999999999996,[0.33702056]
-5.924261550045343e-18,0.11444241642308531,2.310231524340175e-18,0.11444241642308531,-1.40003963439174e-19,0.0629474141142764,2.310231524340175e-18,0.0629474141142764,-9.897707167685681e-20,0.13061180505769393,-4.831904197299225e-18,-0.13061180505769399,0.19712996955390472,0.9603538671798811,0.1971299695539049,700.0,134.9999999999996,[0.32023697]
-7.545641429767684e-18,-0.028321031732939244,3.0564467356465804e-18,-0.028321031732939244,-4.727165185947233e-18,0.10096781574100888,3.0564467356465804e-18,0.10096781574100888,1.5128792191592198e-19,0.10486458245722657,4.280584661881972e-18,-0.10486458245722656,0.6164562164097898,0.48986066028969166,0.6164562164097896,700.0,134.9999999999996,[0.30821095]
-6.604991489507083e-18,-0.021544388460167888,2.529233795368183e-18,-0.021544388460167888,-4.724746135019913e-18,0.09947341417000792,2.529233795368183e-18,0.09947341417000792,1.289894125180557e-18,0.1017797661657785,-1.4743282096570525e-17,-0.10177976616577852,0.6647906471798738,0.34074446561071103,0.6647906471798737,700.0,122.14285714285755,[0.26039737]
-3.693253281184177e-18,0.12271741994101396,8.653475079603973e-19,0.12271741994101396,-1.117172299232161e-19,0.061222874216412856,8.653475079603973e-19,0.061222874216412856,3.922550693814809e-18,0.13714155272672784,9.064871444823625e-19,-0.13714155272672796,0.06935236858390639,0.9951786261488961,0.06935236858390639,700.0,122.14285714285755,[0.34506524]
-2.253137418198491e-18,0.15749222351614287,1.0235420454866647e-19,0.15749222351614287,7.027610549717795e-19,0.04395732637856668,1.0235420454866647e-19,0.04395732637856668,4.64338653697497e-18,0.16351161124033523,4.400972398372117e-18,-0.1635116112403354,0.20139731282343337,0.9585813709722304,0.20139731282343332,700.0,122.14285714285755,[0.35041335]
-1.073475707892223e-18,0.1725513950435637,-4.324886820116627e-19,0.1725513950435637,1.0214091473524995e-18,0.0359903568781064,-4.324886820116627e-19,0.0359903568781064,4.9458500393398714e-18,0.17626482836826374,4.403923791609868e-18,-0.17626482836826363,0.24602827240250844,0.9375180949492519,0.24602827240250838,700.0,122.14285714285755,[0.35942509]
-2.874245833468633e-21,0.18076811775053508,-8.703202076103363e-19,0.18076811775053508,1.159900740288591e-18,0.031605131667118536,-8.703202076103363e-19,0.031605131667118536,5.10926024143397e-18,0.18351020882437893,5.062487967127023e-18,-0.18351020882437896,0.26746649523816174,0.9257015436143707,0.2674664952381619,700.0,122.14285714285755,[0.7112881]
1.0286493429319025e-18,0.1857263712680961,-1.2699301986447721e-18,0.1857263712680961,1.2232345670587951e-18,0.028982004197448202,-1.2699301986447721e-18,0.028982004197448202,5.193308615909411e-18,0.1879740448884248,5.4007968357828066e-18,-0.1879740448884249,0.2793932278255771,0.9186287871008673,0.2793932278255771,700.0,122.14285714285755,[0.71423808]
2.024350841294899e-18,0.1887856654177526,-1.6489207612820662e-18,0.1887856654177526,1.238270571557644e-18,0.027398896752785794,-1.6489207612820662e-18,0.027398896752785794,5.243983096101693e-18,0.19076353689972675,5.680637687667286e-18,-0.1907635368997269,0.2863096284606055,0.9143596629890779,0.2863096284606055,700.0,122.14285714285755,[0.71370315]
3.0200608182591744e-18,0.1905379450200311,-2.010291995593417e-18,0.1905379450200311,1.2268491007664075e-18,0.02653562540353992,-2.010291995593417e-18,0.02653562540353992,5.250969463555316e-18,0.19237683828364932,5.597838627802325e-18,-0.19237683828364943,0.29002198607783986,0.9120167186970483,0.2900219860778399,700.0,122.14285714285755,[0.71314988]
3.979393356437322e-18,0.19122942795628908,-2.3483389952215855e-18,0.19122942795628908,1.1918176399332688e-18,0.026258821905221837,-2.3483389952215855e-18,0.026258821905221837,5.2365229868016246e-18,0.19302388412924362,5.873910915686156e-18,-0.19302388412924382,0.2912560809566578,0.9112298231574392,0.29125608095665784,700.0,122.14285714285755,[0.71314988]
4.9571710916972136e-18,0.19089435690872142,-2.677414707349908e-18,0.19089435690872142,1.1261227876632454e-18,0.026551964268644195,-2.677414707349908e-18,0.026551964268644195,5.198738100203238e-18,0.19273209983320805,6.0563811319980195e-18,-0.1927320998332081,0.29013233229594104,0.9119465222879221,0.2901323322959409,700.0,122.14285714285755,[0.71314988]
5.901848367565183e-18,0.18936592225908397,-2.9882097602525512e-18,0.18936592225908397,1.0347825511318594e-18,0.02751011797731365,-2.9882097602525512e-18,0.02751011797731365,5.129749841249032e-18,0.19135375382824124,6.013629236588023e-18,-0.19135375382824127,0.2862193192591059,0.9144162086083711,0.28621931925910576,700.0,122.14285714285755,[0.71370315]
6.8248077062578436e-18,0.1861728545339489,-3.283402597064705e-18,0.1861728545339489,8.884946193637422e-19,0.029395296328429906,-3.283402597064705e-18,0.029395296328429906,5.001615919599994e-18,0.18847921692206576,6.018407984984131e-18,-0.1884792169220658,0.278222694655259,0.9193390366766403,0.278222694655259,700.0,122.14285714285755,[0.71423808]
7.715209216040416e-18,0.18018660498014577,-3.535208708918026e-18,0.18018660498014577,6.669106142463794e-19,0.03281830964608923,-3.535208708918026e-18,0.03281830964608923,4.795881599747942e-18,0.18315090516374105,5.969341914210082e-18,-0.18315090516374102,0.2628308384985608,0.928353327493518,0.2628308384985608,700.0,122.14285714285755,[0.7112881]
8.549707068292087e-18,0.16838045827104087,-3.717963369741987e-18,0.16838045827104087,2.861929340329917e-19,0.0393304387725632,-3.717963369741987e-18,0.0393304387725632,4.4132476231674305e-18,0.17291287442411019,6.604212031915663e-18,-0.17291287442411013,0.23015765465330534,0.9455447678502482,0.23015765465330532,700.0,122.14285714285755,[0.3608207]
9.151946356416553e-18,0.13971028688788903,-3.689089890521916e-18,0.13971028688788903,-6.169496613429552e-19,0.053767846242622486,-3.689089890521916e-18,0.053767846242622486,3.5506559255788905e-18,0.14969951754052724,7.087205073992287e-18,-0.14969951754052696,0.1360550455038977,0.981314449697886,0.13605504550389774,700.0,122.14285714285755,[0.35955739]
8.64883463514164e-18,0.012510531935823122,-2.9317491646001577e-18,0.012510531935823122,-5.302505979036978e-18,0.08391422638468685,-2.9317491646001577e-18,0.08391422638468685,4.358764131350706e-19,0.08484168078873569,2.22962135850717e-17,-0.08484168078873569,0.5367054328866034,0.6510718521177272,0.5367054328866032,700.0,122.14285714285755,[0.28191193]
9.14394255680949e-18,0.017967319201172924,-2.8641242382359324e-18,0.017967319201172924,-5.315206393839843e-18,0.07961850457769752,-2.8641242382359324e-18,0.07961850457769752,4.9875372021767655e-20,0.08162065198505632,1.0281746489823225e-17,-0.08162065198505628,0.5996441979996376,0.5299562921701588,0.5996441979996376,700.0,109.28571428571402,[0.30483751]
1.0205861931158887e-17,0.14641697976543283,-3.1034992633551317e-18,0.14641697976543283,-6.542324557718704e-19,0.048599061777355054,-3.1034992633551317e-18,0.048599061777355054,2.8698994904881555e-18,0.15427184049355988,6.667185938903793e-18,-0.15427184049355977,0.011397444687729734,0.9998700898162621,0.011397444687729658,700.0,109.28571428571402,[0.36615686]
1.0127723141774678e-17,0.1741526689829015,-2.6278261505120203e-18,0.1741526689829015,1.9286115354813338e-19,0.03502876370838136,-2.6278261505120203e-18,0.03502876370838136,3.413319542067018e-18,0.17764055393069939,4.661181163655266e-18,-0.17764055393069933,0.09734794363672597,0.9904780440471164,0.09734794363672591,700.0,109.28571428571402,[0.36927129]
9.904693535139302e-18,0.1859381447618659,-1.969434675856673e-18,0.1859381447618659,5.4534442911283e-19,0.02865429268761354,-1.969434675856673e-18,0.02865429268761354,3.4474782368810338e-18,0.18813309694711358,4.310832798253999e-18,-0.18813309694711355,0.129163038785782,0.9831753754154163,0.12916303878578192,700.0,109.28571428571402,[0.75789762]
9.601897247674213e-18,0.19232722841619124,-1.2463215333843196e-18,0.19232722841619124,7.241829034930604e-19,0.02503071454694669,-1.2463215333843196e-18,0.02503071454694669,3.299583345214319e-18,0.1939492187686883,3.658799868364594e-18,-0.19394921876868831,0.14545269644095843,0.9786148507947898,0.1454526964409584,700.0,109.28571428571402,[0.7592321]
9.274131479443445e-18,0.19616717354743068,-4.849646662584444e-19,0.19616717354743068,8.305775589854475e-19,0.022749883035636263,-4.849646662584444e-19,0.022749883035636263,3.0686659898268815e-18,0.1974819413407791,3.1653157860264386e-18,-0.19748194134077912,0.15510033075513976,0.9756473619086417,0.15510033075513982,700.0,109.28571428571402,[0.74728693]
8.923028361193142e-18,0.19852453853742902,2.904805891952434e-19,0.19852453853742902,8.90845179090108e-19,0.021250389355258064,2.904805891952434e-19,0.021250389355258064,2.7780614010879376e-18,0.19965863730189387,2.7952494287811615e-18,-0.1996586373018938,0.16117940823500373,0.9736746873170873,0.1611794082350037,700.0,109.28571428571402,[0.7481303]
8.580609450302514e-18,0.1998602509907718,1.082769380957876e-18,0.1998602509907718,9.166521866883454e-19,0.020278415802089868,1.082769380957876e-18,0.020278415802089868,2.4502834448678313e-18,0.20088637104974724,2.2938295019410426e-18,-0.2008863710497473,0.16497648528114667,0.9724019326433688,0.16497648528114667,700.0,109.28571428571402,[0.74631509]
8.2267783420908e-18,0.20036417450654095,1.8831776257481387e-18,0.20036417450654095,9.23735263187803e-19,0.019720453892362298,1.8831776257481387e-18,0.019720453892362298,2.09076160546039e-18,0.20133230919901654,1.792520655262461e-18,-0.20133230919901654,0.16704528754232906,0.9716952937108427,0.16704528754232909,700.0,109.28571428571402,[0.75154861]
7.856132047893165e-18,0.20005998793618934,2.6910447212960925e-18,0.20005998793618934,8.887602380444255e-19,0.01954677538251464,2.6910447212960925e-18,0.01954677538251464,1.7005800840041237e-18,0.20101262448135612,1.2582633544467409e-18,-0.2010126244813561,0.16753420668345823,0.9715269317841314,0.1675342066834582,700.0,109.28571428571402,[0.75154861]
7.476246197952102e-18,0.19881274498204174,3.50622626642371e-18,0.19881274498204174,8.461845442891566e-19,0.01980195532385128,3.50622626642371e-18,0.01980195532385128,1.2683441702930812e-18,0.19979645893243986,6.119175340414033e-19,-0.19979645893243986,0.1662436493139606,0.9719702146287991,0.16624364931396063,700.0,109.28571428571402,[0.75154861]
7.083335096796684e-18,0.1962449956887315,4.340151680610927e-18,0.1962449956887315,7.504266915352942e-19,0.02063507382728598,4.340151680610927e-18,0.02063507382728598,7.715368189814391e-19,0.1973268978237072,-6.786542169368437e-21,-0.19732689782370727,0.16246730095441816,0.9732465012735331,0.16246730095441822,700.0,109.28571428571402,[0.7481303]
6.68390819055861e-18,0.19144998639480434,5.199146132889774e-18,0.19144998639480434,5.643166242553006e-19,0.02240711595278783,5.199146132889774e-18,0.02240711595278783,1.9658749881010823e-19,0.19275677974040872,-8.649681800269311e-19,-0.19275677974040872,0.15437393300989533,0.9758777472686384,0.1543739330098954,700.0,109.28571428571402,[0.74728693]
6.224240822235596e-18,0.18196609745485873,6.1015661924630046e-18,0.18196609745485873,2.232811163936188e-19,0.026042696670697037,6.1015661924630046e-18,0.026042696670697037,-5.975834761973164e-19,0.1838202455466564,-2.157287666763481e-18,-0.18382024554665644,0.13662939131130766,0.9811548393907066,0.13662939131130772,700.0,109.28571428571402,[0.75894764]
5.642473116898475e-18,0.1585053262210802,7.122133639921379e-18,0.1585053262210802,-6.367854152734727e-19,0.034399783020338,7.122133639921379e-18,0.034399783020338,-1.9436085914055587e-18,0.162195201878161,-4.114534011751493e-18,-0.162195201878161,0.08667593227128823,0.992458848280273,0.08667593227128834,700.0,109.28571428571402,[0.36046106]
4.211486587839595e-18,0.04191372202765575,8.557142470418119e-18,0.04191372202765575,-5.28604523832795e-18,0.050698755805890464,8.557142470418119e-18,0.050698755805890464,-5.797132872560407e-18,0.06578087818262168,-2.31570471981695e-18,-0.06578087818262164,0.36559325018048194,0.8559691296097909,0.36559325018048194,700.0,109.28571428571402,[0.18485937]
4.199902698842614e-18,0.04496757673704987,8.307403017626471e-18,0.04496757673704987,-5.305330081892572e-18,0.04445156418781017,8.307403017626471e-18,0.04445156418781017,-6.019659592157442e-18,0.06322993370505363,-9.613398242683669e-18,-0.06322993370505364,0.43767630580996997,0.7854163880802817,0.4376763058099698,700.0,96.42857142857196,[0.1995892]
5.382542517848014e-18,0.16230961874965916,6.939430049422308e-18,0.16230961874965916,-6.987066938228362e-19,0.02680758780930538,6.939430049422308e-18,0.02680758780930538,-2.334447734373502e-18,0.16450853808484633,-4.5401805651301315e-18,-0.1645085380848463,0.0363898921520509,0.9986748978012435,0.036389892152050844,700.0,96.42857142857196,[0.35586608]
5.707832534505411e-18,0.1853076292972385,5.952509732421112e-18,0.1853076292972385,1.035339886687787e-19,0.019620725562267773,5.952509732421112e-18,0.019620725562267773,-1.1754526146839888e-18,0.18634347412064795,-2.3728299652795805e-18,-0.186343474120648,0.0047452646635682515,0.9999774822097474,0.004745264663568293,700.0,96.42857142857196,[0.7408143]
5.9115690839311764e-18,0.19483545312807854,5.0522982822419025e-18,0.19483545312807854,4.1415026231477254e-19,0.016101558062895913,5.0522982822419025e-18,0.016101558062895913,-5.854050252856689e-19,0.19549965209093467,-1.3931626888004528e-18,-0.1954996520909347,0.021029988406681917,0.9995576417472029,0.02102998840668196,700.0,96.42857142857196,[0.75191625]
6.0887167397470374e-18,0.1999090907228947,4.191400913888574e-18,0.1999090907228947,5.435268289637154e-19,0.013957426986412223,4.191400913888574e-18,0.013957426986412223,-2.064406933210809e-19,0.20039574427051987,-7.6151690866894435e-19,-0.20039574427051984,0.03003874213877518,0.9990972665068405,0.030038742138775214,700.0,96.42857142857196,[0.75080532]
6.250125991939371e-18,0.20289056768132865,3.3427286949929985e-18,0.20289056768132865,5.955778895604764e-19,0.012470588256635046,3.3427286949929985e-18,0.012470588256635046,7.430805134399078e-20,0.20327345627385382,-3.2367068334335825e-19,-0.20327345627385382,0.0359143063461351,0.9987093296847449,0.03591430634613512,700.0,96.42857142857196,[0.75015026]
6.3990526233991835e-18,0.20465221040185416,2.5062474461937703e-18,0.20465221040185416,6.112713168537844e-19,0.01135149693637637,2.5062474461937703e-18,0.01135149693637637,2.864150998821218e-19,0.20496678683401695,2.0926354633941395e-20,-0.20496678683401698,0.040134489435849595,0.9983879233621807,0.04013448943584961,700.0,96.42857142857196,[0.77839455]
6.541465569426659e-18,0.20556569641976796,1.6733174727879275e-18,0.20556569641976796,5.838244285379221e-19,0.010462974280302231,1.6733174727879275e-18,0.010462974280302231,4.665048303416808e-19,0.20583179874677887,3.1197778130023025e-19,-0.20583179874677887,0.04335038974034171,0.9981189745810474,0.04335038974034172,700.0,96.42857142857196,[0.77839455]
6.682246384707991e-18,0.205778730479227,8.432101449780837e-19,0.205778730479227,5.42539270631968e-19,0.00973385436066449,8.432101449780837e-19,0.00973385436066449,6.113241093945586e-19,0.20600881980720384,5.441470971841912e-19,-0.2060088198072038,0.04588191254103566,0.9978926295965681,0.04588191254103566,700.0,96.42857142857196,[0.77839455]
6.8110850900883186e-18,0.20529974222213893,2.1250189964924153e-20,0.20529974222213893,4.700514027609189e-19,0.00912709179928773,2.1250189964924153e-20,0.00912709179928773,7.214171572603298e-19,0.20550252543749756,7.298180741890933e-19,-0.20550252543749753,0.047885080245775355,0.997704384163822,0.047885080245775355,700.0,96.42857142857196,[0.77839455]
6.931786457891444e-18,0.2040005853623729,-7.988119493823359e-19,0.2040005853623729,3.6825989913305154e-19,0.008627943677206325,-7.988119493823359e-19,0.008627943677206325,7.845700188844924e-19,0.20418295776163065,8.661029706758597e-19,-0.20418295776163067,0.04940853747834663,0.9975558093903827,0.04940853747834663,700.0,96.42857142857196,[0.74269478]
7.059539902308101e-18,0.2015393383667577,-1.6164495399592592e-18,0.2015393383667577,2.233276162225065e-19,0.008243030863954236,-1.6164495399592592e-18,0.008243030863954236,7.891209081208178e-19,0.20170783937947112,9.338713570676678e-19,-0.20170783937947112,0.05038964000591093,0.9974576524144518,0.05038964000591092,700.0,96.42857142857196,[0.75080532]
7.14551079962348e-18,0.19710068347208348,-2.435698694050318e-18,0.19710068347208348,7.977171499922278e-22,0.008012016651047265,-2.435698694050318e-18,0.008012016651047265,6.959967208891418e-19,0.19726345793374686,9.01108399053718e-19,-0.1972634579337468,0.05056637491069532,0.9974397643250353,0.05056637491069533,700.0,96.42857142857196,[0.75080532]
7.228213196145933e-18,0.18846023577610024,-3.242451350323171e-18,0.18846023577610024,-4.005308466201863e-19,0.008049719547120348,-3.242451350323171e-18,0.008049719547120348,3.814792970688731e-19,0.18863207164628876,6.711104862042051e-19,-0.18863207164628876,0.04911325016651672,0.9975849724791179,0.0491132501665167,700.0,96.42857142857196,[0.75080532]
7.208907421034404e-18,0.16705390158141611,-4.034162802329984e-18,0.16705390158141611,-1.3097631973645368e-18,0.008669855331040399,-4.034162802329984e-18,0.008669855331040399,-5.250458627828276e-19,0.1672787267557792,-8.793195348284626e-20,-0.1672787267557792,0.04264637702805122,0.9981796296522799,0.04264637702805118,700.0,96.42857142857196,[0.35586608]
6.410373675756526e-18,0.05401066619762021,-4.8105794869012686e-18,0.05401066619762021,-6.0065581660097245e-18,0.007891650266722759,-4.8105794869012686e-18,0.007891650266722759,-4.032400511806398e-18,0.05458415710664608,-2.470741190421082e-18,-0.05458415710664608,0.023250010316819746,0.9994592908370683,0.023250010316819936,700.0,96.42857142857196,[0.19803144]
6.262884167213447e-18,0.05405166913803188,-5.284332130315688e-18,0.05405166913803188,-6.1699442570814366e-18,0.0009301984443492493,-5.284332130315688e-18,0.0009301984443492493,-3.690353069634293e-18,0.05405967263823503,-3.505551622289172e-18,-0.05405967263823504,0.09124971833965627,0.9916385318279373,0.0912497183396564,700.0,83.57142857142804,[0.1987338]
6.737134729735772e-18,0.16718825028575385,-4.823527569596172e-18,0.16718825028575385,-1.7763152561649027e-18,0.00015759491080450573,-4.823527569596172e-18,0.00015759491080450573,5.067909043172743e-19,0.16718832456175814,5.158899213821897e-19,-0.16718832456175817,0.07983314648556858,0.9936062285656363,0.07983314648556862,700.0,83.57142857142804,[0.34038933]
6.431625289861508e-18,0.18868606810929275,-4.379426449547286e-18,0.18868606810929275,-1.188967306404969e-18,0.0007787454958435114,-4.379426449547286e-18,0.0007787454958435114,2.096052782570859e-18,0.18868767512238835,2.132272998543612e-18,-0.18868767512238832,0.08207016365080981,0.9932416505949893,0.08207016365080985,700.0,83.57142857142804,[0.73826114]
6.033326037593496e-18,0.19741720885525796,-3.957166935022047e-18,0.19741720885525796,-1.1194242289795899e-18,0.0008128611387580519,-3.957166935022047e-18,0.0008128611387580519,3.096020607114766e-18,0.19741888231734936,3.128657084457636e-18,-0.1974188823173494,0.08206333485049783,0.9932427790557705,0.08206333485049788,700.0,83.57142857142804,[0.73826114]
5.614402587715123e-18,0.20194598517078433,-3.5375195252008984e-18,0.20194598517078433,-1.2054803759812632e-18,0.0005736480608577573,-3.5375195252008984e-18,0.0005736480608577573,3.884362013830526e-18,0.20194679992190115,3.904472744736355e-18,-0.20194679992190115,0.08116649168632244,0.9933901556058767,0.08116649168632246,700.0,83.57142857142804,[0.73532856]
5.175410288610142e-18,0.20449680531468353,-3.1253171884103642e-18,0.20449680531468353,-1.368047089726279e-18,0.00017592100771392696,-3.1253171884103642e-18,0.00017592100771392696,4.567974677727012e-18,0.20449688098382462,4.573352295408841e-18,-0.2044968809838246,0.07977528364318452,0.993615523348593,0.07977528364318455,700.0,83.57142857142804,[0.72721802]
4.723933249122321e-18,0.20588496006533297,-2.705772912825082e-18,0.20588496006533297,-1.588539408689941e-18,-0.00034065469974077376,-2.705772912825082e-18,-0.00034065469974077376,5.184302221701145e-18,0.2058852418866593,5.175346945325693e-18,-0.2058852418866593,0.07800811994687966,0.9938961044519223,0.0780081199468797,700.0,83.57142857142804,[0.76877448]
4.265402013370648e-18,0.20645232752154402,-2.3024063052725437e-18,0.20645232752154402,-1.835213515923986e-18,-0.0009694504114641014,-2.3024063052725437e-18,-0.0009694504114641014,5.763460107582175e-18,0.20645460366182972,5.741801806711133e-18,-0.2064546036618297,0.07587047867299992,0.9942270067403417,0.07587047867299994,700.0,83.57142857142804,[0.77097038]
3.802531853414616e-18,0.2063270050187159,-1.896123820629477e-18,0.2063270050187159,-2.1044067219151022e-18,-0.0017251956161705604,-1.896123820629477e-18,-0.0017251956161705604,6.314942779064472e-18,0.20633421747230213,6.283056464065316e-18,-0.20633421747230216,0.07329300728992583,0.9946136285838828,0.07329300728992584,700.0,83.57142857142804,[0.7756766]
3.3418300957356046e-18,0.20550051328078156,-1.495335701451741e-18,0.20550051328078156,-2.40154539772071e-18,-0.002644916818886541,-1.495335701451741e-18,-0.002644916818886541,6.825051466044605e-18,0.20551753342146628,6.7860797032625505e-18,-0.20551753342146628,0.0701213620518498,0.9950708463059236,0.0701213620518498,700.0,83.57142857142804,[0.77728163]
2.8751572831060898e-18,0.20382510071350557,-1.092751145508551e-18,0.20382510071350557,-2.7252729671362224e-18,-0.003799756053039289,-1.092751145508551e-18,-0.003799756053039289,7.28401670019923e-18,0.20386051561529336,7.241837142340872e-18,-0.20386051561529336,0.06606019527484226,0.9956264867913566,0.06606019527484226,700.0,83.57142857142804,[0.73603839]
2.4030581656582275e-18,0.2009290504632385,-7.037662660163454e-19,0.2009290504632385,-3.0974305720117797e-18,-0.0053268640839113255,-7.037662660163454e-19,-0.0053268640839113255,7.691704413645627e-18,0.20099964875846704,7.651472461979393e-18,-0.20099964875846704,0.06052122033054217,0.996330449087753,0.060521220330542184,700.0,83.57142857142804,[0.74344102]
1.907081187359315e-18,0.19594001501454034,-3.34825594815782e-19,0.19594001501454034,-3.542571446781535e-18,-0.007515756177177154,-3.34825594815782e-19,-0.007515756177177154,7.998328259675455e-18,0.1960841045949749,7.964915938599486e-18,-0.19608410459497494,0.052180209086011356,0.9972735089028889,0.052180209086011356,700.0,83.57142857142804,[0.74344102]
1.3568496394782024e-18,0.18649599888755614,6.1859013821223264e-21,0.18649599888755614,-4.168680382112062e-18,-0.011084152606956168,6.1859013821223264e-21,-0.011084152606956168,8.101870528228295e-18,0.18682509478140685,8.07463641921817e-18,-0.18682509478140685,0.037343201484286666,0.9986045116089791,0.037343201484286666,700.0,83.57142857142804,[0.74344102]
7.230445187932542e-19,0.16358122455053797,2.5164322997406984e-19,0.16358122455053797,-5.2942806759715094e-18,-0.01832472614273485,2.5164322997406984e-19,-0.01832472614273485,7.627376735831789e-18,0.1646044124975383,7.595267673185777e-18,-0.16460441249753832,0.00045441775024981413,0.999999793504487,0.00045441775024984194,700.0,83.57142857142804,[0.3446874]
-7.816825252365259e-19,0.04632290354663726,1.096794510971461e-19,0.04632290354663726,-1.0219243946017671e-17,-0.0360270951418366,1.096794510971461e-19,-0.0360270951418366,4.628159498991061e-18,0.05868358354216284,2.9252825621789974e-18,-0.05868358354216286,0.36888337933473714,0.8531413159032734,0.3688833793347371,700.0,83.57142857142804,[0.17550402]
-1.2068653025088758e-18,0.04333722462343188,1.7097768493067243e-19,0.04333722462343188,-1.0131442200738679e-17,-0.042323753193398386,1.7097768493067243e-19,-0.042323753193398386,4.241049350847992e-18,0.06057569745729296,5.6507086466873094e-18,-0.06057569745729298,0.2992437616605546,0.9060388193750213,0.29924376166055444,700.0,70.71428571428592,[0.19382336]
-2.4917761297878954e-19,0.16000300109846222,9.871052564915865e-19,0.16000300109846222,-5.044575799975703e-18,-0.02607034094645486,9.871052564915865e-19,-0.02607034094645486,6.198936966631989e-18,0.1621129946598325,6.379411317372379e-18,-0.16211299465983245,0.12317013783984643,0.9847122596418847,0.1231701378398464,700.0,70.71428571428592,[0.33544682]
-1.9009024066774852e-19,0.18353488950122096,1.3939363662525484e-18,0.18353488950122096,-3.742963188002866e-18,-0.01776278021512192,1.3939363662525484e-18,-0.01776278021512192,5.633049151577235e-18,0.18439244026042964,5.8878893298258645e-18,-0.1843924402604295,0.1681623279499008,0.9713098696692729,0.16816232794990077,700.0,70.71428571428592,[0.72929047]
-2.6068307491394274e-19,0.19308784536579252,1.6721975687893459e-18,0.19308784536579252,-2.9485737565343706e-18,-0.014180905578377624,1.6721975687893459e-18,-0.014180905578377624,4.515035881080746e-18,0.19360788752276342,4.745450504224884e-18,-0.19360788752276345,0.18402928529937018,0.9655394576631272,0.18402928529937018,700.0,70.71428571428592,[0.73513]
-3.57326411588846e-19,0.1979500888718679,1.9101677294201127e-18,0.1979500888718679,-2.3412565811128527e-18,-0.01246677956779378,1.9101677294201127e-18,-0.01246677956779378,3.195977487151889e-18,0.19834227556719314,3.4280390230902757e-18,-0.1983422755671931,0.19112977636679376,0.9627766185216375,0.19112977636679376,700.0,70.71428571428592,[0.72356157]
-4.7404283679099705e-19,0.20058327822613653,2.1245161094540743e-18,0.20058327822613653,-1.7976974274817624e-18,-0.011695769876624825,2.1245161094540743e-18,-0.011695769876624825,1.7820960062601424e-18,0.20092397203158874,2.014865460465152e-18,-0.2009239720315888,0.1942957245020772,0.961508368596148,0.1942957245020771,700.0,70.71428571428592,[0.70352013]
-6.059486761838828e-19,0.20189416112732472,2.323670438562227e-18,0.20189416112732472,-1.2990396214410508e-18,-0.011506857966305233,2.323670438562227e-18,-0.011506857966305233,3.0608068563541357e-19,0.20222180910466334,5.58113494186294e-19,-0.2022218091046633,0.19518617019017515,0.9611476046544485,0.19518617019017515,700.0,70.71428571428592,[0.69855339]
-7.595639741507993e-19,0.20226016835496102,2.510614919438372e-18,0.20226016835496102,-8.271066315869926e-19,-0.011750921370021495,2.510614919438372e-18,-0.011750921370021495,-1.2094067632421566e-18,0.20260123359945667,-9.198316239012788e-19,-0.20260123359945664,0.19443852181627336,0.9614506344414181,0.19443852181627336,700.0,70.71428571428592,[0.70352013]
-8.952767055178071e-19,0.20181622385405548,2.690640397997616e-18,0.20181622385405548,-3.8800172605877886e-19,-0.012383336271603205,2.690640397997616e-18,-0.012383336271603205,-2.753790345102589e-18,0.20219578439701905,-2.4243348498247195e-18,-0.20219578439701907,0.19222811305342005,0.9623391840218516,0.19222811305342005,700.0,70.71428571428592,[0.70904809]
-1.0516009165932582e-18,0.20053862760565566,2.860897997971254e-18,0.20053862760565566,2.654994503528064e-20,-0.013433777017528589,2.860897997971254e-18,-0.013433777017528589,-4.334125316034896e-18,0.2009880780716023,-3.943489241696167e-18,-0.2009880780716023,0.18841042502175584,0.9638480292485132,0.18841042502175584,700.0,70.71428571428592,[0.72933252]
-1.247541392143288e-18,0.198237499081189,3.015367846212359e-18,0.198237499081189,4.128845661176413e-19,-0.015015694248858475,3.015367846212359e-18,-0.015015694248858475,-5.9494567735700666e-18,0.1988053749669249,-5.468394375678092e-18,-0.19880537496692488,0.18246500927374684,0.9661330347221664,0.1824650092737468,700.0,70.71428571428592,[0.73391942]
-1.4228576700829566e-18,0.19445190211497476,3.1613924776673302e-18,0.19445190211497476,7.346472196868221e-19,-0.017382845813298117,3.1613924776673302e-18,-0.017382845813298117,-7.625293649480136e-18,0.19522731767019855,-7.030234071499567e-18,-0.1952273176701986,0.17318799309828456,0.9695420764944537,0.1731879930982846,700.0,70.71428571428592,[0.74445725]
-1.6521656809651867e-18,0.18811528743310066,3.2667022696304826e-18,0.18811528743310066,1.009472866489874e-18,-0.02109658317451645,3.2667022696304826e-18,-0.02109658317451645,-9.378046276539966e-18,0.18929455139458556,-8.627224289083912e-18,-0.18929455139458554,0.157704022032091,0.9748122295446461,0.1577040220320909,700.0,70.71428571428592,[0.72516725]
-1.90806682475796e-18,0.1763804571382245,3.3077777146329346e-18,0.1763804571382245,1.1009577691555773e-18,-0.02756501181420692,3.3077777146329346e-18,-0.02756501181420692,-1.1319498653657844e-17,0.17852141478435138,-1.0063434346626994e-17,-0.17852141478435124,0.1276862518423336,0.9835611024135269,0.1276862518423336,700.0,70.71428571428592,[0.34302039]
-2.3655509532517176e-18,0.14869381642289253,3.1615601287598014e-18,0.14869381642289253,6.877290248172801e-19,-0.04123310166646975,3.1615601287598014e-18,-0.04123310166646975,-1.3772922890386843e-17,0.154304956872559,-1.1223429010368988e-17,-0.15430495687255907,0.046701536459048905,0.9978165828371105,0.0467015364590488,700.0,70.71428571428592,[0.33813144]
-3.918601785269269e-18,0.020292566842594527,2.307683969612225e-18,0.020292566842594527,-3.5381558177312335e-18,-0.07235455361638682,2.307683969612225e-18,-0.07235455361638682,-1.85014621396538e-17,0.07514632191989014,-7.590506308933232e-18,-0.07514632191989018,0.5795646819574876,0.5728957661346717,0.5795646819574878,700.0,70.71428571428592,[0.2423511]
-4.1198286687165485e-18,0.01486651197706364,2.2797806940869093e-18,0.01486651197706364,-3.3854392514998563e-18,-0.07673899736646254,2.2797806940869093e-18,-0.07673899736646254,-1.8934524716989512e-17,0.07816576549343145,-1.5293687640116836e-18,-0.07816576549343146,0.5162449058573737,0.6833611009946517,0.516244905857374,700.0,57.857142857142705,[0.24691422]
-2.444211176614565e-18,0.14209770815810163,3.475887115246662e-18,0.14209770815810163,1.1303464558814722e-18,-0.04667707833454917,3.475887115246662e-18,-0.04667707833454917,-1.555695307756368e-17,0.14956773818452518,-1.1806637486137166e-17,-0.14956773818452496,0.1705645021931663,0.9704717930899356,0.1705645021931663,700.0,57.857142857142705,[0.33003005]
-1.9338926442527845e-18,0.17079570498966898,3.939696412772451e-18,0.17079570498966898,1.8498225433615668e-18,-0.03232703063344278,3.939696412772451e-18,-0.03232703063344278,-1.443157137264345e-17,0.17382810403526122,-1.2664056997737768e-17,-0.17382810403526114,0.2582951567367644,0.9308959254463738,0.25829515673676423,700.0,57.857142857142705,[0.34738979]
-1.6099592037999747e-18,0.18262693200058586,4.199527520736033e-18,0.18262693200058586,2.061668344997799e-18,-0.025905521663715868,4.199527520736033e-18,-0.025905521663715868,-1.3789404231447415e-17,0.18445512284730903,-1.2343859695044763e-17,-0.184455122847309,0.2883878728388649,0.9130525010090873,0.2883878728388648,700.0,57.857142857142705,[0.69877041]
-1.3560335741051306e-18,0.188635735989605,4.38433983210781e-18,0.188635735989605,2.0823031408597584e-18,-0.022576430906882577,4.38433983210781e-18,-0.022576430906882577,-1.3320533341436406e-17,0.18998193631193774,-1.2095835752906656e-17,-0.18998193631193788,0.30238854596488457,0.9039481923973773,0.30238854596488457,700.0,57.857142857142705,[0.70118122]
-1.1430850243900917e-18,0.19184890441887967,4.532660243576198e-18,0.19184890441887967,2.0585132454969743e-18,-0.0207884428142758,4.532660243576198e-18,-0.0207884428142758,-1.2935231784928593e-17,0.1929719188933116,-1.1862626187076262e-17,-0.1929719188933117,0.30951487209588385,0.8991112767076926,0.3095148720958838,700.0,57.857142857142705,[0.69990499]
-9.325528760394733e-19,0.1933950223543157,4.658139303199853e-18,0.1933950223543157,1.963161835691908e-18,-0.01993068944408931,4.658139303199853e-18,-0.01993068944408931,-1.2604600249465635e-17,0.19441930730548082,-1.1548646107212338e-17,-0.19441930730548082,0.31284388619070697,0.896803995166275,0.31284388619070697,700.0,57.857142857142705,[0.69829097]
-7.494574814266264e-19,0.1937453855754063,4.768000381833766e-18,0.1937453855754063,1.856756449469778e-18,-0.01974108964078406,4.768000381833766e-18,-0.01974108964078406,-1.2295199131604461e-17,0.1947485174576904,-1.1249698661848362e-17,-0.19474851745769042,0.3135747493446165,0.8962933410144927,0.31357474934461654,700.0,57.857142857142705,[0.69829097]
-5.929170660185692e-19,0.1930668281740235,4.862294616041898e-18,0.1930668281740235,1.7102652962272628e-18,-0.020124504048897904,4.862294616041898e-18,-0.020124504048897904,-1.2022699006158374e-17,0.19411284296612646,-1.0951039502978136e-17,-0.19411284296612635,0.31210393598400515,0.897319489527885,0.312103935984005,700.0,57.857142857142705,[0.69990499]
-4.366818802565442e-19,0.19132513357224074,4.9467024037246676e-18,0.19132513357224074,1.5519708701796811e-18,-0.021097376822485265,4.9467024037246676e-18,-0.021097376822485265,-1.1771359349853524e-17,0.19248482029818803,-1.0563122495848687e-17,-0.19248482029818806,0.30831349685960957,0.8999364284817007,0.3083134968596097,700.0,57.857142857142705,[0.69990499]
-2.907142806429867e-19,0.18827411394962665,5.013237034955714e-18,0.18827411394962665,1.350198176775087e-18,-0.022792996117964953,5.013237034955714e-18,-0.022792996117964953,-1.155379844104289e-17,0.18964878764587606,-1.0192588740461613e-17,-0.18964878764587612,0.30151869588269214,0.9045291327903162,0.30151869588269203,700.0,57.857142857142705,[0.70118122]
-1.7788105482646584e-19,0.18332186164767772,5.045873953318354e-18,0.18332186164767772,1.0941645548373341e-18,-0.025531466096930598,5.045873953318354e-18,-0.025531466096930598,-1.1382770215699908e-17,0.18509122269580763,-9.813738917230933e-18,-0.1850912226958076,0.29001921804650765,0.9120184791589394,0.2900192180465075,700.0,57.857142857142705,[0.69877041]
-9.675779779216532e-20,0.17510891825060357,5.048886506335181e-18,0.17510891825060357,7.805114184349098e-19,-0.030034790909288768,5.048886506335181e-18,-0.030034790909288768,-1.12790239308038e-17,0.17766604041251458,-9.30344145910463e-18,-0.17766604041251471,0.2695733132244662,0.9244784787080593,0.26957331322446615,700.0,57.857142857142705,[0.33877518]
-1.355897916484672e-19,0.16005139219558936,4.957870443824559e-18,0.16005139219558936,2.922298306215487e-19,-0.03812256785052612,4.957870443824559e-18,-0.03812256785052612,-1.1328301561435421e-17,0.16452895891989452,-8.052056740429132e-18,-0.16452895891989452,0.22723646940062478,0.946956796241876,0.2272364694006247,700.0,57.857142857142705,[0.33506947]
-4.242861651871308e-19,0.12527632157900798,4.628639069875886e-18,0.12527632157900798,-7.018141011914682e-19,-0.05551168332340854,4.628639069875886e-18,-0.05551168332340854,-1.1780211009588454e-17,0.13702446399736595,-4.312309535007457e-18,-0.13702446399736587,0.10139203106170147,0.9896662629767501,0.1013920310617013,700.0,57.857142857142705,[0.30615405]
-2.2099474232849533e-18,-0.0189868742964298,3.4064078922871634e-18,-0.0189868742964298,-5.495284598700789e-18,-0.09388905425720423,3.4064078922871634e-18,-0.09388905425720423,-1.41531044315475e-17,0.09578964403765508,-1.4191396073398015e-19,-0.09578964403765505,0.6614138598886707,0.35364305718385003,0.6614138598886707,700.0,57.857142857142705,[0.24839573]
-2.6511229622191918e-18,-0.02578198018017261,3.544847553790423e-18,-0.02578198018017261,-5.4612133394624596e-18,-0.09549229497229172,3.544847553790423e-18,-0.09549229497229172,-1.389520233785296e-17,0.09891152056806113,7.483216054444393e-18,-0.09891152056806117,0.6130442361818482,0.49835080913792884,0.6130442361818481,700.0,45.00000000000011,[0.29371445]
-1.136759987836205e-18,0.11695979676483681,5.19401525433473e-18,0.11695979676483681,-5.898202569015355e-19,-0.057573976112524114,5.19401525433473e-18,-0.057573976112524114,-1.1625391750239967e-17,0.13036240556493814,-4.250156962529584e-18,-0.13036240556493822,0.22777203441037383,0.9466994246756038,0.22777203441037364,700.0,45.00000000000011,[0.31199441]
-1.1636201966870269e-18,0.15293441587219087,5.936838760173378e-18,0.15293441587219087,4.854211197069702e-19,-0.04002178312281816,5.936838760173378e-18,-0.04002178312281816,-1.1231819318184813e-17,0.15808440366620008,-7.803644450645806e-18,-0.15808440366620016,0.3571276803111793,0.8630872724766087,0.35712768031117936,700.0,45.00000000000011,[0.3146781]
-1.4768027707184852e-18,0.1680509553645286,6.429477554175106e-18,0.1680509553645286,1.0624068939229213e-18,-0.032030796156580325,6.429477554175106e-18,-0.032030796156580325,-1.1221462706722919e-17,0.17107628561947216,-8.644954068900568e-18,-0.1710762856194721,0.3975424142376457,0.8269945935519821,0.39754241423764575,700.0,45.00000000000011,[0.32645804]
-1.8838095464996895e-18,0.1757942827962302,6.8353466076472286e-18,0.1757942827962302,1.4495906999145985e-18,-0.02774456479057397,6.8353466076472286e-18,-0.02774456479057397,-1.134461439029558e-17,0.1779701962106557,-8.9922059912992e-18,-0.1779701962106558,0.4159396380909073,0.8086955143498757,0.41593963809090717,700.0,45.00000000000011,[0.33466995]
-2.3644105813797366e-18,0.17997226014404266,7.194873481224178e-18,0.17997226014404266,1.7857121297054945e-18,-0.025292348508335727,7.194873481224178e-18,-0.025292348508335727,-1.1540910967099313e-17,0.18174079705564755,-9.440521404344672e-18,-0.1817407970556476,0.42555087834336075,0.7986318926028365,0.42555087834336053,700.0,45.00000000000011,[0.35029564]
-2.853320645512879e-18,0.18202174871254012,7.53376396920143e-18,0.18202174871254012,2.065378792882376e-18,-0.023934421274744464,7.53376396920143e-18,-0.023934421274744464,-1.1759022984993061e-17,0.1835885985733538,-9.619367408950774e-18,-0.18358859857335383,0.43054778092505214,0.7932573458096854,0.430547780925052,700.0,45.00000000000011,[0.6770441]
-3.3838775991268415e-18,0.18254762583743975,7.853833817034066e-18,0.18254762583743975,2.309261519362637e-18,-0.023347653078491258,7.853833817034066e-18,-0.023347653078491258,-1.2016119611566127e-17,0.1840346396827496,-9.912479320088073e-18,-0.18403463968274963,0.43252719442760057,0.7911007850844146,0.43252719442760046,700.0,45.00000000000011,[0.61206997]
-3.9380389787006165e-18,0.18176739381624593,8.154793427497164e-18,0.18176739381624593,2.5162580909800508e-18,-0.023405233942454223,8.154793427497164e-18,-0.023405233942454223,-1.2286366548722408e-17,0.18326808350242343,-1.0108365917078315e-17,-0.18326808350242346,0.4320505699828995,0.7916215067536401,0.43205056998289937,700.0,45.00000000000011,[0.63319827]
-4.501119846819551e-18,0.1796431007595691,8.444926394039982e-18,0.1796431007595691,2.719926811595587e-18,-0.024107122189985817,8.444926394039982e-18,-0.024107122189985817,-1.258418589723692e-17,0.18125340545985769,-1.0246018671109049e-17,-0.1812534054598577,0.4290567070311666,0.7948714891749126,0.42905670703116666,700.0,45.00000000000011,[0.35029564]
-5.090179149256326e-18,0.17586921910577533,8.711184679207229e-18,0.17586921910577533,2.8780188110376404e-18,-0.025580045385286698,8.711184679207229e-18,-0.025580045385286698,-1.2896741054773757e-17,0.17771978210314274,-1.014111145012575e-17,-0.17771978210314274,0.42282623786153795,0.8015210197815877,0.4228262378615379,700.0,45.00000000000011,[0.33466995]
-5.735705936209034e-18,0.1697070510917806,8.94926963215062e-18,0.1697070510917806,2.994947201271758e-18,-0.028147054619642346,8.94926963215062e-18,-0.028147054619642346,-1.324180316961301e-17,0.1720254047343861,-1.0275504182596122e-17,-0.17202540473438618,0.4114508455617703,0.813275109279147,0.41145084556177025,700.0,45.00000000000011,[0.34692849]
-6.422269153350498e-18,0.159463528617614,9.150473199444384e-18,0.159463528617614,3.0287768203736456e-18,-0.03254780609288951,9.150473199444384e-18,-0.03254780609288951,-1.3645452419287861e-17,0.16275127231650427,-9.918967262753764e-18,-0.1627512723165043,0.3899070056973492,0.8342332130862775,0.38990700569734915,700.0,45.00000000000011,[0.32645804]
-7.241302036869877e-18,0.14071247861038685,9.252087646031487e-18,0.14071247861038685,2.908541775640847e-18,-0.040652996641785046,9.252087646031487e-18,-0.040652996641785046,-1.414901350643054e-17,0.14646729250121188,-8.179283865574252e-18,-0.14646729250121185,0.34157619854881094,0.8755863185145635,0.341576198548811,700.0,45.00000000000011,[0.32782819]
-8.462051048972573e-18,0.0979393931748773,9.116352128423542e-18,0.0979393931748773,2.2657027052934776e-18,-0.05831913190636412,9.116352128423542e-18,-0.05831913190636412,-1.4955362402437033e-17,0.11398791989406212,3.2814711031535787e-18,-0.11398791989406201,0.17379149170076597,0.9693260724982308,0.1737914917007656,700.0,45.00000000000011,[0.32212177]
-1.1551517697298928e-17,-0.06376001868746478,8.076407698850714e-18,-0.06376001868746478,-2.1565407138306202e-18,-0.09635161446802644,8.076407698850714e-18,-0.09635161446802644,-1.7266425624571387e-17,0.11553775830273431,-1.2317632646098135e-17,-0.11553775830273436,0.6928974367667906,0.19946499503427198,0.6928974367667907,700.0,45.00000000000011,[0.15036461]
-1.2404939787604589e-17,-0.07057891783603733,7.450862855461508e-18,-0.07057891783603733,-2.2177223006574923e-18,-0.09485496521491124,7.450862855461508e-18,-0.09485496521491124,-2.0899582579892362e-17,0.11823217865212558,-1.3457506815814532e-17,-0.11823217865212554,0.6592290831844377,0.36170987236680613,0.6592290831844376,700.0,32.14285714285738,[0.21008766]
-1.0395104311698769e-17,0.0895489839124846,7.102162890761127e-18,0.0895489839124846,2.124440729389581e-18,-0.056587844100705796,7.102162890761127e-18,-0.056587844100705796,-2.646812441329117e-17,0.10593018748083206,-1.376967116581637e-17,-0.105930187480832,0.30516909396784353,0.9020774069744186,0.30516909396784353,700.0,32.14285714285738,[0.25496467]
-1.0297430824968508e-17,0.13347198968680504,5.850419291859099e-18,0.13347198968680504,2.665468755582699e-18,-0.0393075294371328,5.850419291859099e-18,-0.0393075294371328,-3.350658439317018e-17,0.13913969204150792,-2.7732910921435322e-17,-0.13913969204150786,0.46805702487132883,0.7495633681932438,0.4680570248713288,700.0,32.14285714285738,[0.27167575]
-1.0617582809251031e-17,0.1522326777475001,4.3698244667187296e-18,0.1522326777475001,2.696415650249839e-18,-0.03132755954644255,4.3698244667187296e-18,-0.03132755954644255,-4.0811577682845413e-17,0.15542266295913904,-3.777907387086759e-17,-0.15542266295913906,0.5106069053181506,0.6917811622781025,0.5106069053181506,700.0,32.14285714285738,[0.28368906]
-1.110174485666812e-17,0.16195744077155025,2.802671601124433e-18,0.16195744077155025,2.5509906811181164e-18,-0.026931098988217845,2.802671601124433e-18,-0.026931098988217845,-4.821068344671387e-17,0.1641812922168157,-4.619753889843588e-17,-0.16418129221681554,0.5289049727298142,0.6637160986772501,0.5289049727298142,700.0,32.14285714285738,[0.28368906]
-1.1642340474196025e-17,0.167296444577898,1.190128543584784e-18,0.167296444577898,2.3458763589845672e-18,-0.024298509275031095,1.190128543584784e-18,-0.024298509275031095,-5.565596367314595e-17,0.1690518202250258,-5.431444685647176e-17,-0.16905182022502582,0.5384342101181826,0.6482107703122632,0.5384342101181825,700.0,32.14285714285738,[0.28368906]
-1.2243778534499656e-17,0.17002019337965316,-4.517822691338528e-19,0.17002019337965316,2.0761381379050065e-18,-0.02270772199236383,-4.517822691338528e-19,-0.02270772199236383,-6.313376781408301e-17,0.17152990058569123,-6.231782254334111e-17,-0.1715299005856913,0.5436516760610383,0.6394417176193993,0.5436516760610383,700.0,32.14285714285738,[0.30456113]
-1.2846234026956729e-17,0.1708803912052386,-2.1089280685250972e-18,0.1708803912052386,1.7841859814753342e-18,-0.021838561829093356,-2.1089280685250972e-18,-0.021838561829093356,-7.061949096861435e-17,0.17227022633414776,-7.01971823966467e-17,-0.17227022633414785,0.5462030350987689,0.6350783328832639,0.546203035098769,700.0,32.14285714285738,[0.31270669]
-1.3478805511155631e-17,0.17015391761521922,-3.774401974022314e-18,0.17015391761521922,1.478600234189563e-18,-0.021557667871969728,-3.774401974022314e-18,-0.021557667871969728,-7.812780111695205e-17,0.17151410648656573,-7.796441916395801e-17,-0.1715141064865656,0.5466911043488382,0.6342378677213272,0.5466911043488382,700.0,32.14285714285738,[0.30456113]
-1.4151802966251223e-17,0.16780659343786467,-5.457484874550165e-18,0.16780659343786467,1.1371839179001384e-18,-0.021848523964623924,-5.457484874550165e-18,-0.021848523964623924,-8.564472552418889e-17,0.16922296180085475,-8.589563575890671e-17,-0.16922296180085467,0.5451412380098757,0.6369003542487004,0.5451412380098758,700.0,32.14285714285738,[0.28095659]
-1.4858579168841032e-17,0.16348225942343525,-7.164471071732903e-18,0.16348225942343525,7.600218186198474e-19,-0.022806199892871665,-7.164471071732903e-18,-0.022806199892871665,-9.317257036987264e-17,0.16506535644933193,-9.355927051888085e-17,-0.16506535644933185,0.5410041901168656,0.643916867733707,0.5410041901168656,700.0,32.14285714285738,[0.28095659]
-1.5613920799555054e-17,0.15630867085687514,-8.881449300522551e-18,0.15630867085687514,3.2917321604302715e-19,-0.024692711877520264,-8.881449300522551e-18,-0.024692711877520264,-1.0073032772086756e-16,0.15824705559633379,-1.0140827212633077e-16,-0.15824705559633373,0.5326881697598493,0.657637154969063,0.5326881697598493,700.0,32.14285714285738,[0.28368906]
-1.643030835947549e-17,0.14428451377105345,-1.0643309005180831e-17,0.14428451377105345,-1.5719326770651461e-19,-0.028118872331729695,-1.0643309005180831e-17,-0.028118872331729695,-1.0831704797383039e-16,0.14699895202128982,-1.0915784867483139e-16,-0.14699895202128965,0.5157060192734082,0.6841743954360981,0.5157060192734081,700.0,32.14285714285738,[0.28368906]
-1.744801182815663e-17,0.12220255955101686,-1.2472647777765716e-17,0.12220255955101686,-8.144544388288994e-19,-0.03463596521553172,-1.2472647777765716e-17,-0.03463596521553172,-1.159682055965111e-16,0.1270162023020346,-1.1473065344057914e-16,-0.12701620230203445,0.473447362714226,0.7427618659287027,0.473447362714226,700.0,32.14285714285738,[0.25225228]
-1.894485801229789e-17,0.07210775640340099,-1.4516026719980266e-17,0.07210775640340099,-1.9920643276257293e-18,-0.04908016536507022,-1.4516026719980266e-17,-0.04908016536507022,-1.2382742809457033e-16,0.08722609223044933,-1.1092335845638226e-16,-0.08722609223044936,0.2832701174962786,0.9162511015367398,0.28327011749627806,700.0,32.14285714285738,[0.18055658]
-2.2694298984155803e-17,-0.1051470394923045,-1.728131192876641e-17,-0.1051470394923045,-6.958320240593036e-18,-0.07923522558922899,-1.728131192876641e-17,-0.07923522558922899,-1.328117609823089e-16,0.13165910864111238,-7.739052962638194e-17,-0.1316591086411125,0.7045670431934575,0.08467917861703958,0.7045670431934578,700.0,32.14285714285738,[0.12676705]
-2.274449230372552e-17,-0.11063851895085701,-1.7434424869607565e-17,-0.11063851895085701,-7.092282140795999e-18,-0.07493389175199752,-1.7434424869607565e-17,-0.07493389175199752,-1.321581625669389e-16,0.13362623248725983,-7.059409804831e-17,-0.13362623248726002,0.6835731971831611,0.2558424675177722,0.683573197183161,700.0,19.285714285714306,[0.21099758]
-1.860761316783757e-17,0.06530830618521712,-1.536312165408172e-17,0.06530830618521712,-2.402055571057025e-18,-0.04389454458279886,-1.536312165408172e-17,-0.04389454458279886,-1.2235771343452082e-16,0.07868866437367826,-1.0138543184327628e-16,-0.07868866437367833,0.4236599660998276,0.8006400353770639,0.42365996609982737,700.0,19.285714285714306,[0.193438]
-1.6741235625566822e-17,0.11627776726057283,-1.4001011042510103e-17,0.11627776726057283,-1.489113699775112e-18,-0.03030624364100111,-1.4001011042510103e-17,-0.03030624364100111,-1.136584311217711e-16,0.12016233837077094,-1.140303322698057e-16,-0.12016233837077103,0.5869479862190633,0.5576595044888709,0.5869479862190631,700.0,19.285714285714306,[0.26638339]
-1.5412062260312514e-17,0.13832003716131677,-1.2823422350216471e-17,0.13832003716131677,-1.1114428844181007e-18,-0.023915630030012847,-1.2823422350216471e-17,-0.023915630030012847,-1.0513316362166478e-16,0.1403723264751301,-1.0675711654428861e-16,-0.1403723264751301,0.6178790058953584,0.4862623449821374,0.6178790058953584,700.0,19.285714285714306,[0.2941394]
-1.423835252810387e-17,0.14988084892807152,-1.1710851811828306e-17,0.14988084892807152,-8.94729835735333e-19,-0.020277774455980346,-1.1710851811828306e-17,-0.020277774455980346,-9.667002731172853e-17,0.15124634545101243,-9.826376772537187e-17,-0.15124634545101248,0.6300892576029039,0.4538447475809789,0.6300892576029041,700.0,19.285714285714306,[0.3059662]
-1.3149835781543292e-17,0.15634707165824452,-1.0634938506068466e-17,0.15634707165824452,-7.360782486088874e-19,-0.017984544542378064,-1.0634938506068466e-17,-0.017984544542378064,-8.822995279727027e-17,0.15737805011660627,-8.966247075004567e-17,-0.15737805011660613,0.6363656899765395,0.4359786889761532,0.6363656899765395,700.0,19.285714285714306,[0.3059662]
-1.2140543085330588e-17,0.15978213715745773,-9.575545754900111e-18,0.15978213715745773,-6.432206074049096e-19,-0.0164745461212111,-9.575545754900111e-18,-0.0164745461212111,-7.980914166491714e-17,0.16062920663598065,-8.101574302584529e-17,-0.16062920663598065,0.6399539384797849,0.42534446422684646,0.6399539384797851,700.0,19.285714285714306,[0.3059662]
-1.1154040869354947e-17,0.16106874181234987,-8.527107356583796e-18,0.16106874181234987,-5.711864109413418e-19,-0.015493974923990236,-8.527107356583796e-18,-0.015493974923990236,-7.139965794387231e-17,0.1618122456674977,-7.245724272828231e-17,-0.16181224566749772,0.6419972227312524,0.41914094528060314,0.6419972227312524,700.0,19.285714285714306,[0.30350316]
-1.0203352265180401e-17,0.16054009372735392,-7.493498031903873e-18,0.16054009372735392,-5.208574337511654e-19,-0.014929334077538214,-7.493498031903873e-18,-0.014929334077538214,-6.299872065291638e-17,0.1612327718238024,-6.395510698686084e-17,-0.16123277182380247,0.6429340957416447,0.4162589303135091,0.6429340957416448,700.0,19.285714285714306,[0.30350316]
-9.289562533770622e-18,0.1581725510170851,-6.462428048306911e-18,0.1581725510170851,-5.091230495814881e-19,-0.014750904892126918,-6.462428048306911e-18,-0.014750904892126918,-5.4610399520663114e-17,0.15885888420352498,-5.5396903171613724e-17,-0.15885888420352495,0.642857070276438,0.41649678797223566,0.6428570702764383,700.0,19.285714285714306,[0.30350316]
-8.40724537030726e-18,0.15357806389873488,-5.438395303771243e-18,0.15357806389873488,-5.254019640365317e-19,-0.015003269868337539,-5.438395303771243e-18,-0.015003269868337539,-4.621549899381759e-17,0.15430916958374843,-4.6895127174233835e-17,-0.15430916958374838,0.6415570612937602,0.4204867110958782,0.6415570612937602,700.0,19.285714285714306,[0.30350316]
-7.579462570268293e-18,0.1457905403474115,-4.431234975780126e-18,0.1457905403474115,-5.928238014045039e-19,-0.015835514600062366,-4.431234975780126e-18,-0.015835514600062366,-3.7847526504633123e-17,0.14664803161801726,-3.8452979975657177e-17,-0.14664803161801734,0.6383050199162973,0.43027131335857194,0.6383050199162975,700.0,19.285714285714306,[0.3059662]
-6.866446117137385e-18,0.13258684304275795,-3.453749752264349e-18,0.13258684304275795,-7.158652631605416e-19,-0.017608628197890008,-3.453749752264349e-18,-0.017608628197890008,-2.9494272867268425e-17,0.13375101769727393,-2.99947599703956e-17,-0.1337510176972739,0.6308705818769912,0.45166870363616446,0.6308705818769913,700.0,19.285714285714306,[0.27570857]
-6.33304035349379e-18,0.10819461906982837,-2.5201455296663203e-18,0.10819461906982837,-1.0286917359382959e-18,-0.02124723011031411,-2.5201455296663203e-18,-0.02124723011031411,-2.118456532607097e-17,0.11026114629834897,-2.1442285705814268e-17,-0.11026114629834895,0.6099138664610005,0.5059744568623852,0.6099138664610005,700.0,19.285714285714306,[0.2733247]
-6.362885029994703e-18,0.0529026628979069,-1.7073868110931548e-18,0.0529026628979069,-1.8366685233902924e-18,-0.029609300434866197,-1.7073868110931548e-18,-0.029609300434866197,-1.299803490425001e-17,0.06062509722822503,-1.2538984937479366e-17,-0.060625097228225074,0.4683472371759151,0.7492007280157794,0.46834723717591525,700.0,19.285714285714306,[0.1270555]
-8.896969380163154e-18,-0.13494780653216765,-1.3060013479597076e-18,-0.13494780653216765,-6.4579810219362495e-18,-0.04591527861265492,-1.3060013479597076e-18,-0.04591527861265492,-5.684325612460302e-18,0.14254516230977846,-5.2870735130642176e-18,-0.14254516230977843,0.7070803804165577,0.008641253378529846,0.7070803804165577,700.0,19.285714285714306,[0.09109741]
-8.558367959498247e-18,-0.13802550717011364,-9.416843296165994e-19,-0.13802550717011364,-6.359357931862777e-18,-0.039660673414316526,-9.416843296165994e-19,-0.039660673414316526,-1.1330124460710335e-18,0.14361061814937004,-1.0307326921871638e-18,-0.14361061814936996,0.6971981712396615,0.16682152151369067,0.6971981712396614,700.0,6.428571428571418,[0.13383616]
-5.017161435044433e-18,0.04903810151572345,-1.174642378349296e-18,0.04903810151572345,-1.565624597713817e-18,-0.02199489285824086,-1.174642378349296e-18,-0.02199489285824086,3.760429239115068e-19,0.05374486684430331,-1.1186012437906256e-18,-0.053744866844303296,0.6087239893307398,0.5088322018372454,0.6087239893307398,700.0,6.428571428571418,[0.13257295]
-4.0306592190687916e-18,0.10475452843551715,-1.795394692365734e-18,0.10475452843551715,-5.868548661043212e-19,-0.014788303052875464,-1.795394692365734e-18,-0.014788303052875464,1.0346606712384785e-18,0.1057932187568337,5.393843690470934e-19,-0.10579321875683369,0.6846949425666076,0.24977123783057922,0.6846949425666077,700.0,6.428571428571418,[0.20393827]
-3.598725355528302e-18,0.129063840068632,-2.5064525886012706e-18,0.129063840068632,-1.136810859443877e-19,-0.011251446880810796,-2.5064525886012706e-18,-0.011251446880810796,1.5755276040073018e-18,0.12955334758381634,1.0839852624777234e-18,-0.12955334758381631,0.6931298643626668,0.19784332755284387,0.6931298643626669,700.0,6.428571428571418,[0.13131146]
-3.3740763360487007e-18,0.14194957122051893,-3.2536293262839355e-18,0.14194957122051893,1.9806012586969697e-19,-0.009091673851727208,-3.2536293262839355e-18,-0.009091673851727208,2.083158419763744e-18,0.14224042780839546,1.649612232535258e-18,-0.14224042780839546,0.6961634110338698,0.1752512775285094,0.6961634110338699,700.0,6.428571428571418,[0.13485827]
-3.238418715590004e-18,0.14928380046940787,-4.010344490405102e-18,0.14928380046940787,4.463135713091116e-19,-0.007591256203262716,-4.010344490405102e-18,-0.007591256203262716,2.578037419197069e-18,0.14947668799292266,2.1563559396873578e-18,-0.14947668799292266,0.6977331808073122,0.16228621876493882,0.6977331808073122,700.0,6.428571428571418,[0.13383616]
-3.162450448133134e-18,0.15332417367176235,-4.785000374831931e-18,0.15332417367176235,6.321645113375259e-19,-0.006460665548094599,-4.785000374831931e-18,-0.006460665548094599,3.0596219718254417e-18,0.15346023078131055,2.646227657952142e-18,-0.15346023078131055,0.6987045794542028,0.1537004271283961,0.6987045794542028,700.0,6.428571428571418,[0.13383616]
-3.1380320764505687e-18,0.1550426199883235,-5.557519651736536e-18,0.1550426199883235,7.927831339606227e-19,-0.005562737978540726,-5.557519651736536e-18,-0.005562737978540726,3.531710491021706e-18,0.1551423799825875,3.12553463641937e-18,-0.15514237998258756,0.6993700902081726,0.14752272314604412,0.6993700902081729,700.0,6.428571428571418,[0.13383616]
-3.172760427287995e-18,0.15481448973978493,-6.338670144742826e-18,0.15481448973978493,9.213865581554669e-19,-0.0048263200686457786,-6.338670144742826e-18,-0.0048263200686457786,4.0089539997954e-18,0.15488970139681651,3.606158061926506e-18,-0.1548897013968165,0.6998525013850123,0.14287390458121746,0.6998525013850122,700.0,6.428571428571418,[0.13383616]
-3.2123724524619344e-18,0.15263137431559576,-7.119159306849378e-18,0.15263137431559576,1.0166182077174719e-18,-0.004214376381783722,-7.119159306849378e-18,-0.004214376381783722,4.470461224595886e-18,0.1526895457906495,4.071860625636299e-18,-0.15268954579064947,0.7002077530439378,0.13934922014248807,0.7002077530439378,700.0,6.428571428571418,[0.13383616]
-3.297022807628161e-18,0.14809840871240262,-7.905278260204967e-18,0.14809840871240262,1.0942143666198463e-18,-0.003712171342309563,-7.905278260204967e-18,-0.003712171342309563,4.927627405541693e-18,0.14814492525638706,4.526684481176618e-18,-0.14814492525638706,0.7004561719891408,0.13682946409541327,0.7004561719891408,700.0,6.428571428571418,[0.13383616]
-3.444618298687223e-18,0.14021395802815934,-8.694924311692483e-18,0.14021395802815934,1.130570608902777e-18,-0.003326330714389806,-8.694924311692483e-18,-0.003326330714389806,5.379095966428235e-18,0.14025340816516343,4.961782561674949e-18,-0.14025340816516346,0.7005853381818389,0.13550043486748206,0.700585338181839,700.0,6.428571428571418,[0.13383616]
-3.702910408040581e-18,0.12666343536516247,-9.487402216007073e-18,0.12666343536516247,1.0830904417422332e-18,-0.0030965207837365476,-9.487402216007073e-18,-0.0030965207837365476,5.81157246045056e-18,0.12670127978623108,5.34233280289646e-18,-0.12670127978623108,0.7005158655822922,0.13621690106218134,0.7005158655822922,700.0,6.428571428571418,[0.12709902]
-4.168487361454827e-18,0.10143724018725164,-1.0284577265430046e-17,0.10143724018725164,8.682087709356578e-19,-0.003137563027016782,-1.0284577265430046e-17,-0.003137563027016782,6.224514257126833e-18,0.10148575268753086,5.5787412409891505e-18,-0.10148575268753088,0.6998770856692338,0.14263285003911394,0.6998770856692336,700.0,6.428571428571418,[0.12037677]
-5.222275757177982e-18,0.044100245942664755,-1.1101575284642546e-17,0.044100245942664755,1.3999866431337483e-19,-0.0037631843344126522,-1.1101575284642546e-17,-0.0037631843344126522,6.5362554689409174e-18,0.04426051568314909,4.57044788456203e-18,-0.04426051568314911,0.693384887048284,0.1960479452227867,0.6933848870482842,700.0,6.428571428571418,[0.07391127]
-8.892628336308476e-18,-0.14728927563834987,-1.193344477049783e-17,-0.14728927563834987,-4.374144314070211e-18,-0.0029926672415771715,-1.193344477049783e-17,-0.0029926672415771715,6.0744769288995136e-18,0.1473196754520204,6.5531389252565606e-18,-0.1473196754520204,0.7041239309400577,0.09175499852891769,0.7041239309400579,700.0,6.428571428571418,[0.13588144]
-8.844876853907014e-18,-0.1473466885683441,-1.1778438981921212e-17,-0.1473466885683441,-4.374686944552046e-18,0.003975297296161065,-1.1778438981921212e-17,0.003975297296161065,5.958625321027787e-18,0.14740030400460324,5.3131439773627e-18,-0.14740030400460333,0.7045402459565837,0.08512393115260573,0.7045402459565838,700.0,6.428571428571418,[0.13588144]
-5.0887886586466246e-18,0.04392813544288283,-1.1256343672383361e-17,0.04392813544288283,1.7309912370529678e-19,0.0047684797922404225,-1.1256343672383361e-17,0.0047684797922404225,6.190871167253076e-18,0.044186191089720106,8.476732781541019e-18,-0.04418619108972015,0.6900130234194792,0.21854989138185005,0.690013023419479,700.0,6.428571428571418,[0.09797553]
-3.943838341975226e-18,0.1011506827869522,-1.071890209453112e-17,0.1011506827869522,9.154176228552842e-19,0.004165508118086384,-1.071890209453112e-17,0.004165508118086384,5.650953837827463e-18,0.10123641679824742,6.514053458808563e-18,-0.10123641679824741,0.698807990066716,0.15275727818284976,0.698807990066716,700.0,6.428571428571418,[0.12037677]
-3.3925257724310834e-18,0.12626277672999667,-1.0165198559426393e-17,0.12626277672999667,1.1541750348625902e-18,0.0041472057450719375,-1.0165198559426393e-17,0.0041472057450719375,5.0163474893216806e-18,0.12633086757820094,5.674460490660222e-18,-0.12633086757820094,0.6996828859737044,0.1445258390427682,0.6996828859737045,700.0,6.428571428571418,[0.12709902]
-3.047412785984159e-18,0.13969963806641322,-9.603169037866013e-18,0.13969963806641322,1.223089106055608e-18,0.004399855962283829,-9.603169037866013e-18,0.004399855962283829,4.35243909479682e-18,0.13976890787430407,4.9488702805593146e-18,-0.13976890787430407,0.6998201430317326,0.14319055420694218,0.6998201430317325,700.0,6.428571428571418,[0.13383616]
-2.8151669397588706e-18,0.14747096067811624,-9.037748075794166e-18,0.14747096067811624,1.2024691477458861e-18,0.004808625735378985,-9.037748075794166e-18,0.004808625735378985,3.671980470575998e-18,0.1475493379340939,4.253350754116818e-18,-0.14754933793409394,0.6997072195367652,0.14429003380780528,0.6997072195367654,700.0,6.428571428571418,[0.13383616]
-2.631757836898713e-18,0.15189142377277534,-8.469698747325932e-18,0.15189142377277534,1.1633997530537815e-18,0.005333831908436592,-8.469698747325932e-18,0.005333831908436592,2.9801266062366456e-18,0.15198504656231238,3.567336305557775e-18,-0.1519850465623125,0.6994493459556865,0.14676929135321423,0.6994493459556866,700.0,6.428571428571418,[0.13383616]
-2.4950149554763467e-18,0.15396275339861248,-7.899139752879211e-18,0.15396275339861248,1.0646410053598504e-18,0.00596883040563159,-7.899139752879211e-18,0.00596883040563159,2.2893580028609628e-18,0.15407840981296866,2.892267459691313e-18,-0.15407840981296866,0.6990662091087834,0.15037576455183743,0.6990662091087833,700.0,6.428571428571418,[0.13383616]
-2.3984267297097548e-18,0.15407990442555822,-7.327071567404888e-18,0.15407990442555822,9.46347560319867e-19,0.006728338326791809,-7.327071567404888e-18,0.006728338326791809,1.591535203221428e-18,0.15422674049732404,2.223667304451666e-18,-0.15422674049732407,0.6985377246614274,0.15520984005426952,0.6985377246614274,700.0,6.428571428571418,[0.13383616]
-2.326799506107563e-18,0.1522513739429566,-6.747983100071828e-18,0.1522513739429566,8.220851799797011e-19,0.007649373051459801,-6.747983100071828e-18,0.007649373051459801,8.834024244270319e-19,0.15244341171594922,1.5548646196327018e-18,-0.1524434117159492,0.697802808893694,0.16168636244328458,0.697802808893694,700.0,6.428571428571418,[0.13383616]
-2.2974974600884846e-18,0.14810189865793033,-6.166520624380739e-18,0.14810189865793033,6.457302733833955e-19,0.00880307078774274,-6.166520624380739e-18,0.00880307078774274,1.7526964563263593e-19,0.1483632920953761,8.955231798379892e-19,-0.14836329209537608,0.6967250944972265,0.1707286894334439,0.6967250944972266,700.0,6.428571428571418,[0.13383616]
-2.3354815938169196e-18,0.14065963497513412,-5.574646426319446e-18,0.14065963497513412,4.2759281968581154e-19,0.010326579622052271,-5.574646426319446e-18,0.010326579622052271,-5.469715256894644e-19,0.14103819042383003,2.589560630224141e-19,-0.14103819042383003,0.6949779003643715,0.18442189677546122,0.6949779003643715,700.0,6.428571428571418,[0.14083378]
-2.476565519093964e-18,0.12766702130005633,-4.9660863409417335e-18,0.12766702130005633,1.4325444720438354e-19,0.01250941473345265,-4.9660863409417335e-18,0.01250941473345265,-1.2844063505029388e-18,0.12827842291126962,-3.246428206618395e-19,-0.1282784229112697,0.6915910585756266,0.20833534360853956,0.6915910585756265,700.0,6.428571428571418,[0.20354082]
-2.8173374616862097e-18,0.10325206277045924,-4.326799804530126e-18,0.10325206277045924,-3.1906672331885426e-19,0.016069297017701427,-4.326799804530126e-18,0.016069297017701427,-2.0538563737446656e-18,0.10449502750369491,-7.657340359448607e-19,-0.10449502750369494,0.6821275871760295,0.2634462177121092,0.6821275871760297,700.0,6.428571428571418,[0.21343921]
-3.724615627313972e-18,0.04743131130284134,-3.594519969294082e-18,0.04743131130284134,-1.283863720021104e-18,0.023298892393335865,-3.594519969294082e-18,0.023298892393335865,-2.9415998420263757e-18,0.05284475072004119,-1.4069744551620689e-18,-0.05284475072004113,0.5957738912716225,0.5386157637482749,0.5957738912716228,700.0,6.428571428571418,[0.12984453]
-7.175745491783212e-18,-0.13973519345851043,-2.4756837445609825e-18,-0.13973519345851043,-6.0633530040219005e-18,0.040987767862598945,-2.4756837445609825e-18,0.040987767862598945,-4.6856142106433784e-18,0.14562253055501279,-6.6955564312331534e-18,-0.14562253055501295,0.6965368367496999,0.17225814959369629,0.6965368367496999,700.0,6.428571428571418,[0.13383616]
-7.28210106622283e-18,-0.13675889047454967,-2.0272335657296464e-18,-0.13675889047454967,-6.14149179340611e-18,0.04728389102422215,-2.0272335657296464e-18,0.04728389102422215,-4.988402019507189e-18,0.14470231675484818,-5.3792181698097e-18,-0.14470231675484807,0.7071018916659952,0.0037188176537258006,0.7071018916659952,700.0,19.28571428571425,[0.08644035]
-4.328020723114254e-18,0.05099300717086701,-2.8198810420698103e-18,0.05099300717086701,-1.5237063929920795e-18,0.031042641299042616,-2.8198810420698103e-18,0.031042641299042616,-3.582446441073258e-18,0.059698679710267655,-1.989609003538442e-18,-0.05969867971026763,0.44865810025293895,0.7729241994884413,0.44865810025293873,700.0,19.28571428571425,[0.12954743]
-3.8939163376464254e-18,0.10618803444448995,-3.1969413981347577e-18,0.10618803444448995,-7.097606702399003e-19,0.022744373049223953,-3.1969413981347577e-18,0.022744373049223953,-3.0484980469478286e-18,0.10859652464322446,-1.8906481573885503e-18,-0.10859652464322435,0.6037109227413374,0.5206402246519232,0.6037109227413374,700.0,19.28571428571425,[0.2733247]
-4.011124521722739e-18,0.130485122399963,-3.4495698018339653e-18,0.130485122399963,-4.1891073197645496e-19,0.019168965577124563,-3.4495698018339653e-18,0.019168965577124563,-2.633928358826052e-18,0.13188561865886025,-1.7276014372847268e-18,-0.13188561865886025,0.6263945558955286,0.4639609042676836,0.6263945558955286,700.0,19.28571428571425,[0.27570857]
-4.33887333275095e-18,0.14359555974899366,-3.659160825442651e-18,0.14359555974899366,-2.789120676630801e-19,0.017458482817447562,-3.659160825442651e-18,0.017458482817447562,-2.2665675226239018e-18,0.1446529757796704,-1.4212821700213551e-18,-0.14465297577967048,0.6343606434747604,0.4417840513424808,0.6343606434747603,700.0,19.28571428571425,[0.3059662]
-4.762125108582083e-18,0.15129176434954864,-3.84657182810634e-18,0.15129176434954864,-2.344163681526276e-19,0.01668828760414372,-3.84657182810634e-18,0.01668828760414372,-1.918741383767804e-18,0.15220938506924586,-1.1745092889355911e-18,-0.15220938506924586,0.6377969236572932,0.431775599526635,0.6377969236572932,700.0,19.28571428571425,[0.3059662]
-5.233128366814678e-18,0.15579693098929068,-4.017330857858725e-18,0.15579693098929068,-2.0945536598822748e-19,0.016497358476097613,-4.017330857858725e-18,0.016497358476097613,-1.588822050812254e-18,0.15666794995266475,-8.008317937459459e-19,-0.1566679499526648,0.6391232819120127,0.42783508626109196,0.6391232819120127,700.0,19.28571428571425,[0.3059662]
-5.747542063594055e-18,0.15807720422012672,-4.1754398145033354e-18,0.15807720422012672,-2.279048023706102e-19,0.016736573873727293,-4.1754398145033354e-18,0.016736573873727293,-1.2545616740020256e-18,0.15896073540054598,-4.219845495325384e-19,-0.15896073540054595,0.6391275269595299,0.4278224030660276,0.6391275269595297,700.0,19.28571428571425,[0.3059662]
-6.29451358928352e-18,0.15852068230449004,-4.3295129569393e-18,0.15852068230449004,-2.713152409173931e-19,0.01736131527352485,-4.3295129569393e-18,0.01736131527352485,-9.354949506831713e-19,0.1594685611219585,-6.456070354202277e-20,-0.15946856112195856,0.6380333917501713,0.4310763064975219,0.6380333917501714,700.0,19.28571428571425,[0.3059662]
-6.874042943883072e-18,0.1571510520333865,-4.469715107683363e-18,0.1571510520333865,-3.407719425922457e-19,0.01840126684631099,-4.469715107683363e-18,0.01840126684631099,-6.283660979646824e-19,0.15822471291409973,2.6762258977686947e-19,-0.15822471291409979,0.6357367623008557,0.4378099337822875,0.6357367623008555,700.0,19.28571428571425,[0.3059662]
-7.499153258956745e-18,0.1536351470981498,-4.604558782419307e-18,0.1536351470981498,-4.438717341408551e-19,0.01996989353797705,-4.604558782419307e-18,0.01996989353797705,-3.288340719918804e-19,0.154927580087563,7.325421944137953e-19,-0.15492758008756302,0.6317552892397214,0.44918872318355435,0.6317552892397212,700.0,19.28571428571425,[0.3059662]
-8.163332968722523e-18,0.14709031052266167,-4.713966653319246e-18,0.14709031052266167,-5.914672251999169e-19,0.022320971734064544,-4.713966653319246e-18,0.022320971734064544,-4.666622143779161e-20,0.14877427609908225,1.2397578142328788e-18,-0.14877427609908228,0.624832784895302,0.4681538014797731,0.624832784895302,700.0,19.28571428571425,[0.3059662]
-8.927356687145902e-18,0.13545314918516635,-4.7844747015526535e-18,0.13545314918516635,-8.106899398611706e-19,0.026015875013011946,-4.7844747015526535e-18,0.026015875013011946,2.0945536598822748e-19,0.13792889971601888,1.6298335558920878e-18,-0.1379288997160189,0.6113960211936423,0.5023841264781026,0.6113960211936426,700.0,19.28571428571425,[0.2941394]
-9.875874769393108e-18,0.11333683693011287,-4.795123824758661e-18,0.11333683693011287,-1.2068101916005644e-18,0.03246273255904146,-4.795123824758661e-18,0.03246273255904146,4.0263181752141137e-19,0.11789430694703984,2.3353546322786373e-18,-0.11789430694703983,0.5773184310361169,0.5774139402300507,0.5773184310361168,700.0,19.28571428571425,[0.26510806]
-1.1319271851073639e-17,0.06229570897529087,-4.6211768409254976e-18,0.06229570897529087,-2.1130030962646573e-18,0.04610653130516228,-4.6211768409254976e-18,0.04610653130516228,4.2759281968581154e-19,0.07750204891309677,5.996932465606919e-18,-0.07750204891309687,0.39753732503526723,0.8269994863405952,0.3975373250352676,700.0,19.28571428571425,[0.19229117]
-1.5065592697661003e-17,-0.1137202191085701,-3.7385205334109886e-18,-0.1137202191085701,-6.806756764135558e-18,0.0772009452867152,-3.7385205334109886e-18,0.0772009452867152,-6.609239268747695e-19,0.13744916946734725,-1.710228113294539e-17,-0.13744916946734737,0.6833767899344937,0.25688971555446444,0.6833767899344935,700.0,19.28571428571425,[0.21767187]
-1.439056037825853e-17,-0.10829400185952032,-3.3350408557617108e-18,-0.10829400185952032,-6.889236597374446e-18,0.08156936411296548,-3.3350408557617108e-18,0.08156936411296548,-7.368921943316396e-19,0.135577107214099,-1.2070669338729135e-17,-0.1355771072140991,0.7045801841629377,0.08446021649179968,0.7045801841629377,700.0,32.142857142857125,[0.12676705]
-9.825952765064308e-18,0.06890357815667071,-3.8044162225488004e-18,0.06890357815667071,-2.341993159598937e-18,0.05150222192191578,-3.8044162225488004e-18,0.05150222192191578,6.999933215668741e-19,0.08602431020174876,9.768584623078896e-18,-0.0860243102017487,0.254334378780271,0.9330745133915659,0.25433437878027093,700.0,32.142857142857125,[0.19859416]
-7.516517434375458e-18,0.11894299432286057,-3.543512704001612e-18,0.11894299432286057,-1.5909925727395932e-18,0.03714397501374094,-3.543512704001612e-18,0.03714397501374094,9.962695646486674e-19,0.12460782791746862,2.191777235403501e-18,-0.12460782791746855,0.4593642599427056,0.7602426937331137,0.4593642599427055,700.0,32.142857142857125,[0.25549634]
-5.678085361919202e-18,0.14097166636586775,-3.0856343205483968e-18,0.14097166636586775,-1.3565762045869654e-18,0.030711381752957574,-3.0856343205483968e-18,0.030711381752957574,1.0950283123425985e-18,0.14427820239781688,2.0493456765853435e-18,-0.1442782023978169,0.5049234702979314,0.7000746947894834,0.5049234702979315,700.0,32.142857142857125,[0.28368906]
-4.032829740996131e-18,0.15294472063786274,-2.5420542353703998e-18,0.15294472063786274,-1.2871195029121128e-18,0.02736836966278622,-2.5420542353703998e-18,0.02736836966278622,1.1221598364343378e-18,0.15537411376736085,1.8265478304150987e-18,-0.1553741137673609,0.5230965538351466,0.6728595624137234,0.5230965538351469,700.0,32.142857142857125,[0.28368906]
-2.4526897778932334e-18,0.1600694118500854,-1.9697486490602737e-18,0.1600694118500854,-1.3001426344761476e-18,0.025563665099206795,-1.9697486490602737e-18,0.025563665099206795,1.1134777487249812e-18,0.16209786421583924,1.6593616256169582e-18,-0.16209786421583927,0.5319029135467851,0.6589071111476055,0.5319029135467852,700.0,32.142857142857125,[0.28368906]
-9.420065164651888e-19,0.16434706562104412,-1.374516924892628e-18,0.16434706562104412,-1.3435530730229305e-18,0.024686443815226947,-1.374516924892628e-18,0.024686443815226947,1.0874314855969115e-18,0.1661907894153287,1.504726284196234e-18,-0.1661907894153287,0.5361998463541836,0.6519044788460194,0.5361998463541834,700.0,32.142857142857125,[0.28368906]
5.534830914714819e-19,0.1666499320230501,-7.571051797799854e-19,0.1666499320230501,-1.4325444720438354e-18,0.024474671768625753,-7.571051797799854e-19,0.024474671768625753,1.0494473518684764e-18,0.1684375534180819,1.3949459960714196e-18,-0.1684375534180818,0.5377062635548296,0.6494181613319793,0.5377062635548294,700.0,32.142857142857125,[0.28368906]
2.0337790459167785e-18,0.1673341722169221,-1.3168963506027966e-19,0.1673341722169221,-1.545411612265471e-18,0.024833260431909848,-1.3168963506027966e-19,0.024833260431909848,9.930137817576587e-19,0.1691668289446887,1.0670201913032992e-18,-0.16916682894468876,0.537012469090436,0.6505653050100255,0.5370124690904358,700.0,32.142857142857125,[0.28368906]
3.4641529960332752e-18,0.16643396529681595,5.077664733769011e-19,0.16643396529681595,-1.6799839717604981e-18,0.025778708399268345,5.077664733769011e-19,0.025778708399268345,9.278981239374843e-19,0.16841854592400513,7.453936846198986e-19,-0.1684185459240052,0.5340863104672353,0.6553652614710302,0.5340863104672354,700.0,32.142857142857125,[0.28368906]
4.868480683021701e-18,0.16367243086719288,1.1670285944010516e-18,0.16367243086719288,-1.8492846820929512e-18,0.027444361590587794,1.1670285944010516e-18,0.027444361590587794,8.421625078075882e-19,0.16595739697009884,6.213955264123108e-19,-0.1659573969700988,0.5282682107397529,0.6647295653449157,0.5282682107397528,700.0,32.142857142857125,[0.28368906]
6.227227409536007e-18,0.15829786506675497,1.8511499743742583e-18,0.15829786506675497,-2.057654787117509e-18,0.030150384782109556,1.8511499743742583e-18,0.030150384782109556,7.303806285496222e-19,0.16114359989525442,2.8541780902014355e-19,-0.1611435998952544,0.517762530043203,0.6810608819823109,0.5177625300432029,700.0,32.142857142857125,[0.28368906]
7.523029000157475e-18,0.1485397686568026,2.575527753218583e-18,0.1485397686568026,-2.3485047253809545e-18,0.034618844723644564,2.575527753218583e-18,0.034618844723644564,5.70847266890195e-19,0.15252057986585366,-1.598360660909201e-19,-0.15252057986585366,0.49770763515674427,0.7103338791113392,0.49770763515674427,700.0,32.142857142857125,[0.28250991]
8.675576143574561e-18,0.12974799708204368,3.3914744258725285e-18,0.12974799708204368,-2.8108258959041923e-18,0.042669401112931486,3.3914744258725285e-18,0.042669401112931486,3.212372452461934e-19,0.13658411524821717,-1.87230023023278e-18,-0.13658411524821723,0.4512304890526566,0.7699234322311546,0.4512304890526564,700.0,32.142857142857125,[0.25442876]
9.396189423451157e-18,0.08579624385635569,4.438717341408551e-18,0.08579624385635569,-3.772367109715433e-18,0.060018994089259564,4.438717341408551e-18,0.060018994089259564,-2.0185853924254047e-19,0.1047056594045701,1.951302480628897e-18,-0.10470565940457001,0.27495124694010536,0.9213053910686526,0.2749512469401054,700.0,32.142857142857125,[0.23557921]
8.215425494978662e-18,-0.07435769870733339,6.386557284764746e-18,-0.07435769870733339,-8.530151174442838e-18,0.09835454834938115,6.386557284764746e-18,0.09835454834938115,-2.1933124075762056e-18,0.12329916681819597,8.06866912002359e-18,-0.12329916681819601,0.6611650072107996,0.35457251230162556,0.6611650072107998,700.0,32.142857142857125,[0.20998984]
8.536662740224856e-18,-0.06756126128215796,6.668148590431885e-18,-0.06756126128215796,-8.506275433242108e-18,0.09992663191429235,6.668148590431885e-18,0.09992663191429235,-2.6556335780994434e-18,0.12062278305432389,2.4753926580340278e-17,-0.12062278305432382,0.6942630942324559,0.18973010297143691,0.694263094232456,700.0,45.0,[0.15782416]
9.747813975680098e-18,0.09412814820031402,5.141220328953911e-18,0.09412814820031402,-3.687716754549207e-18,0.06198783983401875,5.141220328953911e-18,0.06198783983401875,-9.97354825612337e-19,0.11270581427285925,4.883784990693911e-19,-0.1127058142728592,0.14258496144876787,0.9794585532513905,0.14258496144876792,700.0,45.0,[0.30943213]
9.092316353623677e-18,0.13689259180649851,4.517466590084824e-18,0.13689259180649851,-2.6610598829177913e-18,0.04441302787816448,4.517466590084824e-18,0.04441302787816448,-8.345656810619012e-19,0.14391698557434854,-2.655915653760424e-18,-0.14391698557434843,0.3212948199243601,0.8908082158240046,0.32129481992435993,700.0,45.0,[0.32036725]
8.046124784646209e-18,0.15563684337764783,4.138405284118111e-18,0.15563684337764783,-2.1531577519204315e-18,0.03639740654410979,4.138405284118111e-18,0.03639740654410979,-9.810759111572934e-19,0.15983616055103333,-2.240119246750576e-18,-0.15983616055103333,0.3730051961410408,0.8495494378219361,0.3730051961410407,700.0,45.0,[0.3167911]
6.865360856173715e-18,0.1658755157068546,3.851794646494e-18,0.1658755157068546,-1.799362677764151e-18,0.03208460811690419,3.851794646494e-18,0.03208460811690419,-1.2252596279829471e-18,0.16895001861210399,-2.2281427434394695e-18,-0.16895001861210399,0.395948188372574,0.8285228205963633,0.39594818837257395,700.0,45.0,[0.32645804]
5.6194812698810454e-18,0.17203480044803632,3.6131050632969236e-18,0.17203480044803632,-1.5389000464834535e-18,0.02960396383493426,3.6131050632969236e-18,0.02960396383493426,-1.5269621758830882e-18,0.17456336167688724,-2.6029055685657467e-18,-0.17456336167688735,0.4079631465757923,0.816781575497365,0.4079631465757923,700.0,45.0,[0.34692849]
4.3453848985329675e-18,0.17580776254260533,3.3943910647123905e-18,0.17580776254260533,-1.306654200258165e-18,0.02821581633303099,3.3943910647123905e-18,0.02821581633303099,-1.8568815088386382e-18,0.17805757962405436,-2.7755814253587364e-18,-0.17805757962405433,0.41445005183490596,0.810223616705961,0.4144500518349059,700.0,45.0,[0.33466995]
3.0430717421294808e-18,0.17793308997776072,3.193126027559357e-18,0.17793308997776072,-1.1178187925796595e-18,0.027597102792062414,3.193126027559357e-18,0.027597102792062414,-2.220443931667945e-18,0.18006050258607395,-3.0774346173112552e-18,-0.18006050258607395,0.4174596455817219,0.8071275541211356,0.4174596455817218,700.0,45.0,[0.33466995]
1.7190533664526027e-18,0.17871629887134366,3.014515813022925e-18,0.17871629887134366,-9.528591261018845e-19,0.027621079266833055,3.014515813022925e-18,0.027621079266833055,-2.595944225097617e-18,0.18083815831327218,-3.420211984759614e-18,-0.18083815831327216,0.4177636540147769,0.806812901959583,0.4177636540147768,700.0,45.0,[0.34598207]
3.7332977150233287e-19,0.1781953302456265,2.8418406193815618e-18,0.1781953302456265,-8.204572885341968e-19,0.028287768906333655,2.8418406193815618e-18,0.028287768906333655,-2.9931497378006804e-18,0.18042664324053162,-3.69141425963221e-18,-0.18042664324053148,0.41542523500658146,0.8092241643941765,0.4154252350065815,700.0,45.0,[0.33466995]
-1.0027811304306848e-18,0.17615267324012182,2.6934650970048624e-18,0.17615267324012182,-7.032491044578829e-19,0.0297239626961465,2.6934650970048624e-18,0.0297239626961465,-3.4098899478497966e-18,0.17864287908562992,-4.131969442771733e-18,-0.17864287908563004,0.40983640460078646,0.8149038243423581,0.4098364046007866,700.0,45.0,[0.33705577]
-2.413620383201129e-18,0.17198344679043207,2.5691009734493524e-18,0.17198344679043207,-6.403039685650477e-19,0.032252773395711656,2.5691009734493524e-18,0.032252773395711656,-3.874381640300373e-18,0.17498156291916156,-4.757852339038819e-18,-0.17498156291916153,0.3992725606733594,0.8253259020451722,0.3992725606733595,700.0,45.0,[0.34692849]
-3.8635290306636774e-18,0.16425079663962344,2.4904704251909804e-18,0.16425079663962344,-6.511565782017434e-19,0.036613916408163624,2.4904704251909804e-18,0.036613916408163624,-4.393136380934429e-18,0.16828221258200457,-5.494863897257483e-18,-0.1682822125820044,0.37923461509415923,0.8440155291395829,0.37923461509415923,700.0,45.0,[0.33471192]
-5.4263048183478615e-18,0.14914689733233202,2.4978637655059794e-18,0.14914689733233202,-8.291393762435533e-19,0.04467814330187306,2.4978637655059794e-18,0.04467814330187306,-5.059486612627546e-18,0.1556950014379521,-7.248665684473557e-18,-0.15569500143795206,0.3354916762439933,0.8802787458197495,0.3354916762439933,700.0,45.0,[0.32782819]
-7.28427158815017e-18,0.1131870279463609,2.7595812297759197e-18,0.1131870279463609,-1.5237063929920795e-18,0.06230200171271021,2.7595812297759197e-18,0.06230200171271021,-6.099166615822996e-18,0.1292007844896494,-7.462623241736079e-18,-0.12920078448964928,0.19692228044376622,0.9604390823626733,0.1969222804437663,700.0,45.0,[0.29596636]
-1.0644239531671165e-17,-0.029537267670107288,3.912620132067168e-18,-0.029537267670107288,-6.003663651020074e-18,0.1002908863987136,3.912620132067168e-18,0.1002908863987136,-9.020689130021485e-18,0.10455004579652388,7.565116247871234e-18,-0.10455004579652388,0.6208899913898338,0.4785302886796868,0.6208899913898339,700.0,45.0,[0.29371445]
-1.0583464917705669e-17,-0.02272429508407961,3.345342356315293e-18,-0.02272429508407961,-5.873432335379725e-18,0.09876331227491553,3.345342356315293e-18,0.09876331227491553,-8.864411551253067e-18,0.10134389689853456,-2.039023145042715e-18,-0.10134389689853454,0.6678346534099614,0.32862402743803404,0.6678346534099613,700.0,57.8571428571429,[0.25302634]
-7.68798866663525e-18,0.12157113092527581,1.197229372155669e-18,0.12157113092527581,-1.1134777487249812e-18,0.06047814229340597,1.197229372155669e-18,0.06047814229340597,-5.013905652153424e-18,0.1357834510156226,-6.8031563005820435e-18,-0.1357834510156228,0.07015393043344909,0.9950662551254955,0.07015393043344903,700.0,57.8571428571429,[0.31097686]
-6.272808370010129e-18,0.15637909061478544,-5.96554385967118e-20,0.15637909061478544,-1.606186226230967e-19,0.04317879324158629,-5.96554385967118e-20,0.04317879324158629,-3.0734590491122288e-18,0.16223078674316702,-2.8566463278399647e-18,-0.16223078674316707,0.2032793041519505,0.9577865362422873,0.20327930415195036,700.0,57.8571428571429,[0.33430478]
-5.122431748520381e-18,0.17147091330189,-1.0769858488215918e-18,0.17147091330189,2.8433837248142795e-19,0.035178887578798765,-1.0769858488215918e-18,0.035178887578798765,-1.545411612265471e-18,0.17504236127253892,-1.5166718031554231e-18,-0.175042361272539,0.24819990075459225,0.936372585315707,0.24819990075459233,700.0,57.8571428571429,[0.35606665]
-4.0588760041242004e-18,0.179719741976344,-2.0031034664905558e-18,0.179719741976344,5.730177888175342e-19,0.030761622565299275,-2.0031034664905558e-18,0.030761622565299275,-1.64959666477775e-19,0.18233338443327818,2.6990319292534354e-19,-0.18233338443327812,0.2697995181944794,0.924346493455811,0.2697995181944795,700.0,57.8571428571429,[0.46116725]
-3.0430717421294808e-18,0.18470951918419584,-2.8897913489130717e-18,0.18470951918419584,7.705352842053963e-19,0.02810737815747096,-2.8897913489130717e-18,0.02810737815747096,1.139524011853051e-18,0.18683584020241908,1.910281075731453e-18,-0.1868358402024191,0.28185059012802777,0.9171262125187378,0.28185059012802793,700.0,57.8571428571429,[0.69985861]
-2.0619958309721874e-18,0.18779972073145298,-3.754083006057985e-18,0.18779972073145298,9.376654726105105e-19,0.02649409849114883,-3.754083006057985e-18,0.02649409849114883,2.400597251637094e-18,0.18965935875055154,3.353751806746974e-18,-0.18965935875055145,0.28887710430248376,0.9127431386866867,0.28887710430248376,700.0,57.8571428571429,[0.69877041]
-1.0939430513789289e-18,0.1895822603928052,-4.603225522368237e-18,0.1895822603928052,1.0635557443961809e-18,0.02560161701098018,-4.603225522368237e-18,0.02560161701098018,3.62911266251105e-18,0.19130310046944418,4.772568958704475e-18,-0.19130310046944432,0.29269360675137146,0.9103081374643134,0.2926936067513715,700.0,57.8571428571429,[0.69877041]
-1.3891340334970526e-19,0.19030332787457932,-5.4336981586628605e-18,0.19030332787457932,1.1677407969084598e-18,0.025296578560357396,-5.4336981586628605e-18,0.025296578560357396,4.833752332184275e-18,0.19197727336067663,6.098816656231273e-18,-0.1919772733606767,0.29403009816669307,0.9094463165817814,0.294030098166693,700.0,57.8571428571429,[0.69877041]
8.074341569701619e-19,0.18999714044345578,-6.254556061107475e-18,0.18999714044345578,1.2437090643653299e-18,0.02556247015968328,-6.254556061107475e-18,0.02556247015968328,6.0123457387294306e-18,0.19170903280063506,7.617469636429446e-18,-0.1917090328006351,0.2930102517188815,0.9101043812526537,0.29301025171888145,700.0,57.8571428571429,[0.69877041]
1.740758585725994e-18,0.18849686572266436,-7.054747372935333e-18,0.18849686572266436,1.2958015906214693e-18,0.02649436244186412,-7.054747372935333e-18,0.02649436244186412,7.151869750582482e-18,0.19034972978302073,8.875433513679148e-18,-0.19034972978302078,0.28920638220421185,0.9125345675560476,0.28920638220421185,700.0,57.8571428571429,[0.69877041]
2.643695707499078e-18,0.18533121402743405,-7.83114349027461e-18,0.18533121402743405,1.291460546766791e-18,0.02835427022153394,-7.83114349027461e-18,0.02835427022153394,8.252324367743428e-18,0.18748766234789516,1.0538788655625695e-17,-0.18748766234789516,0.28132973987812415,0.917445995642367,0.281329739878124,700.0,57.8571428571429,[0.69985861]
3.511904478434736e-18,0.1793716188241656,-8.575524409185633e-18,0.1793716188241656,1.2176628012372601e-18,0.031753001943574506,-8.575524409185633e-18,0.031753001943574506,9.259446542028791e-18,0.18216045337018247,1.2214613259424795e-17,-0.1821604533701825,0.2660782303916368,0.9265013494989146,0.2660782303916368,700.0,57.8571428571429,[0.46082259]
4.328020723114254e-18,0.1675913493409147,-9.245974044596987e-18,0.1675913493409147,9.680527795932585e-19,0.038241833410360575,-9.245974044596987e-18,0.038241833410360575,1.00972680059817e-17,0.17189909306478113,1.3528658119497103e-17,-0.17189909306478107,0.23357965423536847,0.9438649745882997,0.2335796542353684,700.0,57.8571428571429,[0.35539528]
4.909720599641145e-18,0.13894626483977005,-9.701749734933092e-18,0.13894626483977005,2.1054062695189705e-19,0.05265691919558539,-9.701749734933092e-18,0.05265691919558539,1.045323360206532e-17,0.148589419717872,1.405182331029103e-17,-0.14858941971787207,0.13961348059184636,0.9803143128987051,0.13961348059184628,700.0,57.8571428571429,[0.33250719]
4.3887953370797504e-18,0.011770795340904036,-9.440074663669545e-18,0.011770795340904036,-4.3301912450415935e-18,0.08278194298169621,-9.440074663669545e-18,0.08278194298169621,8.558367959498247e-18,0.08361460223419265,6.992354711813433e-18,-0.08361460223419262,0.5398023260214129,0.6459310316463707,0.5398023260214128,700.0,57.8571428571429,[0.25838222]
5.07468026611892e-18,0.017249213022904223,-9.348946657126416e-18,0.017249213022904223,-4.2390293240933494e-18,0.07846534061748549,-9.348946657126416e-18,0.07846534061748549,8.482399692041377e-18,0.08033893843042456,1.0984575680860854e-17,-0.08033893843042457,0.6017182669238893,0.5252335237779684,0.6017182669238895,700.0,70.71428571428567,[0.27325143]
6.502883694308078e-18,0.14571809705298383,-9.038316142079837e-18,0.14571809705298383,5.10072652924699e-19,0.04742560696690077,-9.038316142079837e-18,0.04742560696690077,1.0718037277200696e-17,0.15324148265049434,1.4740632899358344e-17,-0.15324148265049448,0.015519821874388417,0.9997591061140553,0.015519821874388395,700.0,70.71428571428567,[0.34619497]
6.8241209395542715e-18,0.1734725264504982,-8.021502926532956e-18,0.1734725264504982,1.4585907351719052e-18,0.033836101136440304,-8.021502926532956e-18,0.033836101136440304,1.0672456316726574e-17,0.1767416169814971,1.336172782047456e-17,-0.17674161698149715,0.1014481766005106,0.9896547554217395,0.10144817660051057,700.0,70.71428571428567,[0.3440552]
6.971716430613333e-18,0.18527625413584836,-6.8210262500875574e-18,0.18527625413584836,1.892695120639734e-18,0.02744347531673462,-6.8210262500875574e-18,0.02744347531673462,1.0121143747182431e-17,0.18729771670811074,1.2057192636899907e-17,-0.18729771670811074,0.13322850200401526,0.9820897782318745,0.1332285020040152,700.0,70.71428571428567,[0.73195225]
7.062878351561577e-18,0.19168309735967928,-5.5469214001382e-18,0.19168309735967928,2.161839839629788e-18,0.023802763222602902,-5.5469214001382e-18,0.023802763222602902,9.380995769959783e-18,0.19315532959365,1.0725161153727712e-17,-0.19315532959365014,0.1495147552896081,0.9773897256986984,0.14951475528960806,700.0,70.71428571428567,[0.72432388]
7.10628879010836e-18,0.19554030650267304,-4.249610618489128e-18,0.19554030650267304,2.3680394227270068e-18,0.021505784803529104,-4.249610618489128e-18,0.021505784803529104,8.567050047207604e-18,0.19671936927302058,9.431242992244342e-18,-0.19671936927302056,0.15917831722892806,0.9743328623465048,0.15917831722892803,700.0,70.71428571428567,[0.72516725]
7.149699228655142e-18,0.19791443749793092,-2.9303063451231893e-18,0.19791443749793092,2.5134643918587295e-18,0.01999109607159373,-2.9303063451231893e-18,0.01999109607159373,7.685818144707911e-18,0.19892151339728464,8.243760858282818e-18,-0.1989215133972846,0.1652856010788035,0.9722969403181506,0.16528560107880344,700.0,70.71428571428567,[0.72405695]
7.184427579492569e-18,0.19926641620576835,-1.5983350414469201e-18,0.19926641620576835,2.628502054007704e-18,0.019004843021386934,-1.5983350414469201e-18,0.019004843021386934,6.772028413298132e-18,0.2001706489117673,7.065407112074274e-18,-0.20017064891176728,0.16911998784774201,0.9709772702904838,0.16911998784774204,700.0,70.71428571428567,[0.72929047]
7.210473842620638e-18,0.1997861051321245,-2.5437499556261335e-19,0.1997861051321245,2.717493453028609e-18,0.018433480014838962,-2.5437499556261335e-19,0.018433480014838962,5.8169987652689076e-18,0.20063469537774803,5.911944702592064e-18,-0.20063469537774803,0.17123444093614762,0.9702358128179818,0.17123444093614762,700.0,70.71428571428567,[0.72929047]
7.23217906189403e-18,0.19949718263771138,1.0994371850075061e-18,0.19949718263771138,2.7869501547034617e-18,0.018247241043398622,1.0994371850075061e-18,0.018247241043398622,4.842434419893632e-18,0.200329947052557,4.654789906444458e-18,-0.20032994705255697,0.17177858572686014,0.9700434191165669,0.17177858572686017,700.0,70.71428571428567,[0.72952429]
7.227838018039352e-18,0.19826470249434874,2.4582347831294826e-18,0.19826470249434874,2.821678505540888e-18,0.018490663005989408,2.4582347831294826e-18,0.018490663005989408,3.822289114044234e-18,0.199125078464702,3.4077622073230426e-18,-0.19912507846470195,0.17055657906754604,0.9704745780666034,0.170556579067546,700.0,70.71428571428567,[0.72929047]
7.221326452257334e-18,0.19571121534705918,3.83619402014125e-18,0.19571121534705918,2.8108258959041923e-18,0.019312787677000978,3.83619402014125e-18,0.019312787677000978,2.7413691942293397e-18,0.19666180000315234,2.0389040857987538e-18,-0.1966618000031522,0.1668704172455019,0.9717553847016358,0.1668704172455019,700.0,70.71428571428567,[0.72929047]
7.201791754911282e-18,0.19092996863419426,5.231195245723141e-18,0.19092996863419426,2.7218344968832874e-18,0.021074561779838366,5.231195245723141e-18,0.021074561779838366,1.5692873534662018e-18,0.19208953661474293,5.177432592132044e-19,-0.1920895366147429,0.15890796638552046,0.9744211186332306,0.15890796638552046,700.0,70.71428571428567,[0.72516725]
7.123652965527073e-18,0.18145934429311236,6.67964557376576e-18,0.18145934429311236,2.463542387529929e-18,0.024700562111103767,6.67964557376576e-18,0.024700562111103767,1.9534697346052304e-19,0.1831327698689963,-1.4836405167605939e-18,-0.18313276986899638,0.1413874521379866,0.9798056831616446,0.14138745213798662,700.0,70.71428571428567,[0.73176762]
6.9304765139938895e-18,0.15801134171865286,8.249746872954713e-18,0.15801134171865286,1.6995186691065504e-18,0.03304871784183762,8.249746872954713e-18,0.03304871784183762,-1.740758585725994e-18,0.1614304861626771,-4.625758168420989e-18,-0.16143048616267705,0.09195778762743236,0.9915077057639722,0.09195778762743244,700.0,70.71428571428567,[0.33412258]
5.879943901161743e-18,0.04143201273905769,1.0229398528308471e-17,0.04143201273905769,-2.8629184221603318e-18,0.049339372332866026,1.0229398528308471e-17,0.049339372332866026,-6.188158014843902e-18,0.06442814091536882,-9.173033700462415e-18,-0.06442814091536885,0.36093322048752824,0.8599153567049508,0.36093322048752835,700.0,70.71428571428567,[0.16850331]
5.897308076580456e-18,0.04449665968453354,1.0529032297496617e-17,0.04449665968453354,-2.9909792158733413e-18,0.043084829486731605,1.0529032297496617e-17,0.043084829486731605,-6.902259728938481e-18,0.06193751088784512,-9.714098102813241e-18,-0.0619375108878451,0.43190589407302,0.7917793867801628,0.43190589407302016,700.0,83.57142857142856,[0.19374637]
6.754664237879419e-18,0.16184826943671293,9.712882138411984e-18,0.16184826943671293,1.3088247221855042e-18,0.025434456201612318,9.712882138411984e-18,0.025434456201612318,-3.631283184438389e-18,0.1638345930563218,-6.34136500918312e-18,-0.1638345930563218,0.030873381135111063,0.999046379641392,0.030873381135111008,700.0,83.57142857142856,[0.34850179]
6.769857891370793e-18,0.18485569761456466,9.284170143357388e-18,0.18485569761456466,1.80153319969149e-18,0.018241724672827673,9.284170143357388e-18,0.018241724672827673,-2.880282597579045e-18,0.18575357186231076,-4.5864394892859e-18,-0.18575357186231076,0.009784139945462325,0.9999042660230305,0.009784139945462381,700.0,83.57142857142856,[0.74197285]
6.654820229221818e-18,0.19439278436124818,8.939091071315579e-18,0.19439278436124818,1.799362677764151e-18,0.01471717195102399,8.939091071315579e-18,0.01471717195102399,-2.7044703214645742e-18,0.19494909530940308,-4.0248940116984035e-18,-0.19494909530940308,0.02589938971038315,0.9993289964897744,0.025899389710383216,700.0,83.57142857142856,[0.7523447]
6.513736303944774e-18,0.19947552536974383,8.637066336566849e-18,0.19947552536974383,1.6257209235770195e-18,0.012568096808498913,8.637066336566849e-18,0.012568096808498913,-2.7348576284473222e-18,0.19987106413616534,-3.794579753499736e-18,-0.19987106413616532,0.03483014422117519,0.9987861243064327,0.03483014422117526,700.0,83.57142857142856,[0.74344102]
6.3292419401209465e-18,0.20246594123968328,8.344435892034883e-18,0.20246594123968328,1.365258292296322e-18,0.011076712644963896,8.344435892034883e-18,0.011076712644963896,-2.86725946601501e-18,0.20276871288512435,-3.7531739585540945e-18,-0.20276871288512435,0.04066815123257923,0.998344731518451,0.04066815123257929,700.0,83.57142857142856,[0.74344102]
6.170793839425188e-18,0.2042363531150083,8.060606235630175e-18,0.2042363531150083,1.0765788759602157e-18,0.009953431835159392,8.060606235630175e-18,0.009953431835159392,-3.0582653956208548e-18,0.20447874886896075,-3.821638165725465e-18,-0.2044787488689607,0.04487350858024716,0.9979843367785874,0.0448735085802472,700.0,83.57142857142856,[0.73533048]
6.003663651020074e-18,0.20515843291577396,7.786391313075477e-18,0.20515843291577396,7.423184991499875e-19,0.009061031783046555,7.786391313075477e-18,0.009061031783046555,-3.2883407199188045e-18,0.2053584302954945,-3.954191495070405e-18,-0.20535843029549453,0.04809023473727332,0.9976846488975502,0.04809023473727336,700.0,83.57142857142856,[0.77657372]
5.81048719948689e-18,0.2053798792315211,7.517195722477751e-18,0.2053798792315211,3.7332977150233287e-19,0.008328299682698144,7.517195722477751e-18,0.008328299682698144,-3.55314439505418e-18,0.20554866909994585,-4.148623676629708e-18,-0.20554866909994587,0.05063583852344036,0.997432716384447,0.0506358385234404,700.0,83.57142857142856,[0.77657372]
5.630333879517741e-18,0.204909114607581,7.241709009731253e-18,0.204909114607581,4.341043854678289e-21,0.007718136617989751,7.241709009731253e-18,0.007718136617989751,-3.859187986808999e-18,0.20505441931866944,-4.389222921062192e-18,-0.2050544193186694,0.052666974909128424,0.9972223320342573,0.05266697490912845,700.0,83.57142857142856,[0.77657372]
5.428475340275201e-18,0.2036179838906173,6.986265710407528e-18,0.2036179838906173,-4.102286442670984e-19,0.007215731882367828,6.986265710407528e-18,0.007215731882367828,-4.206471495183262e-18,0.20374579787146013,-4.687877772895576e-18,-0.2037457978714602,0.054236191386811516,0.9970540963697541,0.05423619138681157,700.0,83.57142857142856,[0.73533048]
5.220105235250643e-18,0.20116455295920316,6.7209363619928754e-18,0.20116455295920316,-8.616972051536405e-19,0.0068276068114923386,6.7209363619928754e-18,0.0068276068114923386,-4.6145296175230215e-18,0.20128038548762864,-5.05786114489131e-18,-0.2012803854876286,0.05529041532648867,0.9969382829172773,0.05529041532648872,700.0,83.57142857142856,[0.74344102]
4.99871199866205e-18,0.19673348254983597,6.4611011472067995e-18,0.19673348254983597,-1.3999866431337483e-18,0.006593247150250871,6.4611011472067995e-18,0.006593247150250871,-5.118090704665703e-18,0.19684393326737523,-5.5404947900063225e-18,-0.19684393326737523,0.05559094289245657,0.9969048571135841,0.05559094289245659,700.0,83.57142857142856,[0.74344102]
4.7491019770180484e-18,0.18810034058119635,6.209117117204771e-18,0.18810034058119635,-2.098894703736953e-18,0.006627066879306687,6.209117117204771e-18,0.006627066879306687,-5.83653346261496e-18,0.1882170453019196,-6.260010497746469e-18,-0.18821704530191957,0.05438127529795053,0.9970382910369776,0.05438127529795057,700.0,83.57142857142856,[0.74344102]
4.41484160020782e-18,0.16670088801181498,5.976599955738564e-18,0.16670088801181498,-3.3208985488288917e-18,0.00724150671021142,5.976599955738564e-18,0.00724150671021142,-7.151869750582482e-18,0.16685809984343494,-7.647599014853462e-18,-0.16685809984343497,0.04860134231306795,0.9976351131805338,0.04860134231306799,700.0,83.57142857142856,[0.34850179]
3.297022807628161e-18,0.05366353823741638,5.760175179499271e-18,0.05366353823741638,-8.332633679054976e-18,0.006450732519643263,5.760175179499271e-18,0.006450732519643263,-1.1074002873284316e-17,0.05404985926159876,-1.2216313389254992e-17,-0.05404985926159873,0.005256044004201672,0.9999723736198175,0.005256044004201575,700.0,83.57142857142856,[0.18338896]
