stress_11,stress_12,stress_13,stress_21,stress_22,stress_23,stress_31,stress_32,stress_33,e1,e2,e3,anev1,anev2,anev3,temp,miss,velo
1.7123247484778512e-17,0.29320313542641574,-1.2017874682030812e-17,0.29320313542641574,-6.908771294720498e-18,-0.04376985021323974,-1.2017874682030812e-17,-0.04376985021323974,4.380113249370394e-18,0.2964521519766226,1.373017187023554e-18,-0.29645215197662256,0.1324404715587067,0.9823029283202889,0.13244047155870675,700.0,109.28571428571416,[0.85228868]
1.783517867694575e-17,0.40987777185592505,-1.1697213981671568e-17,0.40987777185592505,-2.2139323658859275e-18,-0.027505284047731324,-1.1697213981671568e-17,-0.027505284047731324,7.997288041281078e-18,0.41079962087631494,6.4863108423125e-18,-0.410799620876315,0.1883306408673922,0.9638792141243396,0.18833064086739226,700.0,109.28571428571416,[1.34151399]
1.7694094751668707e-17,0.43341800545490355,-1.1786052765869457e-17,0.43341800545490355,-1.3240183756768782e-18,-0.019193104714059668,-1.1786052765869457e-17,-0.019193104714059668,9.100998441333033e-18,0.4338427626699236,8.077498302639645e-18,-0.4338427626699235,0.20378712548184266,0.9575706840623804,0.2037871254818427,700.0,109.28571428571416,[1.37259195]
1.7420608988823975e-17,0.44297933169640724,-1.2002825164761175e-17,0.44297933169640724,-9.333244287558322e-19,-0.015608339216045482,-1.2002825164761175e-17,-0.015608339216045482,9.646884706058828e-18,0.44325422565755496,8.810639625217061e-18,-0.443254225657555,0.20989560294052534,0.9549280976767136,0.2098956029405253,700.0,109.28571428571416,[1.37587551]
1.7097201221650442e-17,0.4478501056632187,-1.2256165770967791e-17,0.4478501056632187,-7.184427579492569e-19,-0.013891837888507452,-1.2256165770967791e-17,-0.013891837888507452,9.985486126723735e-18,0.44806550894090996,9.231512112668673e-18,-0.44806550894091013,0.21273738376879292,0.9536695502606857,0.21273738376879298,700.0,109.28571428571416,[1.37437779]
1.6778134498331588e-17,0.45049202738925953,-1.2539698676327747e-17,0.45049202738925953,-5.686767449628559e-19,-0.013118582995255073,-1.2539698676327747e-17,-0.013118582995255073,1.0234010887404067e-17,0.4506829971954664,9.508521912368303e-18,-0.4506829971954663,0.21401600805718224,0.9530972125604693,0.2140160080571823,700.0,109.28571428571416,[1.37375536]
1.643953307766668e-17,0.45181186222609604,-1.283285479413899e-17,0.45181186222609604,-4.753443020872727e-19,-0.012927386055864232,-1.283285479413899e-17,-0.012927386055864232,1.0420675773155233e-17,0.45199676565043023,9.693846646628923e-18,-0.45199676565043045,0.21435822289229023,0.9529433900064149,0.21435822289229037,700.0,109.28571428571416,[1.37375536]
1.6074885393873705e-17,0.45218705038941565,-1.3141263915650558e-17,0.45218705038941565,-4.1239916619443753e-19,-0.013169028657859143,-1.3141263915650558e-17,-0.013169028657859143,1.0568271264214295e-17,0.4523787703414819,9.80693377478598e-18,-0.45237877034148205,0.21401439139590597,0.953097938593343,0.21401439139590603,700.0,109.28571428571416,[1.37375536]
1.5701555622371372e-17,0.45175252202016064,-1.3455455443234178e-17,0.45175252202016064,-3.7767081535701116e-19,-0.013798821094675066,-1.3455455443234178e-17,-0.013798821094675066,1.0689820492145287e-17,0.45196321599791567,9.871312956054848e-18,-0.4519632159979157,0.21305660040211116,0.9535270158994921,0.2130566004021112,700.0,109.28571428571416,[1.37437779]
1.5341248982433074e-17,0.4504845819452567,-1.3786053064292021e-17,0.4504845819452567,-3.5379507415628057e-19,-0.01484638526437431,-1.3786053064292021e-17,-0.01484638526437431,1.0770129803456836e-17,0.45072915783850837,9.869844900154918e-18,-0.45072915783850837,0.21143175406327852,0.9542500860610131,0.21143175406327852,700.0,109.28571428571416,[1.37587551]
1.4941872947802672e-17,0.4481933539669534,-1.4117129726322108e-17,0.4481933539669534,-3.841823811390286e-19,-0.016425125597423124,-1.4117129726322108e-17,-0.016425125597423124,1.0816796024894627e-17,0.4484942221378534,9.78704222538963e-18,-0.44849422213785334,0.20894285754724212,0.9553458873936631,0.20894285754724215,700.0,109.28571428571416,[1.37587551]
1.4544667435099608e-17,0.44441790613992765,-1.4477574143531184e-17,0.44441790613992765,-4.471275170318638e-19,-0.01878875652409753,-1.4477574143531184e-17,-0.01878875652409753,1.081136972007628e-17,0.4448148970858771,9.596323849286387e-18,-0.44481489708587707,0.20514238112350805,0.9569917486237564,0.20514238112350805,700.0,109.28571428571416,[1.37859258]
1.4114904093486457e-17,0.4380916935201148,-1.4865758424473744e-17,0.4380916935201148,-5.816998765268908e-19,-0.02249858711788032,-1.4865758424473744e-17,-0.02249858711788032,1.0715866755273357e-17,0.4386690305385406,9.190142421297112e-18,-0.4386690305385406,0.19900403865359184,0.9595805256460342,0.19900403865359192,700.0,109.28571428571416,[1.36392976]
1.3609172484416438e-17,0.4263675227704157,-1.532204389071173e-17,0.4263675227704157,-8.812319024996927e-19,-0.028962680554362064,-1.532204389071173e-17,-0.028962680554362064,1.0434784165682938e-17,0.4273500922408641,8.37955653640305e-18,-0.4273500922408643,0.18777230022003646,0.9640970524486385,0.18777230022003655,700.0,109.28571428571416,[1.37156325]
1.2962356950069373e-17,0.39869180394212766,-1.5960790976116982e-17,0.39869180394212766,-1.7168828445252636e-18,-0.04262596403658707,-1.5960790976116982e-17,-0.04262596403658707,9.649055227986167e-18,0.40096399756172174,6.3250573412324e-18,-0.40096399756172185,0.16126589189455953,0.9736460466837551,0.16126589189455962,700.0,109.28571428571416,[1.33457199]
1.1197722623142647e-17,0.27030174378736904,-1.730919592872163e-17,0.27030174378736904,-6.327071418193607e-18,-0.07374209502988374,-1.730919592872163e-17,-0.07374209502988374,6.582107744655957e-18,0.28018017287789815,-1.6388335785008964e-18,-0.2801801728778981,0.04964501364281622,0.9975323279176516,0.04964501364281638,700.0,109.28571428571416,[0.85463624]
1.6808521805314336e-17,0.29618622770966335,-1.1205692508344596e-17,0.29618622770966335,-6.991251127959385e-18,-0.03743423857880495,-1.1205692508344596e-17,-0.03743423857880495,3.762599761042407e-18,0.2985424654933624,1.2153581044888208e-18,-0.2985424654933625,0.009560628433631752,0.9999085902060789,0.009560628433631696,700.0,96.42857142857144,[0.84453817]
1.6654414748473257e-17,0.4134368084447068,-9.799533443479977e-18,0.4134368084447068,-2.463542387529929e-18,-0.01974241455061958,-9.799533443479977e-18,-0.01974241455061958,6.401954424686808e-18,0.413907909454789,5.4987171711098915e-18,-0.413907909454789,0.0455655024236868,0.9979216251679055,0.04556550242368683,700.0,96.42857142857144,[1.32864227]
1.5645122052260554e-17,0.4363445989504138,-8.787493680452986e-18,0.4363445989504138,-1.7320764980166376e-18,-0.01250528483424769,-8.787493680452986e-18,-0.01250528483424769,6.520247869726791e-18,0.4365237578666058,6.0234065064144836e-18,-0.43652375786660585,0.05900892362679145,0.9965118633838813,0.05900892362679147,700.0,96.42857142857144,[1.36891488]
1.4509939084262182e-17,0.44578182480721995,-7.872567816471864e-18,0.44578182480721995,-1.502001173718688e-18,-0.008938284176974275,-7.872567816471864e-18,-0.008938284176974275,6.060097221130892e-18,0.44587142569633614,5.747324935309617e-18,-0.4458714256963362,0.0650688505494287,0.9957570433475992,0.06506885054942871,700.0,96.42857142857144,[1.36687061]
1.335305089699042e-17,0.4507641278844479,-6.979041942118102e-18,0.4507641278844479,-1.4520791693898878e-18,-0.006750002394048327,-6.979041942118102e-18,-0.006750002394048327,5.389405945583096e-18,0.4508146642687509,5.182380880124733e-18,-0.450814664268751,0.06864109848154802,0.9952772474032011,0.06864109848154804,700.0,96.42857142857144,[1.36687061]
1.2174457490445262e-17,0.4536534668093269,-6.109510509382972e-18,0.4536534668093269,-1.4737843886632792e-18,-0.005223105693548887,-6.109510509382972e-18,-0.005223105693548887,4.627552749087056e-18,0.453683533733821,4.487892754507201e-18,-0.45368353373382103,0.07107609815218463,0.9949353629974774,0.07107609815218463,700.0,96.42857142857144,[1.36687061]
1.0993693561972767e-17,0.45532217859737295,-5.245981926353139e-18,0.45532217859737295,-1.5432410903381318e-18,-0.004068232139626147,-5.245981926353139e-18,-0.004068232139626147,3.802754416698181e-18,0.4553403527422097,3.709647659791853e-18,-0.4553403527422096,0.072889768458514,0.994672892617532,0.07288976845851403,700.0,96.42857142857144,[1.36687061]
9.79339493615422e-18,0.45614197925557265,-4.391559361096596e-18,0.45614197925557265,-1.634403011286376e-18,-0.0031482990660989412,-4.391559361096596e-18,-0.0031482990660989412,2.9367161676898627e-18,0.4561528439308482,2.8764277069939114e-18,-0.45615284393084826,0.07431929539284204,0.9944613037542602,0.07431929539284206,700.0,96.42857142857144,[1.35836346]
8.595266832263013e-18,0.45626062417847557,-3.537306367865627e-18,0.45626062417847557,-1.7624638049993854e-18,-0.002392191676553608,-3.537306367865627e-18,-0.002392191676553608,2.0337790459167785e-18,0.45626689531101156,1.996874027421057e-18,-0.4562668953110115,0.07548572650889185,0.9942855777827867,0.07548572650889185,700.0,96.42857142857144,[1.35836346]
7.379774552953092e-18,0.45568659949170526,-2.686495686753797e-18,0.45568659949170526,-1.9122298179857864e-18,-0.0017628836886731856,-2.686495686753797e-18,-0.0017628836886731856,1.0917725294515897e-18,0.4556900094529324,1.0710772370218138e-18,-0.4556900094529323,0.07645193287078635,0.9941379199691769,0.07645193287078636,700.0,96.42857142857144,[1.35836346]
6.1751348832798664e-18,0.4542918177434662,-1.8468767593298094e-18,0.4542918177434662,-2.0923831379549354e-18,-0.001245618821037875,-1.8468767593298094e-18,-0.001245618821037875,1.215492279309921e-19,0.4542935254160133,1.1146615016691202e-19,-0.45429352541601337,0.07724393078563155,0.9940154678442229,0.07724393078563156,700.0,96.42857142857144,[1.35836346]
4.94878999433325e-18,0.4517344152882623,-9.991353318808573e-19,0.4517344152882623,-2.311605852616189e-18,-0.0008469580671326678,-9.991353318808573e-19,-0.0008469580671326678,-9.268128629738148e-19,0.4517352092695405,-9.305391005011131e-19,-0.4517352092695406,0.07785328314441654,0.9939203854470795,0.07785328314441654,700.0,96.42857142857144,[1.35836346]
3.718104061531955e-18,0.44719912534936146,-1.6570578339029782e-19,0.44719912534936146,-2.626331532080365e-18,-0.0006064138564979387,-1.6570578339029782e-19,-0.0006064138564979387,-2.0663368748268657e-18,0.44719953650579647,-2.066775508060156e-18,-0.44719953650579647,0.0782179419524861,0.9938631229266106,0.07821794195248612,700.0,96.42857142857144,[1.35828924]
2.448348734038555e-18,0.4384615898586845,6.773045845451571e-19,0.4384615898586845,-3.0951642683856206e-18,-0.0006384148862481107,6.773045845451571e-19,-0.0006384148862481107,-3.418572035559153e-18,0.4384620546352583,-3.4165877217016417e-18,-0.43846205463525834,0.07814765983567283,0.9938741804295032,0.07814765983567282,700.0,96.42857142857144,[1.35836346]
1.0939430513789289e-18,0.4169576449768734,1.4966935693182416e-18,0.4169576449768734,-4.067558091833557e-18,-0.001255405219733726,1.4966935693182416e-18,-0.001255405219733726,-5.367700726309705e-18,0.41695953490347976,-5.358630934600719e-18,-0.4169595349034798,0.07705487126905562,0.994044814697717,0.07705487126905562,700.0,96.42857142857144,[1.32445172]
-1.0309979154860937e-18,0.3038157802299357,2.2979892189626474e-18,0.3038157802299357,-8.85572946354371e-18,-0.00047154311094678973,2.2979892189626474e-18,-0.00047154311094678973,-9.923626251794569e-18,0.3038161461634817,-9.916471070614066e-18,-0.3038161461634816,0.07808016832886198,0.9938847894134779,0.07808016832886196,700.0,96.42857142857144,[0.83308653]
1.0375094812681111e-17,0.2648885451604307,-1.715669768647318e-17,0.2648885451604307,-6.3444355936123205e-18,-0.07812051045406926,-1.715669768647318e-17,-0.07812051045406926,6.1773054052072056e-18,0.27616798422484423,-2.9984756652648943e-18,-0.2761679842248444,0.19147526282709962,0.9626393132687787,0.19147526282709962,700.0,122.14285714285735,[0.82123714]
1.1008887215464142e-17,0.39213452379807484,-1.5126642866168056e-17,0.39213452379807484,-1.7418438466896636e-18,-0.04805186029045845,-1.5126642866168056e-17,-0.04805186029045845,7.953877602734295e-18,0.3950676727242011,4.188893701373923e-18,-0.3950676727242012,0.3005878787948985,0.9051485260680519,0.30058787879489873,700.0,122.14285714285735,[1.32987489]
1.047927986519339e-17,0.4208479303981669,-1.3819776700877925e-17,0.4208479303981669,-9.398359945378496e-19,-0.03369450567567404,-1.3819776700877925e-17,-0.03369450567567404,7.476362778719684e-18,0.4221946236431115,5.25576165366709e-18,-0.4221946236431114,0.3272205011478046,0.8864837772103669,0.3272205011478046,700.0,122.14285714285735,[1.35711236]
9.763007629171472e-18,0.43269520537872724,-1.2726982499972256e-17,0.43269520537872724,-6.533271001290825e-19,-0.0272650769447019,-1.2726982499972256e-17,-0.0272650769447019,6.512651042981104e-18,0.4335533706229714,4.941751313818235e-18,-0.4335533706229714,0.33780657341388876,0.8785063676017003,0.33780657341388887,700.0,122.14285714285735,[1.36133421]
8.988131301111398e-18,0.4387207060768674,-1.169936754639635e-17,0.4387207060768674,-5.491420476168036e-19,-0.023927416079914738,-1.169936754639635e-17,-0.023927416079914738,5.382894379801079e-18,0.4393727110106478,4.118390555642712e-18,-0.43937271101064795,0.3430398115473687,0.8744411789177655,0.3430398115473688,700.0,122.14285714285735,[1.36353793]
8.182867666068575e-18,0.44195123009464354,-1.0708176663913605e-17,0.44195123009464354,-4.905379555786467e-19,-0.022130169714049838,-1.0708176663913605e-17,-0.022130169714049838,4.1652315785638185e-18,0.4425049538635032,3.1077625609853197e-18,-0.44250495386350325,0.34578985014485,0.8722721817607186,0.34578985014485003,700.0,122.14285714285735,[1.35953615]
7.323340982842274e-18,0.4435153722033547,-9.742565721488603e-18,0.4435153722033547,-5.003053042516728e-19,-0.021262431901346204,-9.742565721488603e-18,-0.021262431901346204,2.897646772997758e-18,0.4440247474984246,1.9779862070954357e-18,-0.44402474749842463,0.34710158407423686,0.8712295797700575,0.34710158407423686,700.0,122.14285714285735,[1.35953615]
6.470325865397991e-18,0.4438844373835716,-8.791936467523008e-18,0.4438844373835716,-5.372041770164383e-19,-0.021062083456937265,-8.791936467523008e-18,-0.021062083456937265,1.6007599214126193e-18,0.4443838488411533,7.879377739407249e-19,-0.44438384884115345,0.3474034682915519,0.8709888979992809,0.3474034682915519,700.0,122.14285714285735,[1.36077566]
5.6194812698810454e-18,0.4432252683658391,-7.859824478750025e-18,0.4432252683658391,-5.86040920381569e-19,-0.021433947148042667,-7.859824478750025e-18,-0.021433947148042667,2.7240050188106265e-19,0.44374322823938966,-4.74032391467674e-19,-0.4437432282393898,0.3468444248547064,0.871434386453975,0.34684442485470646,700.0,122.14285714285735,[1.35953615]
4.723055713889979e-18,0.44150365656465396,-6.9346988574306665e-18,0.44150365656465396,-6.793733632571523e-19,-0.022394429602881356,-6.9346988574306665e-18,-0.022394429602881356,-1.0820051807785636e-18,0.442071249050646,-1.7782520444058077e-18,-0.44207124905064604,0.3453903062902524,0.8725887190661193,0.34539030629025247,700.0,122.14285714285735,[1.36148431]
3.828800679826251e-18,0.4384734214155437,-6.0308799611246e-18,0.4384734214155437,-7.922405034787879e-19,-0.024076782021601552,-6.0308799611246e-18,-0.024076782021601552,-2.463542387529929e-18,0.43913395760333623,-3.08459128143356e-18,-0.4391339576033362,0.34281082341273456,0.8746207627893164,0.34281082341273456,700.0,122.14285714285735,[1.36353793]
2.9084993826344538e-18,0.43354266168036665,-5.154921748620239e-18,0.43354266168036665,-9.51773865138215e-19,-0.02680107241491693,-5.154921748620239e-18,-0.02680107241491693,-3.887404771864408e-18,0.4343702763535813,-4.48274637805784e-18,-0.4343702763535811,0.3385448162305399,0.8779378194421629,0.33854481623053995,700.0,122.14285714285735,[1.36133421]
1.9404466030411953e-18,0.4253519244102521,-4.319338635404898e-18,0.4253519244102521,-1.200298625818547e-18,-0.03128926984189906,-4.319338635404898e-18,-0.03128926984189906,-5.391576467510435e-18,0.426501205164468,-5.970655565428457e-18,-0.42650120516446816,0.33126571817103356,0.8834738524309922,0.3312657181710336,700.0,122.14285714285735,[1.36148708]
8.747203367176753e-19,0.4103173224373768,-3.56664232828982e-18,0.4103173224373768,-1.5985893994852802e-18,-0.03936093783665585,-3.56664232828982e-18,-0.03936093783665585,-7.039002610360846e-18,0.4122009079557677,-7.668364760831723e-18,-0.41220090795576775,0.3173123858346071,0.8936586034901127,0.31731238583460714,700.0,122.14285714285735,[1.33473292]
-4.601506485958987e-19,0.3755658970342175,-3.059537185812655e-18,0.3755658970342175,-2.51237913089506e-18,-0.05673293065746412,-3.059537185812655e-18,-0.05673293065746412,-9.097742658442025e-18,0.3798267610847098,-1.009600354703639e-17,-0.3798267610847097,0.2825546293068914,0.9166928400039408,0.2825546293068914,700.0,122.14285714285735,[1.33058463]
-3.2622944567907347e-18,0.2313270693163012,-3.443312594090308e-18,0.2313270693163012,-7.223496974184673e-18,-0.09509213500567604,-3.443312594090308e-18,-0.09509213500567604,-1.3069797785472661e-17,0.2501094303268202,-1.4624863178891668e-17,-0.2501094303268202,0.12031560303032231,0.9854178359127158,0.1203156030303224,700.0,122.14285714285735,[0.83876397]
-4.64274640257843e-18,0.22455923767157054,-2.3370755708573093e-18,0.22455923767157054,-7.125823487454412e-18,-0.09667701824104741,-2.3370755708573093e-18,-0.09667701824104741,-1.411056304963178e-17,0.24448578093544993,-1.1857697536832708e-17,-0.2444857809354501,0.2615330407789409,0.9290860762931719,0.2615330407789407,700.0,135.00000000000023,[0.78922723]
-4.011124521722739e-18,0.3673314156301847,4.073459198323511e-19,0.3673314156301847,-2.230211280340971e-18,-0.05874028019646484,4.073459198323511e-19,-0.05874028019646484,-1.2828869851538016e-17,0.3719983728814342,-1.210329643413863e-17,-0.37199837288143434,0.41477484571159323,0.8098911375795195,0.41477484571159323,700.0,135.00000000000023,[1.30509308]
-4.879333292658397e-18,0.4033374480699015,2.244234886855889e-18,0.4033374480699015,-1.1004546171609463e-18,-0.04116876164897444,2.244234886855889e-18,-0.04116876164897444,-1.3430104425410959e-17,0.40543305729953827,-1.2808765528928745e-17,-0.4054330572995382,0.4466442485391056,0.775253397602278,0.4466442485391054,700.0,135.00000000000023,[1.3278955]
-6.060097221130892e-18,0.4184864046007798,3.834820486734106e-18,0.4184864046007798,-5.079021309973598e-19,-0.033157531459963675,3.834820486734106e-18,-0.033157531459963675,-1.4406839292713572e-17,0.41979791891838425,-1.3720682755074043e-17,-0.4197979189183839,0.45894566858933444,0.7607481492361172,0.4589456685893345,700.0,135.00000000000023,[1.32966297]
-7.336364114406309e-18,0.4262631414423116,5.338805653152002e-18,0.4262631414423116,-6.728617974751348e-20,-0.02885013044267559,5.338805653152002e-18,-0.02885013044267559,-1.5522487563365893e-17,0.4272383360360204,-1.4777383271122477e-17,-0.42723833603602046,0.46509521440291784,0.7532415834770458,0.4650952144029178,700.0,135.00000000000023,[1.36112017]
-8.662553012010526e-18,0.43047550637075643,6.7988207933387245e-18,0.43047550637075643,3.049583307911498e-19,-0.02637581207346157,6.7988207933387245e-18,-0.02637581207346157,-1.6705422013765727e-17,0.4312827901130461,-1.5839067173973375e-17,-0.4312827901130461,0.4684857633565387,0.749027488857707,0.4684857633565386,700.0,135.00000000000023,[1.33602085]
-1.0034322870088866e-17,0.43256034346190536,8.229279529468007e-18,0.43256034346190536,6.164282273643171e-19,-0.024994847297676762,8.229279529468007e-18,-0.024994847297676762,-1.791765851018464e-17,0.43328188645189847,-1.696031014476873e-17,-0.4332818864518984,0.4703237187016322,0.7467202951931441,0.47032371870163214,700.0,135.00000000000023,[1.34033761]
-1.1421286381658579e-17,0.43312250964702753,9.64127187201235e-18,0.43312250964702753,9.051076437004233e-19,-0.024384106299006645,9.64127187201235e-18,-0.024384106299006645,-1.9163538096477308e-17,0.43380835976608445,-1.8086309711770425e-17,-0.43380835976608456,0.4711048025543119,0.7457348925861825,0.4711048025543119,700.0,135.00000000000023,[1.34033761]
-1.2823443546719668e-17,0.43237948347395755,1.1039851067333839e-17,0.43237948347395755,1.1536324043807554e-18,-0.024416782736823715,1.1039851067333839e-17,-0.024416782736823715,-2.042461133626135e-17,0.43306835142783606,-1.9163904673558815e-17,-0.4330683514278363,0.4710142167998118,0.7458493246929434,0.47101421679981165,700.0,135.00000000000023,[1.34033761]
-1.426032906261818e-17,0.4302932858033007,1.2426611092472866e-17,0.4302932858033007,1.3999866431337483e-18,-0.0250928422308611,1.2426611092472866e-17,-0.0250928422308611,-2.1710645578209794e-17,0.4310243178042557,-2.024249362334286e-17,-0.43102431780425565,0.47004359943846385,0.7470729745171257,0.47004359943846363,700.0,135.00000000000023,[1.34049048]
-1.5702640883335042e-17,0.42655835816347487,1.3789105360752342e-17,0.42655835816347487,1.6083567481583064e-18,-0.026539023512457335,1.3789105360752342e-17,-0.026539023512457335,-2.301404399557695e-17,0.4273831450678818,-2.125690426973034e-17,-0.4273831450678817,0.4679867927260956,0.7496510679428695,0.4679867927260956,700.0,135.00000000000023,[1.33602085]
-1.7199215752235382e-17,0.4204359680745663,1.5127859545451545e-17,0.4204359680745663,1.7494406734353506e-18,-0.029078392908656086,1.5127859545451545e-17,-0.029078392908656086,-2.4350000241854194e-17,0.4214403352610519,-2.2195413846788314e-17,-0.421440335261052,0.46430958598622735,0.7542103265817807,0.4643095859862273,700.0,135.00000000000023,[1.32966297]
-1.8761991539919566e-17,0.4102330087563048,1.6419387921028565e-17,0.4102330087563048,1.8308352457105685e-18,-0.0334506261098527,1.6419387921028565e-17,-0.0334506261098527,-2.573696375342391e-17,0.4115945406105279,-2.3059189966923062e-17,-0.41159454061052797,0.45771061745323843,0.7622348596995221,0.45771061745323843,700.0,135.00000000000023,[1.33705219]
-2.0438719728789055e-17,0.3915232643760283,1.762599462619844e-17,0.3915232643760283,1.742929107653333e-18,-0.041526443861315175,1.762599462619844e-17,-0.041526443861315175,-2.723245336136058e-17,0.39371933161508366,-2.3572811161112117e-17,-0.393719331615084,0.44447502625663027,0.7777428251474489,0.44447502625663027,700.0,135.00000000000023,[1.3278955]
-2.2515909213252617e-17,0.3487921800631498,1.858149907589927e-17,0.3487921800631498,1.1525471434170858e-18,-0.05916238027751893,1.858149907589927e-17,-0.05916238027751893,-2.903507182201574e-17,0.35377418237246566,-2.2663756848006665e-17,-0.3537741823724656,0.40934275904947226,0.8153999087733156,0.4093427590494721,700.0,135.00000000000023,[0.7907285]
-2.6463003338118854e-17,0.18713541353985913,1.8641561487357358e-17,0.18713541353985913,-3.2546976300450477e-18,-0.09716387109856077,1.8641561487357358e-17,-0.09716387109856077,-3.233697830398041e-17,0.21085654091725906,-1.711220292955642e-17,-0.21085654091725928,0.21334776253539234,0.9533968032473591,0.21334776253539248,700.0,135.00000000000023,[0.76552732]
-2.677664375661936e-17,0.18036203054570343,1.855755550588831e-17,0.18036203054570343,-3.2476434337811955e-18,-0.09563808362856784,1.855755550588831e-17,-0.09563808362856784,-3.1655977049277755e-17,0.2041497124727689,-2.2330956593403362e-17,-0.20414971247276884,0.3527204180535987,0.8667044556111322,0.35272041805359877,700.0,147.8571428571427,[0.68204128]
-2.2823038065971106e-17,0.3405383854814872,1.8194501799135724e-17,0.3405383854814872,1.1498339910079119e-18,-0.0573438817458482,1.8194501799135724e-17,-0.0573438817458482,-2.7599271567080896e-17,0.34533275656968876,-2.1592210973822644e-17,-0.3453327565696886,0.5279420400173545,0.66524762665088,0.5279420400173542,700.0,147.8571428571427,[0.61931183]
-2.078383271523598e-17,0.38451047789490456,1.693654868462223e-17,0.38451047789490456,1.7640916964448898e-18,-0.040036027565717135,1.693654868462223e-17,-0.040036027565717135,-2.501472258210181e-17,0.38658917614725163,-2.1466758711603612e-17,-0.38658917614725147,0.5565446061512309,0.6168599539019718,0.5565446061512307,700.0,147.8571428571427,[1.22828942]
-1.91602823135863e-17,0.4033208189290578,1.544404354433565e-17,0.4033208189290578,1.860137291729647e-18,-0.032028099478716335,1.544404354433565e-17,-0.032028099478716335,-2.2702031468521948e-17,0.404590511675477,-2.022290769002576e-17,-0.40459051167547694,0.5670645633813725,0.5973906275747778,0.5670645633813723,700.0,147.8571428571427,[1.22260466]
-1.768975370781403e-17,0.41309573031307634,1.3864276639689017e-17,0.41309573031307634,1.7825411328272725e-18,-0.02760330519327382,1.3864276639689017e-17,-0.02760330519327382,-2.0478331753962995e-17,0.414016937890815,-1.85984897722772e-17,-0.41401693789081506,0.5723100225955625,0.5873010097669961,0.5723100225955626,700.0,147.8571428571427,[1.22605021]
-1.6285426020825602e-17,0.4184853031505403,1.223923400421429e-17,0.4184853031505403,1.6463408818867414e-18,-0.024942052411585883,1.223923400421429e-17,-0.024942052411585883,-1.8307267196142015e-17,0.4192279271846069,-1.6843596340735123e-17,-0.41922792718460683,0.5752815328131002,0.5814656619340646,0.5752815328131002,700.0,147.8571428571427,[1.1989755]
-1.494729925262102e-17,0.42125996323755305,1.059072260040021e-17,0.42125996323755305,1.4444823426442007e-18,-0.023322321889403,1.059072260040021e-17,-0.023322321889403,-1.6159535749039932e-17,0.4219050690916353,-1.499150963235739e-17,-0.42190506909163517,0.5770129524791788,0.578024312068724,0.577012952479179,700.0,147.8571428571427,[1.1989755]
-1.3600490396707082e-17,0.42217133257853046,8.92538965164925e-18,0.42217133257853046,1.2214612146101036e-18,-0.022423990381246366,8.92538965164925e-18,-0.022423990381246366,-1.4023742172538213e-17,0.4227664478122057,-1.3091253606035642e-17,-0.42276644781220557,0.5779273766343347,0.5761943202367684,0.5779273766343348,700.0,147.8571428571427,[1.2040165]
-1.2296006718376254e-17,0.4214962052436308,7.244015189279051e-18,0.4214962052436308,9.810759111572934e-19,-0.022113751821175757,7.244015189279051e-18,-0.022113751821175757,-1.1907483293382547e-17,0.42207590437549186,-1.1155470607538844e-17,-0.42207590437549203,0.5781917403668887,0.575663636808003,0.5781917403668888,700.0,147.8571428571427,[1.1989755]
-1.1024080868955516e-17,0.4192003132554036,5.554263868845527e-18,0.4192003132554036,7.032491044578829e-19,-0.022375147544149855,5.554263868845527e-18,-0.022375147544149855,-9.803704915309081e-18,0.4197970341260772,-9.208876062382887e-18,-0.4197970341260774,0.5778217505363361,0.57640614952848,0.5778217505363361,700.0,147.8571428571427,[1.1989755]
-9.79665071904523e-18,0.41492740542779893,3.842773414733497e-18,0.41492740542779893,3.8743816403003736e-19,-0.023303307305903492,3.842773414733497e-18,-0.023303307305903492,-7.714577560245155e-18,0.4155812747302728,-7.300238870005964e-18,-0.41558127473027284,0.5766871620226505,0.5786742039494439,0.5766871620226505,700.0,147.8571428571427,[1.21019584]
-8.590925788408334e-18,0.4078051422058378,2.115309275812455e-18,0.4078051422058378,4.0154655655774175e-20,-0.025160309581181883,2.115309275812455e-18,-0.025160309581181883,-5.6471554244546195e-18,0.40858056144136934,-5.395658093782387e-18,-0.4085805614413692,0.5744216058939221,0.583163473962915,0.574421605893922,700.0,147.8571428571427,[1.20818486]
-7.473106995828675e-18,0.3958321121333311,3.376518173216957e-19,0.3958321121333311,-3.9123657740288087e-19,-0.028557031099502507,3.376518173216957e-19,-0.028557031099502507,-3.610663226128667e-18,0.396860888752157,-3.586761369837261e-18,-0.3968608887521572,0.5701017778353075,0.5915808700575466,0.5701017778353075,700.0,147.8571428571427,[1.22260466]
-6.528929957436148e-18,0.37380098674256024,-1.5039003804051098e-18,0.37380098674256024,-9.859595854938064e-19,-0.03504482195098112,-1.5039003804051098e-18,-0.03504482195098112,-1.6490540342959153e-18,0.3754401646538203,-1.8767404376029537e-18,-0.37544016465382035,0.5609943092556386,0.608745242252929,0.5609943092556388,700.0,147.8571428571427,[1.21468571]
-6.081802440404283e-18,0.32375661235652625,-3.549074666440419e-18,0.32375661235652625,-2.1054062695189703e-18,-0.04945992463790905,-3.549074666440419e-18,-0.04945992463790905,1.172081840763138e-19,0.32751279087962587,-1.0295489647658978e-18,-0.3275127908796259,0.5350447359850657,0.6537998630998193,0.5350447359850657,700.0,147.8571428571427,[0.61931183]
-7.894188249732469e-18,0.14655174159430778,-6.3304967731101894e-18,0.14655174159430778,-6.997762693741402e-18,-0.07958616086967907,-6.3304967731101894e-18,-0.07958616086967907,7.520858478230136e-19,0.16676741278289123,-8.449342535921698e-18,-0.16676741278289117,0.3466115745694818,0.8716196606025642,0.346611574569482,700.0,147.8571428571427,[0.32779692]
-7.439463905954918e-18,0.1411115137569777,-6.2856280151434755e-18,0.1411115137569777,-7.004816890005254e-18,-0.07526009020991253,-6.2856280151434755e-18,-0.07526009020991253,1.6913792118790286e-18,0.15992667223821647,-1.4528123877369014e-18,-0.15992667223821633,0.47900141029248805,0.7356053954910982,0.47900141029248805,700.0,160.7142857142859,[0.3470566]
-4.272672413967106e-18,0.3171109655338695,-3.8067902309068276e-18,0.3171109655338695,-2.0891273550639267e-18,-0.04420010924367166,-3.8067902309068276e-18,-0.04420010924367166,2.4494339950022247e-18,0.3201765358657243,1.1988769671662842e-18,-0.32017653586572425,0.6287955865510187,0.45741908647095125,0.6287955865510192,700.0,160.7142857142859,[0.61731228]
-3.3795026408670486e-18,0.3681324507123467,-2.041240215042007e-18,0.3681324507123467,-9.707659320024324e-19,-0.030591565727083377,-2.041240215042007e-18,-0.030591565727083377,2.0950962903641093e-18,0.36940133345876375,1.7403203081762307e-18,-0.36940133345876375,0.6457931427552964,0.40731122442240036,0.6457931427552963,700.0,160.7142857142859,[0.83432772]
-2.996405520691689e-18,0.39022605031565694,-4.587262435810823e-19,0.39022605031565694,-3.765855543933416e-19,-0.0241811469381425,-4.587262435810823e-19,-0.0241811469381425,1.5752562887663844e-18,0.39097454931517167,1.5194682484976304e-18,-0.3909745493151717,0.6517043211019837,0.38802442669760484,0.6517043211019838,700.0,160.7142857142859,[0.84651521]
-2.783694371812453e-18,0.40183740551901614,1.0630470283194608e-18,0.40183740551901614,5.453436342439601e-20,-0.02052396954220863,1.0630470283194608e-18,-0.02052396954220863,9.913858903121543e-19,0.40236119817897914,1.0927685340127562e-18,-0.4023611981789791,0.6546447194493994,0.37799547959470925,0.6546447194493993,700.0,160.7142857142859,[0.84737923]
-2.674083014481826e-18,0.4083532938661097,2.5488710307984493e-18,0.4083532938661097,4.142983728808593e-19,-0.018211946704011755,2.5488710307984493e-18,-0.018211946704011755,3.771281848751764e-19,0.4087592049288323,6.058234192950797e-19,-0.40875920492883216,0.6563582213691418,0.3720050678179987,0.6563582213691417,700.0,160.7142857142859,[0.84737923]
-2.603541051843304e-18,0.41183705625332845,4.015126421526271e-18,0.41183705625332845,7.314658895132917e-19,-0.016683729168798667,4.015126421526271e-18,-0.016683729168798667,-2.501526521258364e-19,0.41217485090964145,6.568513005945442e-20,-0.4121748509096414,0.657426144782639,0.36821424240851014,0.657426144782639,700.0,160.7142857142859,[0.84939021]
-2.5850916154609212e-18,0.4131712991481872,5.464594181722329e-18,0.4131712991481872,9.989827170578413e-19,-0.015685556737660877,5.464594181722329e-18,-0.015685556737660877,-8.888287292453797e-19,0.41346893369390086,-4.747113718994504e-19,-0.4134689336939008,0.6580860751291607,0.36584892434199245,0.6580860751291608,700.0,160.7142857142859,[0.84939021]
-2.620905227262017e-18,0.41268914207413365,6.9086356371000394e-18,0.41268914207413365,1.2556469349656952e-18,-0.015103975544353592,6.9086356371000394e-18,-0.015103975544353592,-1.5323884807014361e-18,0.4129654441513587,-1.030070107586289e-18,-0.4129654441513588,0.6584380636759494,0.3645800770822964,0.6584380636759494,700.0,160.7142857142859,[0.84939021]
-2.6523777952084347e-18,0.41036685626984787,8.337856497442636e-18,0.41036685626984787,1.4914198793229097e-18,-0.014909308621044027,8.337856497442636e-18,-0.014909308621044027,-2.188157417998775e-18,0.41063760690949325,-1.5821734397461317e-18,-0.41063760690949325,0.6585068470217396,0.3643315315080139,0.6585068470217396,700.0,160.7142857142859,[0.84822643]
-2.7337723674836526e-18,0.40581630714464356,9.767043443380119e-18,0.40581630714464356,1.675100297423985e-18,-0.015146178683074486,9.767043443380119e-18,-0.015146178683074486,-2.852065812523636e-18,0.4060988572665717,-2.1286057694030272e-18,-0.4060988572665717,0.6582515453762079,0.3652530711981335,0.6582515453762078,700.0,160.7142857142859,[0.84737923]
-2.8710578793878535e-18,0.39807132030965253,1.1181698066725964e-17,0.39807132030965253,1.8330057676379076e-18,-0.015963709810223783,1.1181698066725964e-17,-0.015963709810223783,-3.531439175780788e-18,0.39839128515063554,-2.647788040791236e-18,-0.3983912851506356,0.6575321144945939,0.3678356111315717,0.6575321144945939,700.0,160.7142857142859,[0.84737923]
-3.0913658550127767e-18,0.38490867888915103,1.2563320059490117e-17,0.38490867888915103,1.91602823135863e-18,-0.017722927652685728,1.2563320059490117e-17,-0.017722927652685728,-4.222750409638306e-18,0.38531648452768535,-3.062816407986028e-18,-0.3853164845276853,0.6559779529733277,0.3733441447590223,0.6559779529733275,700.0,160.7142857142859,[0.84951981]
-3.5205865661440926e-18,0.360555953596118,1.390819579431252e-17,0.360555953596118,1.8142850160146075e-18,-0.021348486038947397,1.390819579431252e-17,-0.021348486038947397,-4.9658828545110455e-18,0.3611874216106659,-3.310012741436524e-18,-0.3611874216106659,0.6524555758084166,0.3854911713554738,0.6524555758084165,700.0,160.7142857142859,[0.832341]
-4.5309645233204644e-18,0.30530186606706905,1.5124858120598896e-17,0.30530186606706905,1.201655202023134e-18,-0.029698397082213123,1.5124858120598896e-17,-0.029698397082213123,-5.827580059664686e-18,0.3067429285465068,-2.8919398496846246e-18,-0.3067429285465069,0.6416795231224984,0.420112817241472,0.6416795231224983,700.0,160.7142857142859,[0.61731228]
-8.04395426271887e-18,0.11748756630478875,1.5931223973807945e-17,0.11748756630478875,-3.18578355885203e-18,-0.045993129678884546,1.5931223973807945e-17,-0.045993129678884546,-7.563726286295084e-18,0.12616931565908102,4.835498287887504e-18,-0.12616931565908102,0.5363660592438109,0.6516309545920373,0.5363660592438108,700.0,160.7142857142859,[0.32370337]
-8.406974055066342e-18,0.11444646443394611,1.662402744149051e-17,0.11444646443394611,-3.1081873999496555e-18,-0.039731272110332526,1.662402744149051e-17,-0.039731272110332526,-7.808995264084408e-18,0.1211468827701967,2.8105547393094553e-18,-0.12114688277019676,0.6378329035482765,0.4316692881157406,0.6378329035482764,700.0,173.57142857142813,[0.32447386]
-5.321577135353748e-18,0.30154728663295244,1.66520916117229e-17,0.30154728663295244,1.4558775827627313e-18,-0.02206196886939151,1.66520916117229e-17,-0.02206196886939151,-6.835516179672802e-18,0.3023532644872385,-4.4030717377486755e-18,-0.30235326448723854,0.6950106717397126,0.18417473316344668,0.6950106717397125,700.0,173.57142857142813,[0.35995134]
-4.777318762073457e-18,0.35729937618519714,1.628639258137137e-17,0.35729937618519714,2.2139323658859275e-18,-0.014852449582728305,1.628639258137137e-17,-0.014852449582728305,-6.714509582223645e-18,0.35760794102052396,-5.352450688328909e-18,-0.35760794102052396,0.6987661613098168,0.1531394907157707,0.698766161309817,700.0,173.57142857142813,[0.29748889]
-4.813675004356388e-18,0.38164274796498443,1.5832923070583062e-17,0.38164274796498443,2.4441433478043355e-18,-0.01131326578405794,1.5832923070583062e-17,-0.01131326578405794,-6.714509582223645e-18,0.3818103941185539,-5.774379567402344e-18,-0.3818103941185538,0.700006237966301,0.1413595897579382,0.7000062379663009,700.0,173.57142857142813,[0.34605593]
-5.0659981784095635e-18,0.3945608881399464,1.5348523622330172e-17,0.3945608881399464,2.5380184211617535e-18,-0.009151774075191263,1.5348523622330172e-17,-0.009151774075191263,-6.739741899628962e-18,0.3946670108059536,-6.027006441527524e-18,-0.39466701080595357,0.7006358419075297,0.13497716128684062,0.7006358419075296,700.0,173.57142857142813,[0.34521733]
-5.401886446665296e-18,0.40192582980602914,1.484419946107241e-17,0.40192582980602914,2.540867231191386e-18,-0.007650252182139643,1.484419946107241e-17,-0.007650252182139643,-6.788036012512258e-18,0.4019986306241793,-6.222521983237869e-18,-0.4019986306241793,0.701026728230853,0.1308550824839887,0.701026728230853,700.0,173.57142857142813,[0.34521733]
-5.803975633704873e-18,0.4059951766537497,1.4327852643201496e-17,0.4059951766537497,2.4936583792717598e-18,-0.006519175564823483,1.4327852643201496e-17,-0.006519175564823483,-6.84094248449115e-18,0.4060475133727018,-6.380787813424875e-18,-0.4060475133727017,0.7012989700883184,0.1279042966679696,0.7012989700883182,700.0,173.57142857142813,[0.34521733]
-6.228855300981511e-18,0.4077408191502911,1.3813879833688611e-17,0.4077408191502911,2.4258295690424115e-18,-0.005621382491422376,1.3813879833688611e-17,-0.005621382491422376,-6.9076860337568285e-18,0.4077795673430258,-6.5266002007752265e-18,-0.4077795673430258,0.7015024762243993,0.12565250376364256,0.7015024762243992,700.0,173.57142857142813,[0.34521733]
-6.718850626078323e-18,0.4075380725382836,1.3290614477174304e-17,0.4075380725382836,2.3276134518303152e-18,-0.004885720018051786,1.3290614477174304e-17,-0.004885720018051786,-6.975786159227093e-18,0.4075673574126295,-6.6570150649135186e-18,-0.40756735741262945,0.701661092320817,0.12386857166495427,0.7016610923208169,700.0,173.57142857142813,[0.34521733]
-7.236520105748708e-18,0.4053784968732027,1.2765602528796591e-17,0.4053784968732027,2.196296875226297e-18,-0.004275151482253798,1.2765602528796591e-17,-0.004275151482253798,-7.052025741924881e-18,0.40540103927761906,-6.7829489012647735e-18,-0.4054010392776191,0.7017866754950319,0.12243742971518637,0.7017866754950319,700.0,173.57142857142813,[0.34521733]
-7.781863739992668e-18,0.4008671996686641,1.2237114353894623e-17,0.4008671996686641,2.044360340312557e-18,-0.0037749383694222027,1.2237114353894623e-17,-0.0037749383694222027,-7.128807955104503e-18,0.4008849734398752,-6.898308066673804e-18,-0.4008849734398752,0.7018839755559328,0.12131681546923616,0.7018839755559328,700.0,173.57142857142813,[0.34521733]
-8.406431424584507e-18,0.3930025224878364,1.1705997812596268e-17,0.3930025224878364,1.8500986278157034e-18,-0.003391701795160081,1.1705997812596268e-17,-0.003391701795160081,-7.214000940752565e-18,0.393017157797048,-7.012071062220416e-18,-0.39301715779704793,0.7019512391985915,0.12053595138017612,0.7019512391985913,700.0,173.57142857142813,[0.34521733]
-9.129215226388442e-18,0.3794698589183182,1.1174321683613522e-17,0.3794698589183182,1.569151695845743e-18,-0.0031651017000435835,1.1174321683613522e-17,-0.0031651017000435835,-7.319271254228513e-18,0.37948305851020525,-7.132991200237102e-18,-0.3794830585102053,0.7019758722135073,0.12024869920365368,0.7019758722135074,700.0,173.57142857142813,[0.34605593]
-1.0051144415025744e-17,0.3542595929799831,1.0633929552516304e-17,0.3542595929799831,1.1270435107708508e-18,-0.0032099515415550473,1.0633929552516304e-17,-0.0032099515415550473,-7.449773885109779e-18,0.3542741353912849,-7.257255257268222e-18,-0.3542741353912848,0.7019144602817879,0.12096355192640786,0.7019144602817876,700.0,173.57142857142813,[0.27783889]
-1.1566982666031219e-17,0.2969365867912842,1.007390098085769e-17,0.2969365867912842,1.7472701515080114e-19,-0.0038399685482492156,1.007390098085769e-17,-0.0038399685482492156,-7.676864741757637e-18,0.29696141489040173,-7.416968070086162e-18,-0.2969614148904018,0.7015781471028805,0.12480467545479879,0.7015781471028805,700.0,173.57142857142813,[0.30055926]
-1.5702369568094124e-17,0.10555910487120648,9.499814888279044e-18,0.10555910487120648,-4.576613312604816e-18,-0.0030744239934326406,9.499814888279044e-18,-0.0030744239934326406,-8.666622740624287e-18,0.10560386689937903,-8.119777932646996e-18,-0.10560386689937906,0.7000579226366899,0.14084676037170685,0.7000579226366899,700.0,173.57142857142813,[0.14640336]
-1.5724346102608433e-17,0.10551470519658113,9.368515268877583e-18,0.10551470519658113,-4.699519116740395e-18,0.003887045198294363,9.368515268877583e-18,0.003887045198294363,-8.42908624720111e-18,0.10558627814775468,-9.128042016727181e-18,-0.10558627814775469,0.6992697457631575,0.14847102518895308,0.6992697457631575,700.0,173.57142857142813,[0.14640336]
-1.1637795943910659e-17,0.2968036616197619,9.067965810751341e-18,0.2968036616197619,-1.8510482311589143e-19,0.004672589311421092,9.067965810751341e-18,0.004672589311421092,-6.957743695706087e-18,0.296840439700812,-7.24467756053222e-18,-0.29684043970081203,0.7013273489886681,0.12759270794623753,0.7013273489886682,700.0,173.57142857142813,[0.30055926]
-1.015668604374261e-17,0.3540385687154446,8.776293448163865e-18,0.3540385687154446,5.211287489920828e-19,0.0040619322829538295,8.776293448163865e-18,0.0040619322829538295,-6.255308536970957e-18,0.3540618694973408,-6.4571910751112035e-18,-0.3540618694973408,0.701706122166772,0.12335735173609687,0.7017061221667719,700.0,173.57142857142813,[0.27783889]
-9.28033781557943e-18,0.3791612337990157,8.510641912900622e-18,0.3791612337990157,7.24886494921045e-19,0.004035913456219894,8.510641912900622e-18,0.004035913456219894,-5.6491902887615e-18,0.37918271296753225,-5.830873181767514e-18,-0.37918271296753225,0.7017781672650663,0.12253492522611499,0.7017781672650663,700.0,173.57142857142813,[0.34605593]
-8.602592343767782e-18,0.3926068645801221,8.249178806669042e-18,0.3926068645801221,7.663298979711767e-19,0.004280832263863667,8.249178806669042e-18,0.004280832263863667,-5.065862520789105e-18,0.3926302021499439,-5.246220704663072e-18,-0.39263020214994376,0.7017556799944366,0.12279222773079841,0.7017556799944366,700.0,173.57142857142813,[0.34521733]
-8.030659815913918e-18,0.4003851447862111,7.983255956164882e-18,0.4003851447862111,7.291597099654939e-19,0.004681872020667614,7.983255956164882e-18,0.004681872020667614,-4.50017024347634e-18,0.4004125174006092,-4.687297301877115e-18,-0.40041251740060924,0.7016868928824723,0.12357592287288038,0.7016868928824722,700.0,173.57142857142813,[0.34521733]
-7.516517434375458e-18,0.40481074643670095,7.727829614043714e-18,0.40481074643670095,6.453233005220194e-19,0.005199366058886876,7.727829614043714e-18,0.005199366058886876,-3.944516630077519e-18,0.40484413523978985,-4.143571879033046e-18,-0.4048441352397899,0.7015859095937825,0.12471737216173849,0.7015859095937825,700.0,173.57142857142813,[0.34521733]
-7.040901817047268e-18,0.4068853913929844,7.473302003658084e-18,0.4068853913929844,5.270976842922654e-19,0.005826686862304442,7.473302003658084e-18,0.005826686862304442,-3.3921866283799367e-18,0.406927108962789,-3.606979966961261e-18,-0.4069271089627889,0.7014549790884398,0.12618171271651543,0.7014549790884398,700.0,173.57142857142813,[0.34521733]
-6.6019137572429265e-18,0.40700403335722296,7.222962822304117e-18,0.40700403335722296,3.9035480286989934e-19,0.006578568093950445,7.222962822304117e-18,0.006578568093950445,-2.8439263552961142e-18,0.4070571958917004,-3.0780670797043956e-18,-0.4070571958917004,0.7012893705331336,0.1280095213430749,0.7012893705331336,700.0,173.57142857142813,[0.34521733]
-6.21230507128555e-18,0.40517517127959984,6.976566190544731e-18,0.40517517127959984,2.242420466182254e-19,0.007492043632101734,6.976566190544731e-18,0.007492043632101734,-2.308078754484263e-18,0.4052444325826554,-2.567546753700503e-18,-0.4052444325826554,0.7010768607958139,0.13031680825348016,0.7010768607958139,700.0,173.57142857142813,[0.34521733]
-5.867192084838625e-18,0.40102354674329466,6.731585485198883e-18,0.40102354674329466,1.1666555359447902e-20,0.008638266051657914,6.731585485198883e-18,0.008638266051657914,-1.772502468913329e-18,0.4011165724361818,-2.0643197105269517e-18,-0.4011165724361818,0.7007926957191941,0.13333864876040488,0.7007926957191941,700.0,173.57142857142813,[0.34521733]
-5.563047699770228e-18,0.39357732402586765,6.499712697429856e-18,0.39357732402586765,-2.3027881072863737e-19,0.01015439960673063,6.499712697429856e-18,0.01015439960673063,-1.2511702334905582e-18,0.39370829533899326,-1.5882344816930443e-18,-0.3937082953389932,0.7003849452902213,0.1375567403714824,0.7003849452902213,700.0,173.57142857142813,[0.34521733]
-5.367429411068787e-18,0.38057895237178435,6.282083959808992e-18,0.38057895237178435,-5.403921310972177e-19,0.012329975378722078,6.282083959808992e-18,0.012329975378722078,-7.4469250750801465e-19,0.380778632910573,-1.1556599405088541e-18,-0.38077863291057307,0.699728539175491,0.14408311117777436,0.699728539175491,700.0,173.57142857142813,[0.34605593]
-5.392526070853646e-18,0.3561564506704887,6.100336662799453e-18,0.3561564506704887,-1.0411383226153813e-18,0.015882729835630747,6.100336662799453e-18,0.015882729835630747,-2.7368924927542027e-19,0.3565104184469674,-8.318956848249239e-19,-0.35651041844696746,0.6984358896327102,0.1561237206382497,0.6984358896327101,700.0,173.57142857142813,[0.29748889]
-5.9484509994933845e-18,0.3003263874532079,6.0062072314036746e-18,0.3003263874532079,-2.0427324488670525e-18,0.02310534407439245,6.0062072314036746e-18,0.02310534407439245,8.519298564806143e-20,0.30121387073886624,-8.80390092631006e-19,-0.30121387073886635,0.6945173615259689,0.18785970583925996,0.694517361525969,700.0,173.57142857142813,[0.35751279]
-9.071289422452579e-18,0.11314882176179006,6.301449085129471e-18,0.11314882176179006,-6.837110156713192e-18,0.040787399820479464,6.301449085129471e-18,0.040787399820479464,-4.0636240208402553e-19,0.12027579910437919,-5.685414985556772e-18,-0.12027579910437922,0.6341762150783574,0.44231330124446644,0.6341762150783573,700.0,173.57142857142813,[0.32447386]
-8.643967918007685e-18,0.11611537509788013,6.225370595855978e-18,0.11611537509788013,-6.827173236014592e-18,0.04707832103561526,6.225370595855978e-18,0.04707832103561526,-5.837347408337712e-19,0.12529624354167154,-4.529837944884008e-18,-0.12529624354167154,0.5307714092656608,0.6607294621948451,0.5307714092656606,700.0,160.7142857142859,[0.32370337]
-4.955301560115267e-18,0.30385877514289306,5.222127381655605e-18,0.30385877514289306,-1.9997289831816457e-18,0.030833873566926618,5.222127381655605e-18,0.030833873566926618,-1.6417963516013749e-19,0.3054191922431864,-1.2868812723196749e-18,-0.3054191922431864,0.6404388530501258,0.4238822371929244,0.6404388530501259,700.0,160.7142857142859,[0.61731228]
-3.797870742361668e-18,0.3590435001514134,4.626878700285402e-18,0.3590435001514134,-9.77989700291858e-19,0.022533106368407527,4.626878700285402e-18,0.022533106368407527,-6.118158682687214e-19,0.35974987961580757,-1.1892819139974951e-18,-0.35974987961580746,0.651487741735001,0.38875113470967143,0.651487741735001,700.0,160.7142857142859,[0.83626179]
-3.1842913250269842e-18,0.38332849086292625,4.157617794615574e-18,0.38332849086292625,-4.524012070271956e-19,0.0189559094557378,4.157617794615574e-18,0.0189559094557378,-1.191243479652929e-18,0.3837968973435595,-1.608172953674904e-18,-0.3837968973435593,0.655076963159929,0.3764948136088066,0.6550769631599289,700.0,160.7142857142859,[0.84951981]
-2.7590046848889702e-18,0.3964250494077089,3.7380881247457765e-18,0.3964250494077089,-1.2572069976009702e-19,0.017244355620840587,3.7380881247457765e-18,0.017244355620840587,-1.8064847028382325e-18,0.39679993397010827,-2.1320270874339668e-18,-0.3967999339701083,0.6566463146931724,0.3709868391193278,0.6566463146931724,700.0,160.7142857142859,[0.84737923]
-2.4433294020815834e-18,0.4041056107737071,3.334231149339598e-18,0.4041056107737071,1.3511498997686175e-19,0.01647381465841208,3.334231149339598e-18,0.01647381465841208,-2.452113233006284e-18,0.4044412580686974,-2.7214180428058454e-18,-0.40444125806869735,0.6573596827763105,0.3684514824511594,0.6573596827763104,700.0,160.7142857142859,[0.84737923]
-2.185037292728225e-18,0.40859339054381755,2.951519805522418e-18,0.40859339054381755,3.7226146774122064e-19,0.016283270142613708,2.951519805522418e-18,0.016283270142613708,-3.0963173581595195e-18,0.4089177223875603,-3.327764737928442e-18,-0.4089177223875604,0.6575971764036537,0.36760292051598775,0.6575971764036537,700.0,160.7142857142859,[0.84737923]
-1.969206018578439e-18,0.4108545576799344,2.5777661039561516e-18,0.4108545576799344,5.469376112843498e-19,0.016523603604155043,2.5777661039561516e-18,0.016523603604155043,-3.757309113844518e-18,0.4111866936592693,-3.9594891780355675e-18,-0.41118669365926935,0.6575022444132474,0.36794238296652443,0.6575022444132474,700.0,160.7142857142859,[0.84939021]
-1.785525600477364e-18,0.41127723838488683,2.2127538403081926e-18,0.41127723838488683,7.243777788443248e-19,0.017150197657512908,2.2127538403081926e-18,0.017150197657512908,-4.428068218202543e-18,0.4116346633766291,-4.602902206859752e-18,-0.41163466337662924,0.657116540121792,0.3693178920614735,0.657116540121792,700.0,160.7142857142859,[0.84939021]
-1.6467478547481175e-18,0.4098851508319593,1.855067088165003e-18,0.4098851508319593,8.556265266381138e-19,0.018192735661129528,1.855067088165003e-18,0.018192735661129528,-5.104762343455636e-18,0.41028869409645424,-5.267955061486335e-18,-0.4102886940964543,0.6564142683407245,0.3718072304802893,0.6564142683407245,700.0,160.7142857142859,[0.84822643]
-1.5405279379289579e-18,0.4063451634243393,1.5103102029717832e-18,0.4063451634243393,9.787697316094955e-19,0.01976467981098128,1.5103102029717832e-18,0.01976467981098128,-5.7925464791812275e-18,0.40682555771040674,-5.938047573982234e-18,-0.4068255577104069,0.6552920565422921,0.37574544743103266,0.6552920565422921,700.0,160.7142857142859,[0.84737923]
-1.465170129764152e-18,0.39977465710977533,1.1898953820496207e-18,0.39977465710977533,1.0396969603980076e-18,0.02211980182683077,1.1898953820496207e-18,0.02211980182683077,-6.499695740227299e-18,0.4003861412437956,-6.6103048330532804e-18,-0.40038614124379573,0.6535046532240956,0.381920589166006,0.6535046532240957,700.0,160.7142857142859,[0.84737923]
-1.4906059336001576e-18,0.38811027976123263,8.986511888267172e-19,0.38811027976123263,1.0287595647485252e-18,0.025819468737361736,8.986511888267172e-19,0.025819468737361736,-7.230313769612723e-18,0.3889681660781791,-7.322481596952785e-18,-0.388968166078179,0.6504518531324799,0.3922050146454603,0.6504518531324798,700.0,160.7142857142859,[0.84651521]
-1.7014178757929722e-18,0.36596524914187256,6.72096603709735e-19,0.36596524914187256,8.357526852409148e-19,0.03227180133310014,6.72096603709735e-19,0.03227180133310014,-8.024877409841866e-18,0.3673854008269192,-8.09538163728693e-18,-0.36738540082691923,0.6443315212694003,0.4119147744343734,0.6443315212694003,700.0,160.7142857142859,[0.83666352]
-2.4290853519334202e-18,0.3148939471579089,6.3161128260409275e-19,0.3148939471579089,1.379553214052157e-19,0.04592177635722144,6.3161128260409275e-19,0.04592177635722144,-8.986825596514483e-18,0.3182247751204964,-8.947652576677112e-18,-0.3182247751204967,0.6267388001510318,0.4630301855932176,0.6267388001510318,700.0,160.7142857142859,[0.61731228]
-5.424202125230752e-18,0.13884643866740676,1.3013126814526039e-18,0.13884643866740676,-4.338729196529213e-18,0.07702305591513062,1.3013126814526039e-18,0.07702305591513062,-1.1058334418121336e-17,0.15877935846049787,-1.4297791615563434e-17,-0.1587793584604978,0.470348312549282,0.7466893127426466,0.4703483125492819,700.0,160.7142857142859,[0.3470566]
-5.216374650688029e-18,0.14424219820611814,1.0889618731277111e-18,0.14424219820611814,-4.263167901933719e-18,0.08140229501444005,1.0889618731277111e-18,0.08140229501444005,-1.2006377698696937e-17,0.1656265237724654,1.5078887414701828e-18,-0.16562652377246542,0.3365252027720247,0.8794893835621301,0.3365252027720247,700.0,147.85714285714295,[0.33318588]
-2.3302587754292598e-18,0.32141031808649695,-4.0046765454503123e-19,0.32141031808649695,3.9573871468185386e-19,0.0513502014181999,-4.0046765454503123e-19,0.0513502014181999,-1.1336195139225862e-17,0.325486460176384,-1.091844155724751e-17,-0.32548646017638416,0.5318749118805136,0.6589523171096615,0.5318749118805136,700.0,147.85714285714295,[0.61931183]
-1.6757107567160492e-18,0.3714187926859899,-1.1498763840143052e-18,0.3714187926859899,1.25969122777562e-18,0.03700802015233159,-1.1498763840143052e-18,0.03700802015233159,-1.1791869086346623e-17,0.37325797126908583,-1.1469099394730439e-17,-0.37325797126908583,0.558474224549621,0.613362112481199,0.5584742245496211,700.0,147.85714285714295,[1.21603867]
-1.5291326978104274e-18,0.3934151035512219,-1.705481245455774e-18,0.3934151035512219,1.606906907339654e-18,0.030592475877175562,-1.705481245455774e-18,0.030592475877175562,-1.2456472726176336e-17,0.39460276644052333,-1.215255760747761e-17,-0.39460276644052344,0.5677563711873791,0.5960750002745275,0.5677563711873792,700.0,147.85714285714295,[1.22260466]
-1.5277761216058404e-18,0.4053544421463236,-2.1817221596282658e-18,0.4053544421463236,1.783880751829302e-18,0.02726745961776442,-2.1817221596282658e-18,0.02726745961776442,-1.318410628791167e-17,0.4062705233237621,-1.2830856309310199e-17,-0.4062705233237621,0.5721249210095058,0.587661594388925,0.5721249210095058,700.0,147.85714285714295,[1.22403923]
-1.6465782827225441e-18,0.4124441312825978,-2.6175455815053447e-18,0.4124441312825978,1.8858910431136026e-18,0.025481658654778534,-2.6175455815053447e-18,0.025481658654778534,-1.3947112574181607e-17,0.4132305365740235,-1.3581786576807232e-17,-0.4132305365740235,0.5743866066238087,0.583232417019469,0.5743866066238088,700.0,147.85714285714295,[1.21019584]
-1.791426706967317e-18,0.41668556734511275,-3.0373804810211745e-18,0.41668556734511275,1.950069815492484e-18,0.02462420731724531,-3.0373804810211745e-18,0.02462420731724531,-1.4737894758240464e-17,0.41741252211657587,-1.4303487281873566e-17,-0.41741252211657603,0.5754885166895852,0.5810558788247839,0.5754885166895852,700.0,147.85714285714295,[1.21019584]
-1.9445841604651855e-18,0.4189510735303767,-3.437428444802912e-18,0.4189510735303767,1.9718004705697115e-18,0.02443302802400729,-3.437428444802912e-18,0.02443302802400729,-1.5531050950657348e-17,0.4196629300649236,-1.507678431309125e-17,-0.41966293006492367,0.5758060388227224,0.5804264047323924,0.5758060388227226,700.0,147.85714285714295,[1.1989755]
-2.1523098917925646e-18,0.41959688616008545,-3.826787012022567e-18,0.41959688616008545,1.9772649290938134e-18,0.02481298683429995,-3.826787012022567e-18,0.02481298683429995,-1.6343996198458644e-17,0.42032990756176125,-1.5863937010636652e-17,-0.4203299075617614,0.5754721874742184,0.5810882229810514,0.5754721874742184,700.0,147.85714285714295,[1.1989755]
-2.4004615940166353e-18,0.41865726120038016,-4.200017159959876e-18,0.41865726120038016,1.950171558707828e-18,0.025780535299453896,-4.200017159959876e-18,0.025780535299453896,-1.7168243421764406e-17,0.41945028114918426,-1.6626042994304883e-17,-0.41945028114918415,0.5744699924502459,0.5830681397130434,0.5744699924502458,700.0,147.85714285714295,[1.1989755]
-2.6555318348840994e-18,0.41585539653590803,-4.558349345625404e-18,0.41585539653590803,1.9003512975943718e-18,0.02746897090983024,-4.558349345625404e-18,0.02746897090983024,-1.8018146892539418e-17,0.41676162874103734,-1.735004294453246e-17,-0.41676162874103745,0.5726267564348987,0.5866832157388636,0.5726267564348989,700.0,147.85714285714295,[1.22605021]
-2.965204267986189e-18,0.4104396676738924,-4.884423632901078e-18,0.4104396676738924,1.8049076830004e-18,0.0301984088707354,-4.884423632901078e-18,0.0301984088707354,-1.8883642511065902e-17,0.4115491036299062,-1.8079633175695922e-17,-0.4115491036299063,0.5695055690381436,0.5927282797952874,0.5695055690381438,700.0,147.85714285714295,[1.22461564]
-3.345859550993292e-18,0.40063965553515907,-5.175362596477949e-18,0.40063965553515907,1.6193874084218541e-18,0.03469086545977808,-5.175362596477949e-18,0.03469086545977808,-1.9800721939771805e-17,0.40213876924971975,-1.8798428330729258e-17,-0.4021387692497197,0.5640389321719878,0.6030921703923603,0.5640389321719879,700.0,147.85714285714295,[1.22260466]
-3.871973717537231e-18,0.38180529622856174,-5.3749234347739704e-18,0.38180529622856174,1.2851164333600273e-18,0.04276594923646368,-5.3749234347739704e-18,0.04276594923646368,-2.0811540784214668e-17,0.38419293413892386,-1.9450719574898093e-17,-0.38419293413892386,0.5531269253232589,0.622977695399182,0.5531269253232588,700.0,147.85714285714295,[1.26158418]
-4.814014148407535e-18,0.3378103641427778,-5.340070024567684e-18,0.3378103641427778,4.2137588529822784e-19,0.06014054876736566,-5.340070024567684e-18,0.06014054876736566,-2.208624761485481e-17,0.34312203037449523,-2.0375245754079856e-17,-0.3431220303744952,0.5235170440634302,0.6722051838167991,0.5235170440634305,700.0,147.85714285714295,[0.6128925]
-7.665503416044221e-18,0.17761273241541214,-4.406645972246827e-18,0.17761273241541214,-4.2247004879324e-18,0.09850153696276544,-4.406645972246827e-18,0.09850153696276544,-2.484247131852438e-17,0.20309809329507714,-1.5860197366186537e-17,-0.20309809329507708,0.3411379089419392,0.8759279959936447,0.34113790894193896,700.0,147.85714285714295,[0.69613256]
-7.32483321666732e-18,0.18436723995101856,-4.431511590146842e-18,0.18436723995101856,-4.276833287544613e-18,0.10010301517987943,-4.431511590146842e-18,0.10010301517987943,-2.458072417914996e-17,0.20979011610478615,-1.9628449034150188e-17,-0.2097901161047862,0.20082982538855343,0.9588194629171887,0.20082982538855323,700.0,134.9999999999996,[0.76864865]
-4.385539554188742e-18,0.3460164270836236,-5.553039240873339e-18,0.3460164270836236,2.6171958392025996e-19,0.062197565874820025,-5.553039240873339e-18,0.062197565874820025,-2.0694786205306763e-17,0.3515620926841646,-1.8296782151395238e-17,-0.35156209268416466,0.4036539591652974,0.8210523506454145,0.40365395916529745,700.0,134.9999999999996,[0.7907285]
-3.3419254799999896e-18,0.388740209786623,-5.775306833218795e-18,0.388740209786623,1.0300801068976778e-18,0.04465640078199772,-5.775306833218795e-18,0.04465640078199772,-1.831410518807326e-17,0.3912967477960302,-1.686830744693346e-17,-0.39129674779603024,0.43967118426445684,0.7831848437342108,0.4396711842644568,700.0,134.9999999999996,[1.32703148]
-2.6567018818605557e-18,0.40744344923688475,-5.749607132917991e-18,0.40744344923688475,1.260704420628421e-18,0.036674655294924044,-5.749607132917991e-18,0.036674655294924044,-1.6242049496683934e-17,0.40909069247179347,-1.5097297231365237e-17,-0.4090906924717933,0.4531620992177939,0.7676511080334899,0.4531620992177938,700.0,134.9999999999996,[1.33196635]
-2.1152923186098978e-18,0.41764084417531344,-5.627595291304731e-18,0.41764084417531344,1.3334179650194421e-18,0.03239588792862565,-5.627595291304731e-18,0.03239588792862565,-1.426605635778192e-17,0.4188954144869007,-1.333663936978827e-17,-0.4188954144869008,0.4598342962509695,0.7596741669839451,0.4598342962509695,700.0,134.9999999999996,[1.32966297]
-1.6568543474722904e-18,0.4237586705325536,-5.46585961296317e-18,0.4237586705325536,1.3407508953003306e-18,0.029949357807993633,-5.46585961296317e-18,0.029949357807993633,-1.2344881615447139e-17,0.42481569519572665,-1.1551978618379421e-17,-0.4248156951957267,0.46350607708022135,0.7551981415624693,0.46350607708022135,700.0,134.9999999999996,[1.35243897]
-1.2206811832924661e-18,0.42749007558570845,-5.279737357693838e-18,0.42749007558570845,1.2919215707113186e-18,0.028595337407969764,-5.279737357693838e-18,0.028595337407969764,-1.0462504952563545e-17,0.4284453968077499,-9.73130531733249e-18,-0.4284453968077499,0.4655140901848989,0.7527238960459883,0.46551409018489887,700.0,134.9999999999996,[1.36112017]
-8.143357384109981e-19,0.4295738274935731,-5.074230900251151e-18,0.4295738274935731,1.2070073190802935e-18,0.02801069596798144,-5.074230900251151e-18,0.02801069596798144,-8.600349753729574e-18,0.43048608845825515,-7.88631060250141e-18,-0.43048608845825515,0.4664066299607361,0.7516180619552313,0.4664066299607362,700.0,134.9999999999996,[1.35857072]
-4.367666662693308e-19,0.43031552017282637,-4.85135761782685e-18,0.43031552017282637,1.111370816307232e-18,0.02806862405731382,-4.85135761782685e-18,0.02806862405731382,-6.752184247005408e-18,0.43122997873301994,-6.08719499215854e-18,-0.43122997873302005,0.466394865794506,0.7516326618242778,0.466394865794506,700.0,134.9999999999996,[1.35857072]
-4.941328825208022e-20,0.42975316989756,-4.617664580345809e-18,0.42975316989756,9.777554789315348e-19,0.028769082001720656,-4.617664580345809e-18,0.028769082001720656,-4.931417340313258e-18,0.43071504166469826,-4.291025355623561e-18,-0.4307150416646982,0.4654865155696059,0.7527580007185141,0.4654865155696058,700.0,134.9999999999996,[1.36112017]
2.7504582548000723e-19,0.42766933836151094,-4.356717608967068e-18,0.42766933836151094,8.210709273017404e-19,0.030238800802827395,-4.356717608967068e-18,0.030238800802827395,-3.130337745790177e-18,0.4287370383446779,-2.504106292256364e-18,-0.42873703834467775,0.4634898574346767,0.7552180507048055,0.4634898574346765,700.0,134.9999999999996,[1.36112017]
6.048888510240492e-19,0.42345921422967586,-4.085070642774647e-18,0.42345921422967586,6.103925230790649e-19,0.03280083622360428,-4.085070642774647e-18,0.03280083622360428,-1.3664368178740569e-18,0.42472767860475297,-7.206352172124382e-19,-0.424727678604753,0.45989277092724046,0.7596033691985111,0.45989277092724046,700.0,134.9999999999996,[1.35243897]
8.603915005567256e-19,0.41568601005356554,-3.7589110395736065e-18,0.41568601005356554,3.2577541658060074e-19,0.03719484977639594,-3.7589110395736065e-18,0.03719484977639594,3.214958425851928e-19,0.4173467572704279,9.483193330439969e-19,-0.4173467572704281,0.45344926453078377,0.7673118850851866,0.45344926453078377,700.0,134.9999999999996,[1.33981572]
1.0014075970235405e-18,0.40054196417947413,-3.3371189079438544e-18,0.40054196417947413,-1.0942747766539568e-19,0.04529154233744654,-3.3371189079438544e-18,0.04529154233744654,1.878921632862537e-18,0.40309451605802804,2.53714786325965e-18,-0.40309451605802826,0.4406540001041392,0.7820793466039383,0.4406540001041392,700.0,134.9999999999996,[1.3278955]
8.548125809153617e-19,0.36454241642301927,-2.677956940397308e-18,0.36454241642301927,-1.0799406413672078e-18,0.06294741411428466,-2.677956940397308e-18,0.06294741411428466,3.063140591356089e-18,0.3699372248303884,4.041744051970478e-18,-0.3699372248303884,0.40762997350024627,0.8171141960634248,0.4076299735002461,700.0,134.9999999999996,[1.3136082]
-7.796752163838011e-19,0.22177896826699023,-1.1140911225362349e-18,0.22177896826699023,-5.8369372560008565e-18,0.10096781574101758,-1.1140911225362349e-18,0.10096781574101758,2.3613116526123833e-18,0.24368096064543643,4.026635731170237e-18,-0.24368096064543657,0.24788796015490622,0.9365378360859102,0.2478879601549061,700.0,134.9999999999996,[0.80030399]
-3.936529787673014e-19,0.22855561153976167,-6.725841232832584e-19,0.22855561153976167,-5.9534878185654936e-18,0.09947341417001657,-6.725841232832584e-19,0.09947341417001657,2.411123435124561e-18,0.24926417250169383,-7.803022927604726e-19,-0.24926417250169366,0.10601706511883718,0.9886964973171375,0.10601706511883742,700.0,122.14285714285755,[0.83915588]
1.425753112419622e-18,0.372817419940948,-1.2192668466166682e-18,0.372817419940948,-1.4150732542839791e-18,0.06122287421642095,-1.2192668466166682e-18,0.06122287421642095,3.831723677617072e-18,0.3778108904448693,4.196630762248965e-18,-0.37781089044486893,0.2742101584683199,0.9217470249399007,0.2742101584683199,700.0,122.14285714285755,[1.33058463]
1.8120636224795964e-18,0.40759222351608154,-8.682959415550542e-19,0.40759222351608154,-6.795498241462646e-19,0.04395732637857419,-8.682959415550542e-19,0.04395732637857419,3.336560645040912e-18,0.4099556893289027,3.60219015451026e-18,-0.409955689328903,0.309836636135572,0.8988896026856615,0.309836636135572,700.0,122.14285714285755,[1.33362826]
1.925999066462344e-18,0.42265139504350696,-2.8021273809048583e-19,0.42265139504350696,-4.587145855043242e-19,0.035990356878113375,-2.8021273809048583e-19,0.035990356878113375,2.430355022474901e-18,0.4241809843927901,2.4502468153560326e-18,-0.4241809843927901,0.3240471140699731,0.8888120924727811,0.3240471140699732,700.0,122.14285714285755,[1.34505841]
1.9194451076739333e-18,0.4308681177504829,4.0010016017085894e-19,0.4308681177504829,-4.046057418816014e-19,0.031605131667124954,4.0010016017085894e-19,0.031605131667124954,1.37749715324208e-18,0.4320257159493408,1.346707831318854e-18,-0.4320257159493408,0.3313953770255326,0.8833765947613793,0.33139537702553257,700.0,122.14285714285755,[1.36133421]
1.8613497317124965e-18,0.4358263712680484,1.1128267511205534e-18,0.4358263712680484,-4.226694019058047e-19,0.02898200419745409,1.1128267511205534e-18,0.02898200419745409,2.478591904799566e-19,0.4367889449837027,8.637193693033093e-20,-0.43678894498370285,0.3356476153061901,0.8801598472314764,0.3356476153061901,700.0,122.14285714285755,[1.36353793]
1.8054163990771202e-18,0.4388856654177095,1.8619172680855874e-18,0.4388856654177095,-4.910662784208237e-19,0.02739889675279114,1.8619172680855874e-18,0.02739889675279114,-9.186850638230511e-19,0.43974006737209637,-1.1603876595112614e-18,-0.43974006737209614,0.33816779737481223,0.8782283766978473,0.3381677973748121,700.0,122.14285714285755,[1.36353793]
1.7131183455575348e-18,0.44063794501999254,2.6220983254356998e-18,0.44063794501999254,-5.792734068234518e-19,0.026535625403544705,2.6220983254356998e-18,0.026535625403544705,-2.1264702945706624e-18,0.4414362219018724,-2.446460559678399e-18,-0.4414362219018725,0.3395326389296627,0.8771745403298701,0.33953263892966273,700.0,122.14285714285755,[1.36353793]
1.6229950532659276e-18,0.44132942795625524,3.3936834989400566e-18,0.44132942795625524,-7.045198348245233e-19,0.02625882190522608,3.3936834989400566e-18,0.02625882190522608,-3.3499939289418026e-18,0.4421099294384211,-3.752627825473417e-18,-0.44210992943842103,0.3399785045328566,0.876829078504588,0.33997850453285655,700.0,122.14285714285755,[1.36353793]
1.5046464973176327e-18,0.44099435690869204,4.181810953451675e-18,0.44099435690869204,-8.404885139676311e-19,0.02655196426864789,4.181810953451675e-18,0.02655196426864789,-4.612049626649011e-18,0.44179297146042795,-5.0765638855196205e-18,-0.4417929714604278,0.3395398205727834,0.8771689805794572,0.3395398205727834,700.0,122.14285714285755,[1.36353793]
1.3884642239960377e-18,0.4394659222590591,4.98944846437438e-18,0.4394659222590591,-1.0284201557410885e-18,0.027510117977316798,4.98944846437438e-18,0.027510117977316798,-5.890384238811263e-18,0.4403261330174842,-6.468230973166536e-18,-0.4403261330174842,0.33806222847911843,0.8783096602858612,0.33806222847911827,700.0,122.14285714285755,[1.36353793]
1.2207235762988595e-18,0.43627285453392867,5.8147316667738786e-18,0.43627285453392867,-1.247287564017508e-18,0.029395296328432494,5.8147316667738786e-18,0.029395296328432494,-7.234650574166762e-18,0.43726203476796277,-7.961652817888887e-18,-0.4372620347679628,0.3351026995138474,0.8805750175635602,0.3351026995138475,700.0,122.14285714285755,[1.36353793]
1.0621906895903152e-18,0.4302866049801301,6.681908697916439e-18,0.4302866049801301,-1.5513553767181078e-18,0.032818309646091275,6.681908697916439e-18,0.032818309646091275,-8.652445459461193e-18,0.4315363297259611,-9.614849353924075e-18,-0.43153632972596084,0.32958105449283587,0.8847330993236213,0.32958105449283587,700.0,122.14285714285755,[1.36768694]
8.0489905518784e-19,0.4184804582710298,7.61908757830044e-18,0.4184804582710298,-2.0168615868029352e-18,0.039330438772564695,7.61908757830044e-18,0.039330438772564695,-1.0250939474682088e-17,0.42032460952075335,-1.1548764294835887e-17,-0.4203246095207532,0.3185293252673566,0.8927923262939961,0.3185293252673566,700.0,122.14285714285755,[1.3273437]
3.5604190349512773e-19,0.38981028688788244,8.767198955989188e-18,0.38981028688788244,-3.003029957853229e-18,0.05376784624262343,8.767198955989188e-18,0.05376784624262343,-1.2322065699406242e-17,0.39350100514888564,-1.4369161878064422e-17,-0.393501005148886,0.2908655017404085,0.9114793029984832,0.2908655017404086,700.0,122.14285714285755,[1.32865783]
-1.2328861298331095e-18,0.2626105319358211,1.0636748819919607e-17,0.2626105319358211,-7.773239810188958e-18,0.08391422638468725,1.0636748819919607e-17,0.08391422638468725,-1.665514814748386e-17,0.27569165542931373,-2.0698632963729996e-17,-0.2756916554293138,0.17611523837000378,0.9684868845925346,0.17611523837000376,700.0,122.14285714285755,[0.84675233]
-9.548727939055683e-19,0.2680673192011732,1.0524752326066774e-17,0.2680673192011732,-7.766683864228372e-18,0.07961850457769762,1.0524752326066774e-17,0.07961850457769762,-1.705474144627203e-17,0.2796411877654874,-1.980476183335218e-17,-0.2796411877654874,0.033849251715728966,0.9988535710085688,0.03384925171572902,700.0,109.28571428571402,[0.85818387]
7.142161752118406e-19,0.39651697976543315,8.808211407633702e-18,0.39651697976543315,-2.9716910603550953e-18,0.04859906177735515,8.808211407633702e-18,0.04859906177735515,-1.3041699700835153e-17,0.39948414743008265,-1.4972910054192787e-17,-0.39948414743008276,0.15061248490211007,0.9770525875218913,0.15061248490211013,700.0,109.28571428571402,[1.33372862]
1.2779498956292327e-18,0.4242526689829017,7.804148816106634e-18,0.4242526689829017,-1.9875945150141313e-18,0.03502876370838148,7.804148816106634e-18,0.03502876370838148,-1.1304452315863686e-17,0.4256963018703042,-1.248521443321403e-17,-0.42569630187030416,0.17783085653690373,0.9678596865903147,0.17783085653690367,700.0,109.28571428571402,[1.37856183]
1.6512287955238938e-18,0.4360381447618661,6.985263645718905e-18,0.4360381447618661,-1.4967515947457425e-18,0.028654292687613644,6.985263645718905e-18,0.028654292687613644,-1.0081346252605521e-17,0.43697864041254625,-1.0940182180443496e-17,-0.43697864041254625,0.18927432648499912,0.9635094491842308,0.18927432648499914,700.0,109.28571428571402,[1.37741101]
1.9789182563431538e-18,0.4424272284161914,6.233932260931549e-18,0.4424272284161914,-1.1765686105772935e-18,0.0250307145469468,6.233932260931549e-18,0.0250307145469468,-9.036496952192983e-18,0.4431347302060217,-9.721517074514678e-18,-0.4431347302060216,0.19546974383343435,0.9610323399820545,0.19546974383343435,700.0,109.28571428571402,[1.36040924]
2.2680724743508654e-18,0.44626717354743084,5.511619418933014e-18,0.44626717354743084,-9.375119304404796e-19,0.022749883035636357,5.511619418933014e-18,0.022749883035636357,-8.079280884859022e-18,0.44684667097803005,-8.603261278236092e-18,-0.44684667097803005,0.1992596466698209,0.959474432394129,0.19925964666982093,700.0,109.28571428571402,[1.36392976]
2.542575669349038e-18,0.4486245385374291,4.81114453930914e-18,0.4486245385374291,-7.551634476090253e-19,0.021250389355258158,4.81114453930914e-18,0.021250389355258158,-7.175787354877026e-18,0.44912754939512595,-7.602045817743763e-18,-0.44912754939512606,0.2017018472500222,0.9584533007047642,0.20170184725002224,700.0,109.28571428571402,[1.37859258]
2.8246735714425777e-18,0.4499602509907719,4.126130985268571e-18,0.4499602509907719,-5.71732883289381e-19,0.02027841580208995,4.126130985268571e-18,0.02027841580208995,-6.314619002478143e-18,0.4504169641777726,-6.675342933464805e-18,-0.45041696417777266,0.20325727064552576,0.9577958884122768,0.20325727064552582,700.0,109.28571428571402,[1.37859258]
3.060633045027923e-18,0.4504641745065411,3.440301233376786e-18,0.4504641745065411,-4.469102528740979e-19,0.019720453892362388,3.440301233376786e-18,0.019720453892362388,-5.488450846070182e-18,0.4508956296257265,-5.775402012551346e-18,-0.45089562962572655,0.20412841196233533,0.9574252883956377,0.20412841196233533,700.0,109.28571428571402,[1.37859258]
3.3150483139466104e-18,0.45015998793618944,2.77725050236252e-18,0.45015998793618944,-3.326727587207976e-19,0.01954677538251471,2.77725050236252e-18,0.01954677538251471,-4.6818189767460144e-18,0.45058416657331035,-4.901733433310306e-18,-0.45058416657331024,0.20436911183697254,0.9573225852626344,0.20436911183697254,700.0,109.28571428571402,[1.37859258]
3.5596856359406725e-18,0.4489127449820418,2.1146044920811658e-18,0.4489127449820418,-2.469275379253904e-19,0.01980195532385134,2.1146044920811658e-18,0.01980195532385134,-3.925650152494742e-18,0.44934927399736563,-4.0952200881284256e-18,-0.4493492739973658,0.2039034958094066,0.9575211375178128,0.20390349580940662,700.0,109.28571428571402,[1.37859258]
3.7940045001785954e-18,0.44634499568873154,1.4693454434594613e-18,0.44634499568873154,-2.1300756872862715e-19,0.02063507382728605,1.4693454434594613e-18,0.02063507382728605,-3.2245599118874405e-18,0.44682173341079934,-3.348515194565987e-18,-0.4468217334107991,0.20247037483849814,0.9581291638529305,0.20247037483849806,700.0,109.28571428571402,[1.37859258]
3.999566068529594e-18,0.44154998639480425,8.502323477699234e-19,0.44154998639480425,-2.553317527256531e-19,0.022407115952787868,8.502323477699234e-19,0.022407115952787868,-2.6121897550601258e-18,0.4421181621813036,-2.6811075387252093e-18,-0.44211816218130356,0.199416411943828,0.9594092918535335,0.1994164119438281,700.0,109.28571428571402,[1.37859258]
4.155729186180751e-18,0.4320660974548587,2.7373084741294373e-19,0.4320660974548587,-4.658754929139571e-19,0.026042696670697082,2.7373084741294373e-19,0.026042696670697082,-2.2125318069372075e-18,0.4328502450267916,-2.24651029695813e-18,-0.4328502450267916,0.1929633737624685,0.9620448392733114,0.19296337376246853,700.0,109.28571428571402,[1.36278686]
4.206624110006278e-18,0.4086053262210802,-1.804092677452488e-19,0.4086053262210802,-1.181070681617194e-18,0.03439978302033804,-1.804092677452488e-19,0.03439978302033804,-2.3674422112494406e-18,0.4100507989116492,-2.3363022642009158e-18,-0.4100507989116491,0.17672789781072828,0.9682636522511836,0.17672789781072828,700.0,109.28571428571402,[1.34435291]
3.3784470550078543e-18,0.2920137220276557,-2.212102842703765e-19,0.2920137220276557,-5.709606218149465e-18,0.05069875580589045,-2.212102842703765e-19,0.05069875580589045,-5.035819127070723e-18,0.29638214806683333,-4.646898986907106e-18,-0.29638214806683316,0.11593124121729133,0.9864683951448401,0.11593124121729145,700.0,109.28571428571402,[0.85026692]
3.156892724994967e-18,0.29506757673704986,-3.585295118624746e-19,0.29506757673704986,-5.665683685333265e-18,0.04445156418781026,-3.585295118624746e-19,0.04445156418781026,-5.091723314514204e-18,0.2983970784042932,-4.921127016660843e-18,-0.2983970784042931,0.026386373092350764,0.9993035167705869,0.026386373092350736,700.0,96.42857142857196,[0.85333709]
3.30428896892398e-18,0.4124096187496591,-2.2766435453747294e-20,0.4124096187496591,-1.050656678614919e-18,0.026807587809305453,-2.2766435453747294e-20,0.026807587809305453,-2.2803940016590905e-18,0.41327997822468104,-2.2641452238492787e-18,-0.4132799782246811,0.033425716049773964,0.9988820966526131,0.033425716049773964,700.0,96.42857142857196,[1.3321899]
2.565569636016787e-18,0.4354076292972384,6.969151918682825e-19,0.4354076292972384,-2.340434421745112e-19,0.019620725562267863,6.969151918682825e-19,0.019620725562267863,-1.98632802394813e-18,0.43584948838082976,-2.038394122090463e-18,-0.4358494883808298,0.04745875999549544,0.9977451238665013,0.047458759995495446,700.0,96.42857142857196,[1.36097294]
1.7346052408480005e-18,0.4449354531280785,1.504501367509808e-18,0.4449354531280785,6.842635290227693e-20,0.016101558062896013,1.504501367509808e-18,0.016101558062896013,-2.2674482373317235e-18,0.44522670362674954,-2.3749116908060405e-18,-0.44522670362674954,0.05370743125332184,0.9971113396488577,0.05370743125332185,700.0,96.42857142857196,[1.36891488]
8.623988094094503e-19,0.45000909072289463,2.3519695587847404e-18,0.45000909072289463,2.0295095402603892e-19,0.013957426986412358,2.3519695587847404e-18,0.013957426986412358,-2.7561261997548622e-18,0.4502254896175112,-2.8966465522155963e-18,-0.4502254896175111,0.057349625562026066,0.9967055938920936,0.05734962556202606,700.0,96.42857142857196,[1.36891488]
-2.8257058411482556e-20,0.45299056768132856,3.210289299871209e-18,0.45299056768132856,2.6096366362500867e-19,0.01247058825663519,3.210289299871209e-18,0.01247058825663519,-3.3400358117400064e-18,0.45316218948597076,-3.5120242225952845e-18,-0.45316218948597087,0.05980431061910093,0.9964170255785217,0.05980431061910096,700.0,96.42857142857196,[1.36891488]
-9.238029595198874e-19,0.454752210401854,4.078239605946012e-18,0.454752210401854,2.7285139124749934e-19,0.011351496936376536,4.078239605946012e-18,0.011351496936376536,-3.986888969880245e-18,0.45489386602598725,-4.188657930868363e-18,-0.4548938660259872,0.06161187607546849,0.9961967443496903,0.06161187607546849,700.0,96.42857142857196,[1.3661627]
-1.8329167423244816e-18,0.45566569641976784,4.9582537030979836e-18,0.45566569641976784,2.505526036455286e-19,0.010462974280302417,4.9582537030979836e-18,0.010462974280302417,-4.6863778146710385e-18,0.45578580575145416,-4.912252005801843e-18,-0.45578580575145405,0.06301976826475748,0.9960205909597012,0.06301976826475751,700.0,96.42857142857196,[1.3661627]
-2.741487894647241e-18,0.4558787304792269,5.832857591526222e-18,0.4558787304792269,2.0302004137864557e-19,0.009733854360664693,5.832857591526222e-18,0.009733854360664693,-5.403231894705705e-18,0.4559826365379127,-5.651796131984784e-18,-0.4559826365379128,0.06415311345048952,0.9958758738262603,0.06415311345048956,700.0,96.42857142857196,[1.3661627]
-3.660918015557655e-18,0.4553997422221388,6.714481066302938e-18,0.4553997422221388,1.3459481454060094e-19,0.009127091799287956,6.714481066302938e-18,0.009127091799287956,-6.168379027798507e-18,0.4554911953273115,-6.437053689620353e-18,-0.45549119532731164,0.06507509340587399,0.9957562274153416,0.065075093405874,700.0,96.42857142857196,[1.36687061]
-4.5781691359394515e-18,0.4541005853623728,7.600478406394749e-18,0.4541005853623728,4.202080904502362e-20,0.00862794367720656,7.600478406394749e-18,0.00862794367720656,-6.972595025670835e-18,0.45418254374045075,-7.260362922351718e-18,-0.45418254374045086,0.06580836030166676,0.9956598412253111,0.06580836030166679,700.0,96.42857142857196,[1.36687061]
-5.508451866486561e-18,0.45163933836675746,8.48715353779581e-18,0.45163933836675746,-1.1105788619565464e-19,0.00824303086395452,8.48715353779581e-18,0.00824303086395452,-7.836772221698486e-18,0.4517145553534738,-8.14601606749591e-18,-0.4517145553534738,0.06633528235424638,0.9955899058497756,0.0663352823542464,700.0,96.42857142857196,[1.36687061]
-6.445795152248483e-18,0.4472006834720833,9.375150867322837e-18,0.4472006834720833,-3.2952527671330936e-19,0.008012016651047565,9.375150867322837e-18,0.008012016651047565,-8.799709225245227e-18,0.4472724490830116,-9.135469167806758e-18,-0.4472724490830116,0.06657133742822088,0.9955583930970778,0.06657133742822091,700.0,96.42857142857196,[1.36687061]
-7.43034728993003e-18,0.4385602357761001,1.027484783862602e-17,0.4385602357761001,-7.338453957143356e-19,0.008049719547120662,1.027484783862602e-17,0.008049719547120662,-9.983766030489325e-18,0.438634105364341,-1.0359901868274788e-17,-0.43863410536434105,0.06626242904719917,0.9955996087752997,0.06626242904719923,700.0,96.42857142857196,[1.36687061]
-8.498468761114774e-18,0.4171539015814159,1.1196097149423289e-17,0.4171539015814159,-1.6338600496091789e-18,0.008669855331040711,1.1196097149423289e-17,0.008669855331040711,-1.175196560925373e-17,0.4172439861712316,-1.2215954932680579e-17,-0.4172439861712316,0.06455325829223489,0.9958241580157173,0.06455325829223492,700.0,96.42857142857196,[1.33225096]
-1.0336587125323718e-17,0.3041106661976199,1.211922801419416e-17,0.3041106661976199,-6.32008094391749e-18,0.007891650266723133,1.211922801419416e-17,0.007891650266723133,-1.613076096603787e-17,0.30421304284841655,-1.6755918280658365e-17,-0.30421304284841655,0.06091633932199051,0.9962822889157553,0.06091633932199059,700.0,96.42857142857196,[0.84088578]
-1.0810112767436717e-17,0.3041516691380314,1.2070060539140089e-17,0.3041516691380314,-6.332901251441562e-18,0.0009301984443495567,1.2070060539140089e-17,0.0009301984443495567,-1.609854440082925e-17,0.30415309156508064,-1.6172320327357638e-17,-0.30415309156508064,0.08131943336395438,0.993365139067569,0.08131943336395431,700.0,83.57142857142804,[0.83539482]
-9.930994156305732e-18,0.4172882502857528,1.1659646591067703e-17,0.4172882502857528,-1.6403043827326193e-18,0.0001575949108046757,1.1659646591067703e-17,0.0001575949108046757,-1.1652059070911699e-17,0.41728828004474416,-1.166086569039134e-17,-0.41728828004474416,0.07943620453959424,0.9936698540343707,0.0794362045395942,700.0,83.57142857142804,[1.32481139]
-9.823491851043174e-18,0.43878606810929105,1.1222677465073307e-17,0.43878606810929105,-7.594148699986252e-19,0.0007787454958435777,1.1222677465073307e-17,0.0007787454958435777,-9.812912676297715e-18,0.43878675915683524,-9.852748216018998e-18,-0.4387867591568353,0.08041777651674065,0.9935119337180641,0.08041777651674063,700.0,83.57142857142804,[1.35872312]
-9.810954119402343e-18,0.44751720885525564,1.077336260138969e-17,0.44751720885525564,-3.887332041362815e-19,0.0008128611387579784,1.077336260138969e-17,0.0008128611387579784,-8.56930482523515e-18,0.4475179470868508,-8.608445606734744e-18,-0.44751794708685083,0.08044700606974022,0.9935072009949554,0.08044700606974017,700.0,83.57142857142804,[1.35872312]
-9.822834759444077e-18,0.4520459851707815,1.0323165068945617e-17,0.4520459851707815,-1.6469749222886116e-19,0.0005736480608575644,1.0323165068945617e-17,0.0005736480608575644,-7.533794174218485e-18,0.45204634915141184,-7.559997994212356e-18,-0.45204634915141184,0.08006245484577908,0.9935693265435158,0.08006245484577905,700.0,83.57142857142804,[1.35872312]
-9.860214792831407e-18,0.45459680531468005,9.862165202320863e-18,0.45459680531468005,-2.314121612589344e-20,0.0001759210077136102,9.862165202320863e-18,0.0001759210077136102,-6.597584901377586e-18,0.4545968393538544,-6.605218362256989e-18,-0.45459683935385453,0.07944275172734674,0.9936688071968317,0.07944275172734673,700.0,83.57142857142804,[1.35872312]
-9.906276913928094e-18,0.45598496006532885,9.40006272009545e-18,0.45598496006532885,5.547005656238407e-20,-0.0003406546997412123,9.40006272009545e-18,-0.0003406546997412123,-5.736529420358224e-18,0.4559850873125172,-5.7224866417830835e-18,-0.4559850873125172,0.07864587856576581,0.9937955783606794,0.07864587856576577,700.0,83.57142857142804,[1.35872312]
-9.948544860952576e-18,0.4565523275215393,8.941910802392389e-18,0.4565523275215393,1.209226063052405e-19,-0.0009694504114646617,8.941910802392389e-18,-0.0009694504114646617,-4.904504670117024e-18,0.4565533567935244,-4.86655287299116e-18,-0.4565533567935244,0.07767862449492319,0.9939477162271431,0.07767862449492316,700.0,83.57142857142804,[1.35903634]
-9.982675470399856e-18,0.4564270050187106,8.472921741876058e-18,0.4564270050187106,1.5178286026556426e-19,-0.0017251956161712608,8.472921741876058e-18,-0.0017251956161712608,-4.109921423122424e-18,0.4564302654406958,-4.045956843897188e-18,-0.45643026544069587,0.07651438808912513,0.9941283100438763,0.0765143880891251,700.0,83.57142857142804,[1.35903634]
-1.0046101766915256e-17,0.4556005132807756,8.004034590172754e-18,0.4556005132807756,1.5673197880569705e-19,-0.002644916818887365,8.004034590172754e-18,-0.002644916818887365,-3.3553577040757202e-18,0.45560819053950846,-3.2626361491954295e-18,-0.4556081905395085,0.07509038959271334,0.9943454464026217,0.07509038959271334,700.0,83.57142857142804,[1.35903634]
-1.0108449161417945e-17,0.4539251007134992,7.52702434229283e-18,0.4539251007134992,1.299376115929298e-19,-0.003799756053040233,7.52702434229283e-18,-0.003799756053040233,-2.6442028338380585e-18,0.45394100410055827,-2.5187116878875344e-18,-0.4539410041005583,0.0732863793533834,0.994614605363577,0.07328637935338338,700.0,83.57142857142804,[1.36406549]
-1.018273230687068e-17,0.45102905046323133,7.042942377914382e-18,0.45102905046323133,6.095359193936294e-20,-0.005326864083912372,7.042942377914382e-18,-0.005326864083912372,-1.987582327024793e-18,0.45106050574477535,-1.822298821841195e-18,-0.45106050574477546,0.07086714705000717,0.9949651727261539,0.07086714705000714,700.0,83.57142857142804,[1.36754349]
-1.0269491714104975e-17,0.4460400150145326,6.540138867043765e-18,0.4460400150145326,-8.928947484710812e-20,-0.007515756177178326,6.540138867043765e-18,-0.007515756177178326,-1.4289071520952866e-18,0.44610333061419666,-1.2115508417340739e-18,-0.4461033306141968,0.06732148064228342,0.9954575010959841,0.06732148064228342,700.0,83.57142857142804,[1.36754349]
-1.0393154233404675e-17,0.43659599888754785,6.006422309672048e-18,0.43659599888754785,-4.015077404612629e-19,-0.011084152606957458,6.006422309672048e-18,-0.011084152606957458,-1.080907201912976e-18,0.43673667659544013,-7.8101756458407125e-19,-0.43673667659544,0.06131217218960532,0.9962337251281872,0.0613121721896053,700.0,83.57142857142804,[1.36683558]
-1.063076915388968e-17,0.4136812245505291,5.38033914134072e-18,0.4136812245505291,-1.2343803508303298e-18,-0.018324726142736253,5.38033914134072e-18,-0.018324726142736253,-1.3055180676868235e-18,0.4140868883867633,-8.529033399455815e-19,-0.41408688838676316,0.04799820251356726,0.9976935126134344,0.04799820251356724,700.0,83.57142857142804,[1.32931515]
-1.173387969290117e-17,0.29642290354662765,4.362951633035354e-18,0.29642290354662765,-5.853863988584848e-18,-0.0360270951418382,4.362951633035354e-18,-0.0360270951418382,-4.056752114503894e-18,0.29860423528706415,-3.237405832472519e-18,-0.2986042352870641,0.0061846793517102705,0.9999617490097472,0.0061846793517102705,700.0,83.57142857142804,[0.84048829]
-1.1732978841515311e-17,0.2934372246234222,4.0298891236120275e-18,0.2934372246234222,-5.801902748170383e-18,-0.04232375319339996,4.0298891236120275e-18,-0.04232375319339996,-4.069022770204447e-18,0.29647378447186945,-3.3130773389452265e-18,-0.29647378447186956,0.13587068365578547,0.9813655356929033,0.1358706836557855,700.0,70.71428571428592,[0.81939758]
-1.0361088163368751e-17,0.4101030010984529,4.933635090699282e-18,0.4101030010984529,-1.0772743862213565e-18,-0.026070340946456348,4.933635090699282e-18,-0.026070340946456348,-1.6082168512372083e-18,0.4109308143556798,-1.0225379968739327e-18,-0.41093081435567996,0.19072912644751555,0.9629355121964998,0.1907291264475156,700.0,70.71428571428592,[1.27373913]
-9.872055159517068e-18,0.433634889501212,5.420860695219014e-18,0.433634889501212,-1.3993480984749486e-19,-0.017762780215123397,5.420860695219014e-18,-0.017762780215123397,-1.6658973056485703e-18,0.4339985411884456,-1.2274921686770609e-18,-0.4339985411884456,0.20603031779840597,0.956610169450323,0.20603031779840592,700.0,70.71428571428592,[1.30371434]
-9.508916666751695e-18,0.4431878453657839,5.781568214024019e-18,0.4431878453657839,2.7661542654172074e-19,-0.014180905578379002,5.781568214024019e-18,-0.014180905578379002,-2.278143992844764e-18,0.44341466412714503,-1.916203257908e-18,-0.443414664127145,0.21207804822781795,0.9539632083679952,0.212078048227818,700.0,70.71428571428592,[1.30899137]
-9.187548003185682e-18,0.4480500888718596,6.103341532083871e-18,0.4480500888718596,5.288853443806147e-19,-0.012466779567795086,6.103341532083871e-18,-0.012466779567795086,-3.0965913229633365e-18,0.44822349640650644,-2.7589485185662068e-18,-0.4482234964065064,0.21488857880049322,0.9527044648799586,0.21488857880049314,700.0,70.71428571428592,[1.30836894]
-8.877044667158283e-18,0.4506832782261285,6.401187442466451e-18,0.4506832782261285,7.011175311051676e-19,-0.011695769876626082,6.401187442466451e-18,-0.011695769876626082,-4.008504633927631e-18,0.4508350122890381,-3.679873837183668e-18,-0.450835012289038,0.2161492816972717,0.9521339065717107,0.2161492816972717,700.0,70.71428571428592,[1.30836894]
-8.576300201202631e-18,0.4519941611273171,6.682092908777033e-18,0.4519941611273171,8.342813829627758e-19,-0.011506857966306436,6.682092908777033e-18,-0.011506857966306436,-4.9782107407702295e-18,0.4521406080783322,-4.6415647171225284e-18,-0.4521406080783321,0.21648109913996977,0.9519831235007798,0.2164810991399697,700.0,70.71428571428592,[1.30836894]
-8.319508804275597e-18,0.45236016835495385,6.953925609328714e-18,0.45236016835495385,9.314959653988293e-19,-0.01175092137002262,6.953925609328714e-18,-0.01175092137002262,-5.992817400334337e-18,0.4525127689548292,-5.632767242823406e-18,-0.4525127689548293,0.21613197779958904,0.9521417627354006,0.21613197779958895,700.0,70.71428571428592,[1.30836894]
-8.024194882438933e-18,0.4519162238540486,7.212734648403781e-18,0.4519162238540486,1.0038857332035213e-18,-0.012383336271604265,7.212734648403781e-18,-0.012383336271604265,-7.026279409317044e-18,0.4520858551201511,-6.632323499973541e-18,-0.45208585512015126,0.21517308793190584,0.9525760255537072,0.21517308793190584,700.0,70.71428571428592,[1.30836894]
-7.759264028284377e-18,0.45063862760564916,7.471424523387439e-18,0.45063862760564916,1.042362155718699e-18,-0.013433777017529586,7.471424523387439e-18,-0.013433777017529586,-8.100574362057818e-18,0.45083881715670804,-7.655918156497274e-18,-0.4508388171567081,0.2135513644887754,0.9533056327589617,0.21355136448877543,700.0,70.71428571428592,[1.30899137]
-7.506813675212022e-18,0.44833749908118287,7.710765700340596e-18,0.44833749908118287,1.0594049391576927e-18,-0.015015694248859405,7.710765700340596e-18,-0.015015694248859405,-9.216381606484114e-18,0.44858888099923394,-8.696667128682892e-18,-0.44858888099923405,0.21107081328151914,0.9544098823678202,0.2110708132815192,700.0,70.71428571428592,[1.31048909]
-7.273351149703244e-18,0.4445519021149689,7.934200292665175e-18,0.4445519021149689,1.0319528179551037e-18,-0.017382845813298978,7.934200292665175e-18,-0.017382845813298978,-1.0381161251895999e-17,0.44489162388452064,-9.758630478827204e-18,-0.4448916238845207,0.20728648899837362,0.9560672690545652,0.20728648899837362,700.0,70.71428571428592,[1.31048909]
-7.058880691058684e-18,0.43821528743309507,8.120566109004049e-18,0.43821528743309507,9.206645522653303e-19,-0.02109658317451724,8.120566109004049e-18,-0.02109658317451724,-1.1636966100810509e-17,0.43872280994006824,-1.0848846748824633e-17,-0.43872280994006835,0.2011782963149051,0.9586733469663504,0.20117829631490508,700.0,70.71428571428592,[1.31320616]
-6.910890945040165e-18,0.4264804571382193,8.244511667860497e-18,0.4264804571382193,6.535062105810944e-19,-0.027565011814207667,8.244511667860497e-18,-0.027565011814207667,-1.3063698491677819e-17,0.42737034314180256,-1.1965720349055647e-17,-0.4273703431418024,0.1900078631684684,0.9632206517035985,0.19000786316846835,700.0,70.71428571428592,[1.30354447]
-6.929747354283924e-18,0.39879381642288764,8.179621355364934e-18,0.39879381642288764,-1.3376265307291412e-19,-0.0412331016664704,8.179621355364934e-18,-0.0412331016664704,-1.5014069297515694e-17,0.4009197883494518,-1.3271920264902161e-17,-0.4009197883494518,0.16366184915409693,0.9728461328817233,0.16366184915409693,700.0,70.71428571428592,[1.25028708]
-8.060186544866881e-18,0.27039256684259,7.410107808852688e-18,0.27039256684259,-4.709744839795049e-18,-0.07235455361638742,7.410107808852688e-18,-0.07235455361638742,-1.923969183333715e-17,0.27990591568016415,-1.4942890567503848e-17,-0.27990591568016415,0.05307798213077054,0.9971787480817325,0.05307798213077049,700.0,70.71428571428592,[0.82242375]
-8.257691322352825e-18,0.26496651197705956,7.3056591248319e-18,0.26496651197705956,-4.709974291942153e-18,-0.07673899736646309,7.3056591248319e-18,-0.07673899736646309,-1.92594798288964e-17,0.27585526311110925,-1.3779598412525154e-17,-0.27585526311110914,0.1947971330060455,0.961305442585888,0.1947971330060454,700.0,57.857142857142705,[0.78931177]
-7.064014484132918e-18,0.39219770815809774,8.262158485401524e-18,0.39219770815809774,-1.2936543848476465e-19,-0.04667707833454966,8.262158485401524e-18,-0.04667707833454966,-1.556261466356751e-17,0.3949655578988048,-1.3538129105533757e-17,-0.39496555789880466,0.30280979453236995,0.9036661201298453,0.30280979453236995,700.0,57.857142857142705,[1.25291302]
-6.994930840914327e-18,0.42089570498966544,8.482816733241772e-18,0.42089570498966544,6.593426677362979e-19,-0.03232703063344326,8.482816733241772e-18,-0.03232703063344326,-1.4112379589955734e-17,0.4221353235495974,-1.278521098495581e-17,-0.4221353235495972,0.3292485661598782,0.8849806570560335,0.3292485661598781,700.0,57.857142857142705,[1.28320657]
-7.133691629441016e-18,0.4327269320005826,8.502040636859703e-18,0.4327269320005826,9.381143085657e-19,-0.02590552166371632,8.502040636859703e-18,-0.02590552166371632,-1.3149560227001735e-17,0.4335016652001537,-1.2093221971769315e-17,-0.43350166520015354,0.3397521277600241,0.8770045515076148,0.33975212776002417,700.0,57.857142857142705,[1.29077051]
-7.319364518842578e-18,0.43873573598960197,8.448432958059436e-18,0.43873573598960197,1.0420921652592315e-18,-0.022576430906882963,8.448432958059436e-18,-0.022576430906882963,-1.2353059226380415e-17,0.4393162201271777,-1.1482901012187897e-17,-0.4393162201271779,0.3449379903710148,0.8729464849563294,0.34493799037101486,700.0,57.857142857142705,[1.29893487]
-7.544946184462833e-18,0.4419489044188769,8.354077386470179e-18,0.4419489044188769,1.075526469576501e-18,-0.020788442814276144,8.354077386470179e-18,-0.020788442814276144,-1.1645477556669132e-17,0.44243755883931,-1.084277683598776e-17,-0.4424375588393102,0.34765622481278663,0.8707871718725777,0.34765622481278663,700.0,57.857142857142705,[1.30017438]
-7.810665548536305e-18,0.44349502235431326,8.2408142690732e-18,0.44349502235431326,1.0698924390268258e-18,-0.019930689444089628,8.2408142690732e-18,-0.019930689444089628,-1.0991552715149904e-17,0.4439426395771977,-1.025776194100805e-17,-0.44394263957719776,0.34894459433449737,0.8697559083843387,0.34894459433449726,700.0,57.857142857142705,[1.30017438]
-8.07693602169289e-18,0.44384538557540415,8.110068010883318e-18,0.44384538557540415,1.0120312844257122e-18,-0.01974108964078434,8.110068010883318e-18,-0.01974108964078434,-1.0363741965568974e-17,0.4442841848600788,-9.635355370083351e-18,-0.44428418486007887,0.34922852413257705,0.8695279615195617,0.34922852413257693,700.0,57.857142857142705,[1.30017438]
-8.346716635778845e-18,0.44316682817402164,7.96680707224983e-18,0.44316682817402164,9.564763093723965e-19,-0.020124504048898137,7.96680707224983e-18,-0.020124504048898137,-9.75831472336373e-18,0.44362352649181813,-9.03442026042119e-18,-0.4436235264918181,0.3486557085126216,0.8699875825798457,0.3486557085126216,700.0,57.857142857142705,[1.30017438]
-8.657211493204965e-18,0.44142513357223917,7.809539484303982e-18,0.44142513357223917,8.542572325316089e-19,-0.02109737682248545,7.809539484303982e-18,-0.02109737682248545,-9.189648576652472e-18,0.44192900771284427,-8.448265550678308e-18,-0.4419290077128442,0.347191874685279,0.8711576231113649,0.34719187468527907,700.0,57.857142857142705,[1.29893487]
-8.972852861607237e-18,0.4383741139496254,7.63192245842046e-18,0.4383741139496254,7.35756061760298e-19,-0.022792996117965113,7.63192245842046e-18,-0.022792996117965113,-8.653203234450474e-18,0.4389662680128767,-7.859009436277376e-18,-0.43896626801287675,0.3446076812202355,0.8732073591581927,0.34460768122023544,700.0,57.857142857142705,[1.29893487]
-9.304773144464553e-18,0.4334218616476768,7.426105869640376e-18,0.4334218616476768,5.629293131210785e-19,-0.025531466096930695,7.426105869640376e-18,-0.025531466096930695,-8.15169396881723e-18,0.4341731980617834,-7.28259599688006e-18,-0.43417319806178345,0.34034460201659517,0.87654498102284,0.3403446020165952,700.0,57.857142857142705,[1.29077051]
-9.689040311616368e-18,0.42520891825060286,7.189358416048694e-18,0.42520891825060286,3.1304585658583977e-19,-0.030034790909288817,7.189358416048694e-18,-0.030034790909288817,-7.727367530274026e-18,0.4262683577569563,-6.680674404038188e-18,-0.4262683577569563,0.33308246602138614,0.8821066498208844,0.33308246602138614,700.0,57.857142857142705,[1.29077051]
-1.0173185401830899e-17,0.410151392195589,6.857447009227093e-18,0.410151392195589,-1.0498416068279346e-19,-0.038122567850526125,6.857447009227093e-18,-0.038122567850526125,-7.44683604976672e-18,0.4119192817767794,-6.184039289727489e-18,-0.4119192817767794,0.31917775686321104,0.8923290419164549,0.31917775686321104,700.0,57.857142857142705,[1.25203375]
-1.0894714370645591e-17,0.37537632157900797,6.2854716909324e-18,0.37537632157900797,-1.0298978169701865e-18,-0.05551168332340857,6.2854716909324e-18,-0.05551168332340857,-7.585223779837148e-18,0.37945873265427044,-6.0216208302794044e-18,-0.3794587326542706,0.2845676539886555,0.9154466126469558,0.2845676539886555,700.0,57.857142857142705,[1.25981673]
-1.3147376987172478e-17,0.2311131257035704,4.823718172527261e-18,0.2311131257035704,-5.755327539218192e-18,-0.09388905425720415,4.823718172527261e-18,-0.09388905425720415,-9.628303851356626e-18,0.24945627148217087,-6.135092094665828e-18,-0.24945627148217075,0.12319551737142714,0.9847059099036488,0.12319551737142723,700.0,57.857142857142705,[0.81318795]
-1.3085856256294459e-17,0.22431801981982777,4.390728723127577e-18,0.22431801981982777,-5.7738320865088864e-18,-0.09549229497229164,4.390728723127577e-18,-0.09549229497229164,-9.114721057502558e-18,0.2437977695036683,-7.0291526915546e-18,-0.24379776950366855,0.26420611868148597,0.9275722363797491,0.26420611868148614,700.0,45.00000000000011,[0.75332914]
-1.0125450876631995e-17,0.3670597967648372,5.121247393904267e-18,0.3670597967648372,-1.1450351026841855e-18,-0.05757397611252407,5.121247393904267e-18,-0.05757397611252407,-6.648626610987751e-18,0.3715476512191255,-5.2310166341414395e-18,-0.3715476512191258,0.4164820039055886,0.808137043356862,0.41648200390558854,700.0,45.00000000000011,[1.25011925]
-8.686293095590798e-18,0.40303441587219124,4.9558341222580835e-18,0.40303441587219124,-2.9620629462124423e-19,-0.04002178312281811,4.9558341222580835e-18,-0.04002178312281811,-6.058732166325026e-18,0.4050166459563957,-5.085139930816543e-18,-0.40501664595639564,0.4481453248571599,0.7735189303548695,0.44814532485715985,700.0,45.00000000000011,[1.26376903]
-7.535882559695937e-18,0.41815095536452884,4.536029957671889e-18,0.41815095536452884,5.442838090841265e-20,-0.032030796156580284,4.536029957671889e-18,-0.032030796156580284,-5.852668240848266e-18,0.41937595707752806,-5.206475836933911e-18,-0.4193759570775281,0.46035085308498924,0.7590482093568532,0.46035085308498935,700.0,45.00000000000011,[1.26129101]
-6.496134727690258e-18,0.4258942827962305,4.03467940085633e-18,0.4258942827962305,2.228685132110811e-19,-0.027744564790573974,4.03467940085633e-18,-0.027744564790573974,-5.785437172009064e-18,0.42679702552142273,-5.2736478341446246e-18,-0.4267970255214228,0.46643919029101905,0.7515776496951707,0.46643919029101905,700.0,45.00000000000011,[1.28724037]
-5.517670225726794e-18,0.4300722601440428,3.483594958677842e-18,0.4300722601440428,3.2605733007311646e-19,-0.025292348508335744,3.483594958677842e-18,-0.025292348508335744,-5.779574219224865e-18,0.43081533380147025,-5.3579781978279234e-18,-0.43081533380147025,0.4697835474702927,0.7474000515469973,0.4697835474702927,700.0,45.00000000000011,[1.26124589]
-4.5556202958388325e-18,0.43212174871254033,2.913706303644716e-18,0.43212174871254033,3.7934957841018753e-19,-0.0239344212747445,2.913706303644716e-18,-0.0239344212747445,-5.8094782459347286e-18,0.43278408269267565,-5.4870448118408835e-18,-0.4327840826926757,0.47158311010210235,0.7451300158582101,0.4715831101021024,700.0,45.00000000000011,[1.26124589]
-3.637794750220406e-18,0.4326476258374399,2.317891145726582e-18,0.4326476258374399,3.9900297617414124e-19,-0.023347653078491303,2.317891145726582e-18,-0.023347653078491303,-5.862757776369882e-18,0.43327714115453514,-5.59252358144196e-18,-0.43327714115453525,0.4723304484380408,0.7441827026722929,0.47233044843804084,700.0,45.00000000000011,[1.26779526]
-2.7263790271686537e-18,0.431867393816246,1.7103076892336561e-18,0.431867393816246,3.969426760634248e-19,-0.023405233942454293,1.7103076892336561e-18,-0.023405233942454293,-5.93994696241088e-18,0.43250115701294656,-5.746704412039072e-18,-0.4325011570129466,0.472209326207148,0.7443364188899954,0.472209326207148,700.0,45.00000000000011,[1.26124589]
-1.836295464934031e-18,0.4297431007595691,1.0827846821836212e-18,0.4297431007595691,3.699213737883081e-19,-0.0241071221899859,1.0827846821836212e-18,-0.0241071221899859,-6.037713713755207e-18,0.4304187333176056,-5.876181410637139e-18,-0.4304187333176056,0.47121087811745405,0.7456008427352773,0.4712108781174541,700.0,45.00000000000011,[1.26124589]
-9.769383537333031e-19,0.4259692191057753,4.435103337613518e-19,0.4259692191057753,3.0600119874842605e-19,-0.025580045385286816,4.435103337613518e-19,-0.025580045385286816,-6.162637424995109e-18,0.4267365866052468,-6.0840896797653954e-18,-0.4267365866052468,0.4691291844761228,0.7482216359779605,0.4691291844761228,700.0,45.00000000000011,[1.26124589]
-1.4535714032149334e-19,0.41980705109178057,-2.262853895263845e-19,0.41980705109178057,1.8999697605368317e-19,-0.028147054619642474,-2.262853895263845e-19,-0.028147054619642474,-6.314718096130587e-18,0.4207495892215914,-6.2982485389914204e-18,-0.42074958922159156,0.46543122858031605,0.7528263697058141,0.46543122858031605,700.0,45.00000000000011,[1.24894976]
6.206675280036513e-19,0.40956352861761386,-9.410770498000147e-19,0.40956352861761386,1.6109342429470214e-22,-0.03254780609288967,-9.410770498000147e-19,-0.03254780609288967,-6.513346288285955e-18,0.41085477197566,-6.620584649716343e-18,-0.4108547719756598,0.45881872165167276,0.7609012822461594,0.45881872165167276,700.0,45.00000000000011,[1.26684759]
1.2414707136277614e-18,0.39081247861038676,-1.740281664404069e-18,0.39081247861038676,-3.453588658840054e-19,-0.04065299664178517,-1.740281664404069e-18,-0.04065299664178517,-6.82775825950282e-18,0.3929211874836369,-7.22429148711118e-18,-0.3929211874836366,0.4455848820613467,0.776471651611797,0.44558488206134667,700.0,45.00000000000011,[1.26899724]
1.4866718626068554e-18,0.34803939317487714,-2.7909176101892986e-18,0.34803939317487714,-1.2069882422274164e-18,-0.05831913190636433,-2.7909176101892986e-18,-0.05831913190636433,-7.442151622560256e-18,0.35289168359122425,-8.012615831424973e-18,-0.3528916835912238,0.4104946003829783,0.8142409754567977,0.41049460038297825,700.0,45.00000000000011,[0.76567727]
-1.34775845925715e-19,0.18633998131253504,-4.745042846655886e-18,0.18633998131253504,-5.864818076480598e-18,-0.09635161446802666,-4.745042846655886e-18,-0.09635161446802666,-9.556918267890876e-18,0.20977660080702795,-1.0738952816909865e-17,-0.209776600807028,0.21448618792161558,0.9528858013328285,0.21448618792161575,700.0,45.00000000000011,[0.73864909]
-6.335889163523422e-19,0.17952108216396234,-5.69962577838024e-18,0.17952108216396234,-5.93797144831295e-18,-0.09485496521491149,-5.69962577838024e-18,-0.09485496521491149,-1.3122161626969718e-17,0.2030401028546877,-1.7101453832012778e-17,-0.2030401028546876,0.3536192430183076,0.8659716288275949,0.35361924301830816,700.0,32.14285714285738,[0.63537931]
6.400326533241303e-19,0.3396489839124843,-5.8025756046687326e-18,0.3396489839124843,-1.4194026400618992e-18,-0.05658784410070599,-5.8025756046687326e-18,-0.05658784410070599,-1.8747917061796976e-17,0.3443306788143468,-2.0137223056459376e-17,-0.3443306788143468,0.5287579897726985,0.6639502816499661,0.5287579897726988,700.0,32.14285714285738,[0.5774105]
1.0242150344631589e-20,0.3835719896868048,-6.79566357418758e-18,0.3835719896868048,-7.063183581207609e-19,-0.03930752943713301,-6.79566357418758e-18,-0.03930752943713301,-2.584470981847323e-17,0.3855807997589419,-2.6857361558148114e-17,-0.38558079975894205,0.5572535993554788,0.615578469417772,0.5572535993554789,700.0,32.14285714285738,[1.15036877]
-1.0483620909048069e-18,0.40233267774749987,-8.029200436668827e-18,0.40233267774749987,-4.848742499244961e-19,-0.031327559546442736,-8.029200436668827e-18,-0.031327559546442736,-3.3204186599965186e-17,0.4035504919717103,-3.4233911329517896e-17,-0.4035504919717104,0.5677130067171514,0.5961575999753276,0.5677130067171516,700.0,32.14285714285738,[1.14628169]
-2.25008512173817e-18,0.41205744077155004,-9.350100806725475e-18,0.41205744077155004,-4.5603004837446575e-19,-0.026931098988218025,-9.350100806725475e-18,-0.026931098988218025,-4.0668357150046145e-17,0.41293657937740585,-4.175021819309278e-17,-0.41293657937740597,0.5729143212474591,0.5861214558597273,0.5729143212474591,700.0,32.14285714285738,[1.14829267]
-3.507224290528911e-18,0.4173964445778977,-1.0713850967819354e-17,0.4173964445778977,-4.793292446882469e-19,-0.024298509275031247,-1.0713850967819354e-17,-0.024298509275031247,-4.8172512783757304e-17,0.4181031086936078,-4.9232788631777106e-17,-0.41810310869360784,0.5758490106752877,0.5803411357198321,0.5758490106752875,700.0,32.14285714285738,[1.14829267]
-4.846911121368769e-18,0.42012019337965295,-1.2101662339516934e-17,0.42012019337965295,-5.639626426519162e-19,-0.022707721992363983,-1.2101662339516934e-17,-0.022707721992363983,-5.570536000419548e-17,0.42073342810316305,-5.686376321552631e-17,-0.42073342810316294,0.5775473968234022,0.576955811865192,0.5775473968234023,700.0,32.14285714285738,[1.13890498]
-6.184359601471058e-18,0.42098039120523834,-1.3512485694909982e-17,0.42098039120523834,-6.795259780801683e-19,-0.021838561829093498,-1.3512485694909982e-17,-0.021838561829093498,-6.325182385828719e-17,0.42154645362294146,-6.448275873685717e-17,-0.42154645362294163,0.5784309097960988,0.5751828971596031,0.578430909796099,700.0,32.14285714285738,[1.13890498]
-7.547718687080958e-18,0.42025391761521896,-1.4928877371692792e-17,0.42025391761521896,-8.076206861982926e-19,-0.021557667871969857,-1.4928877371692792e-17,-0.021557667871969857,-7.081412573956746e-17,0.4208064737085414,-7.215724379542822e-17,-0.4208064737085415,0.5786655617488796,0.5747106535394197,0.5786655617488795,700.0,32.14285714285738,[1.13890498]
-8.943771259221404e-18,0.41790659343786446,-1.6362447754491347e-17,0.41790659343786446,-9.704267879512857e-19,-0.02184852396462404,-1.6362447754491347e-17,-0.02184852396462404,-7.838826374823275e-17,0.4184773337210433,-7.988330795079294e-17,-0.4184773337210432,0.5782664283239315,0.575513575640894,0.5782664283239314,700.0,32.14285714285738,[1.14829267]
-1.038567610707689e-17,0.41358225942343496,-1.781239243600933e-17,0.41358225942343496,-1.1570916737024521e-18,-0.022806199892871772,-1.781239243600933e-17,-0.022806199892871772,-8.598448003462769e-17,0.4142105842000504,-8.772272786657592e-17,-0.41421058420005047,0.5771026545674807,0.5778451801151705,0.5771026545674808,700.0,32.14285714285738,[1.14829267]
-1.1874789806852002e-17,0.4064086708568749,-1.9281350380894727e-17,0.4064086708568749,-1.406159064864619e-18,-0.024692711877520365,-1.9281350380894727e-17,-0.024692711877520365,-9.359588997451401e-17,0.40715812378917093,-9.563412139302608e-17,-0.4071581237891709,0.5748069335987402,0.5824036213603296,0.5748069335987404,700.0,32.14285714285738,[1.14628169]
-1.3431596659236005e-17,0.39438451377105316,-2.0794231719704266e-17,0.39438451377105316,-1.7214952036208593e-18,-0.028118872331729786,-2.0794231719704266e-17,-0.028118872331729786,-1.0124345267025258e-16,0.3953856543725861,-1.0376273070636243e-16,-0.39538565437258605,0.5704537332082675,0.5909019178658172,0.5704537332082679,700.0,32.14285714285738,[1.14628169]
-1.5161909608186677e-17,0.3723025595510166,-2.237948004007756e-17,0.3723025595510166,-2.2083025746368916e-18,-0.034635965215531805,-2.237948004007756e-17,-0.034635965215531805,-1.0895819980252331e-16,0.37391021105962036,-1.122484911901858e-16,-0.37391021105962025,0.5613017724674639,0.6081781321699808,0.561301772467464,700.0,32.14285714285738,[1.1410887]
-1.737950472982499e-17,0.3222077564034007,-2.4165817466627358e-17,0.3222077564034007,-3.2084383814686322e-18,-0.04908016536507028,-2.4165817466627358e-17,-0.04908016536507028,-1.168774168832304e-16,0.32592437914150574,-1.2229453525251078e-16,-0.32592437914150546,0.5352453966896842,0.6534712929004648,0.5352453966896842,700.0,32.14285714285738,[0.5774105]
-2.1872756434657936e-17,0.14495296050769518,-2.668355507353054e-17,0.14495296050769518,-7.990199930612111e-18,-0.07923522558922906,-2.668355507353054e-17,-0.07923522558922906,-1.2591682676487518e-16,0.1651955863033921,-1.271466415905308e-16,-0.16519558630339215,0.3449142353002973,0.8729652573696289,0.3449142353002973,700.0,32.14285714285738,[0.2796726]
-2.2239032009896417e-17,0.13946148104914266,-2.6169705203736193e-17,0.13946148104914266,-8.055078187596483e-18,-0.07493389175199758,-2.6169705203736193e-17,-0.07493389175199758,-1.2542859498884433e-16,0.1583180117027766,-1.2072962134420775e-16,-0.15831801170277648,0.47739361255296636,0.7376928069238959,0.47739361255296653,700.0,19.285714285714306,[0.29821436]
-1.804558364627719e-17,0.3154083061852168,-2.3004986729761013e-17,0.3154083061852168,-3.3787565239545257e-18,-0.04389454458279894,-2.3004986729761013e-17,-0.04389454458279894,-1.1589339041882812e-16,0.31844800306291576,-1.2036549098170017e-16,-0.3184480030629158,0.6288642210429426,0.4572303390897259,0.6288642210429427,700.0,19.285714285714306,[0.59903651]
-1.613457474687553e-17,0.36637776726057253,-2.0559891658963147e-17,0.36637776726057253,-2.4986777112287315e-18,-0.030306243641001176,-2.0559891658963147e-17,-0.030306243641001176,-1.0746037010063372e-16,0.3676290749471129,-1.1020289975186552e-16,-0.3676290749471129,0.6459020170483131,0.4069658078338302,0.6459020170483131,700.0,19.285714285714306,[0.83772332]
-1.4722921548382335e-17,0.3884200371613164,-1.8285362729738575e-17,0.3884200371613164,-2.1336908833846085e-18,-0.02391563003001293,-1.8285362729738575e-17,-0.02391563003001293,-9.920519692286066e-17,0.3891556020772807,-1.0113579635679762e-16,-0.3891556020772807,0.6518123616659316,0.3876613088237736,0.6518123616659317,700.0,19.285714285714306,[0.84348758]
-1.3504444801422325e-17,0.3999808489280712,-1.6084385666606453e-17,0.3999808489280712,-1.9309505696090865e-18,-0.02027777445598045,-1.6084385666606453e-17,-0.02027777445598045,-9.100279455944602e-17,0.4004945288591446,-9.243875499744528e-17,-0.40049452885914455,0.6547455636290433,0.3776459900702942,0.6547455636290436,700.0,19.285714285714306,[0.8443516]
-1.2367091311496611e-17,0.40644707165824423,-1.3919184061569673e-17,0.40644707165824423,-1.8072986485609846e-18,-0.01798454454237817,-1.3919184061569673e-17,-0.01798454454237817,-8.283261088089034e-17,0.40684476880249876,-8.392959237969733e-17,-0.4068447688024989,0.6564501511069303,0.3716805055735055,0.6564501511069305,700.0,19.285714285714306,[0.8443516]
-1.1285086130718048e-17,0.40988213715745736,-1.1765691404898734e-17,0.40988213715745736,-1.73078775062228e-18,-0.016474546121211218,-1.1765691404898734e-17,-0.016474546121211218,-7.4682640187783e-17,0.41021308734688666,-7.552997905560342e-17,-0.4102130873468869,0.6575085492124871,0.36791984918590714,0.6575085492124871,700.0,19.285714285714306,[0.84519881]
-1.0256258737159293e-17,0.4111687418123496,-9.630474373283965e-18,0.4111687418123496,-1.6807979174832503e-18,-0.01549397492399037,-9.630474373283965e-18,-0.01549397492399037,-6.653748534020194e-17,0.4114605661573122,-6.718571976689992e-17,-0.4114605661573121,0.6581586501943234,0.3655877218244245,0.6581586501943233,700.0,19.285714285714306,[0.84636258]
-9.242082366610078e-18,0.41064009372735355,-7.503095808551326e-18,0.41064009372735355,-1.6638407149259132e-18,-0.014929334077538351,-7.503095808551326e-18,-0.014929334077538351,-5.840515013775423e-17,0.41091139141231947,-5.888618275298977e-17,-0.41091139141231947,0.6585005198670449,0.3643544025665987,0.6585005198670449,700.0,19.285714285714306,[0.84636258]
-8.265076184066545e-18,0.4082725510170848,-5.382478928338424e-18,0.4082725510170848,-1.664383345407748e-18,-0.014750904892127069,-5.382478928338424e-18,-0.014750904892127069,-5.0279801302760145e-17,0.40853893952612963,-5.061480564996602e-17,-0.40853893952612963,0.6585587060718896,0.3641440117780839,0.6585587060718895,700.0,19.285714285714306,[0.8443516]
-7.32578282001053e-18,0.4036780638987346,-3.2734353388709052e-18,0.4036780638987346,-1.6991116962451743e-18,-0.015003269868337703,-3.2734353388709052e-18,-0.015003269868337703,-4.2160082259015086e-17,0.4039567766231595,-4.2358848156325504e-17,-0.4039567766231595,0.6582918551326824,0.3651077470171553,0.6582918551326823,700.0,19.285714285714306,[0.8443516]
-6.4431943413062516e-18,0.3958905403474111,-1.1750196761061967e-18,0.3958905403474111,-1.7924441391207574e-18,-0.01583551460006254,-1.1750196761061967e-18,-0.01583551460006254,-3.4056031670433014e-17,0.3962071219188442,-3.4110498594627796e-17,-0.3962071219188442,0.6575588343508798,0.3677400695249626,0.6575588343508797,700.0,19.285714285714306,[0.8443516]
-5.637388075781593e-18,0.3826868430427576,8.924406133900925e-19,0.3826868430427576,-1.94722948406413e-18,-0.017608628197890188,8.924406133900925e-19,-0.017608628197890188,-2.5970430518233327e-17,0.3830917430917087,-2.5848122141295843e-17,-0.38309174309170874,0.6559862106164142,0.3733151255470849,0.6559862106164142,700.0,19.285714285714306,[0.84649219]
-5.059486612627546e-18,0.358294619069828,2.917698665021809e-18,0.358294619069828,-2.2862378775904128e-18,-0.021247230110314284,2.917698665021809e-18,-0.021247230110314284,-1.7926204940273537e-17,0.35892405720674925,-1.7529036167487524e-17,-0.3589240572067492,0.6524308300466088,0.38557492658287107,0.6524308300466088,700.0,19.285714285714306,[0.65771353]
-5.04971926395452e-18,0.30300266289790656,4.824290213157281e-18,0.30300266289790656,-3.1179547486226816e-18,-0.029609300434866405,4.824290213157281e-18,-0.029609300434866405,-1.0008005291719878e-17,0.3044459301673528,-9.021282148388068e-18,-0.30444593016735266,0.6415487807337196,0.42051197828142195,0.6415487807337197,700.0,19.285714285714306,[0.59657347]
-7.544191588949032e-18,0.11515219346783202,6.3077571644808004e-18,0.11515219346783202,-7.740216850511848e-18,-0.04591527861265513,6.3077571644808004e-18,-0.04591527861265513,-2.960727566511052e-18,0.1239687076262827,-8.270307885226919e-19,-0.12396870762628273,0.5334606787599434,0.6563835833062559,0.5334606787599434,700.0,19.285714285714306,[0.26913589]
-7.290783153932187e-18,0.11207449282988605,6.982950577307568e-18,0.11207449282988605,-7.61202039917838e-18,-0.03966067341431675,6.982950577307568e-18,-0.03966067341431675,1.0784780826466375e-18,0.11888507458362164,5.245248817056479e-18,-0.11888507458362167,0.6359954479192461,0.4370578685391622,0.6359954479192463,700.0,6.428571428571418,[0.2753715]
-4.0230623923231046e-18,0.29913810151572306,6.28311834916499e-18,0.29913810151572306,-2.704605979085033e-18,-0.02199489285824106,6.28311834916499e-18,-0.02199489285824106,1.8448079806178142e-18,0.2999456268897357,2.716412992389514e-18,-0.29994562688973575,0.6949633455839808,0.1845315598737537,0.6949633455839809,700.0,6.428571428571418,[0.33174129]
-3.2964801771463263e-18,0.35485452843551685,5.186267137547477e-18,0.35485452843551685,-1.597368480901152e-18,-0.014788303052875656,5.186267137547477e-18,-0.014788303052875656,1.7598863102106702e-18,0.35516254061820307,2.185868587142316e-18,-0.355162540618203,0.6987547392068317,0.15324369113273403,0.6987547392068317,700.0,6.428571428571418,[0.27568581]
-3.1380320764505687e-18,0.37916384006863174,4.005248851036622e-18,0.37916384006863174,-1.0011532389851805e-18,-0.011251446880810973,4.005248851036622e-18,-0.011251446880810973,1.5520588356679473e-18,0.3793307431154277,1.7852330839107512e-18,-0.3793307431154277,0.7000031652134291,0.1413900186801086,0.7000031652134291,700.0,6.428571428571418,[0.3411857]
-3.190124602706708e-18,0.3920495712205186,2.7853646562643507e-18,0.3920495712205186,-5.654209620718472e-19,-0.009091673851727376,2.7853646562643507e-18,-0.009091673851727376,1.318320755617613e-18,0.3921549755232219,1.4443834712278432e-18,-0.39215497552322187,0.7006362921915827,0.13497248655952884,0.7006362921915827,700.0,6.428571428571418,[0.3403471]
-3.347487442438796e-18,0.39938380046940763,1.5546448090579412e-18,0.39938380046940763,-2.121685183974014e-19,-0.007591256203262869,1.5546448090579412e-18,-0.007591256203262869,1.0737300659305831e-18,0.39945593905727717,1.1308859633786894e-18,-0.39945593905727717,0.7010291854360255,0.1308287519385757,0.7010291854360254,700.0,6.428571428571418,[0.3403471]
-3.55205913409051e-18,0.40342417367176214,3.079512770425198e-19,0.40342417367176214,9.658822576659194e-20,-0.006460665548094743,3.079512770425198e-19,-0.006460665548094743,8.049923198019054e-19,0.4034759027526531,8.137481783320059e-19,-0.4034759027526531,0.7013028304432026,0.12786195690941496,0.7013028304432026,700.0,6.428571428571418,[0.3403471]
-3.80709546055286e-18,0.4051426199883233,-9.347827481757632e-19,0.4051426199883233,3.76856869634259e-19,-0.005562737978540859,-9.347827481757632e-19,-0.005562737978540859,5.382894379801079e-19,0.4051808072759873,5.114027351971024e-19,-0.4051808072759873,0.7015074795854958,0.12559662484004064,0.7015074795854959,700.0,6.428571428571418,[0.3403471]
-4.090348572070618e-18,0.4049144897397847,-2.1880726319859885e-18,0.4049144897397847,6.096453463413822e-19,-0.004826320068645903,-2.1880726319859885e-18,-0.004826320068645903,2.6398972941262346e-19,0.4049432520324732,2.1121212929778512e-19,-0.4049432520324733,0.7016671351856872,0.12380009208648124,0.7016671351856874,700.0,6.428571428571418,[0.3403471]
-4.40236109912562e-18,0.4027313743155955,-3.441294686985985e-18,0.4027313743155955,8.345656810619012e-19,-0.004214376381783835,-3.441294686985985e-18,-0.004214376381783835,-1.492233825045662e-20,0.4027534243509491,-8.73669375787625e-20,-0.4027534243509491,0.7017937360357187,0.12235646334401909,0.7017937360357187,700.0,6.428571428571418,[0.3403471]
-4.7718924572551094e-18,0.3981984087124025,-4.697145108382368e-18,0.3981984087124025,1.0385947422317807e-18,-0.0037121713423096635,-4.697145108382368e-18,-0.0037121713423096635,-3.0305912410472807e-19,0.3982157115398187,-3.9104550186252743e-19,-0.39821571153981866,0.7018920794686411,0.12122300754548929,0.7018920794686411,700.0,6.428571428571418,[0.3403471]
-5.209252625613947e-18,0.39031395802815916,-5.961084115398601e-18,0.39031395802815916,1.194058375277447e-18,-0.0033263307143899003,-5.961084115398601e-18,-0.0033263307143899003,-5.958082690545952e-19,0.3903281315862708,-6.977111059353292e-19,-0.3903281315862708,0.7019604425694577,0.1204287097638361,0.7019604425694577,700.0,6.428571428571418,[0.33948308]
-5.730177888175342e-18,0.3767634353651623,-7.222683028461921e-18,0.3767634353651623,1.2627011312295474e-18,-0.0030965207837366235,-7.222683028461921e-18,-0.0030965207837366235,-9.045650132185885e-19,0.3767761599001761,-1.023634025958064e-18,-0.37677615990017604,0.7019862492228081,0.12012748146942664,0.7019862492228082,700.0,6.428571428571418,[0.3411857]
-6.474666909252669e-18,0.3515372401872515,-8.491149608560963e-18,0.3515372401872515,1.1661129054629554e-18,-0.00313756302701685,-8.491149608560963e-18,-0.00313756302701685,-1.240995911956156e-18,0.3515512416991554,-1.3929596693473815e-18,-0.35155124169915536,0.701926064150074,0.12082880837603532,0.7019260641500739,700.0,6.428571428571418,[0.27424814]
-7.792173719147529e-18,0.29420024594266475,-9.781355322338511e-18,0.29420024594266475,5.575528200852428e-19,-0.0037631843344127103,-9.781355322338511e-18,-0.0037631843344127103,-1.6745576669421503e-18,0.2942243128449096,-1.925774847839438e-18,-0.2942243128449095,0.7015905561194424,0.12466508383674599,0.7015905561194423,700.0,6.428571428571418,[0.27502173]
-1.1743608887868442e-17,0.1028107243616501,-1.108371935034967e-17,0.1028107243616501,-3.842366441872121e-18,-0.0029926672415772145,-1.108371935034967e-17,-0.0029926672415772145,-2.8767554994471188e-18,0.102854271184944,-3.528840158206588e-18,-0.10285427118494403,0.7000595774141436,0.14083030973998945,0.7000595774141436,700.0,6.428571428571418,[0.12037677]
-1.1662214315593224e-17,0.10275331143165578,-1.1807520584307045e-17,0.10275331143165578,-3.819033331153225e-18,0.003975297296161027,-1.1807520584307045e-17,0.003975297296161027,-2.5286580453501035e-18,0.10283018038865684,-1.6290684677122512e-18,-0.10283018038865686,0.6990747258818679,0.15029655773297637,0.699074725881868,700.0,6.428571428571418,[0.12037677]
-7.581633092195632e-18,0.2940281354428828,-1.2580480748478142e-17,0.2940281354428828,6.283660979646824e-19,0.004768479792240384,-1.2580480748478142e-17,0.004768479792240384,-6.299939894101867e-19,0.2940667999478133,-2.238467778942629e-19,-0.2940667999478132,0.7012844494817783,0.12806342893300557,0.701284449481778,700.0,6.428571428571418,[0.27502173]
-6.096996093895657e-18,0.3512506827869521,-1.333063347520962e-17,0.3512506827869521,1.2822358285755997e-18,0.004165508118086346,-1.333063347520962e-17,0.004165508118086346,4.946076841924076e-19,0.3512753814547525,8.098052990272615e-19,-0.3512753814547524,0.7016724102003438,0.12374028255697983,0.7016724102003437,700.0,6.428571428571418,[0.27424814]
-5.203826320795599e-18,0.37636277672999663,-1.406822091484611e-17,0.37636277672999663,1.418436079516131e-18,0.0041472057450719,-1.406822091484611e-17,0.0041472057450719,1.527504806364923e-18,0.37638562542079806,1.8367093586355885e-18,-0.3763856254207981,0.7017456427153564,0.12290689915550974,0.7017456427153563,700.0,6.428571428571418,[0.3411857]
-4.545072915848169e-18,0.3897996380664132,-1.479783846928065e-17,0.3897996380664132,1.405955578433931e-18,0.004399855962283792,-1.479783846928065e-17,0.004399855962283792,2.5319138282411122e-18,0.3898244689205588,2.8650514967436466e-18,-0.3898244689205587,0.7017223019953426,0.12317313735029504,0.7017223019953426,700.0,6.428571428571418,[0.33948308]
-3.956861473539261e-18,0.39757096067811615,-1.552352195272189e-17,0.39757096067811615,1.2974294820669737e-18,0.004808625735378947,-1.552352195272189e-17,0.004808625735378947,3.522757088071432e-18,0.39760003980882996,3.897197413980493e-18,-0.39760003980883,0.7016517496566448,0.12397436996225414,0.7016517496566448,700.0,6.428571428571418,[0.3403471]
-3.4402772548325446e-18,0.40199142377277536,-1.6242405597937638e-17,0.40199142377277536,1.1563455567899293e-18,0.005333831908436557,-1.6242405597937638e-17,0.005333831908436557,4.497321433446708e-18,0.40202680824752296,4.926955061985882e-18,-0.40202680824752285,0.7015484097878033,0.125138553005894,0.7015484097878032,700.0,6.428571428571418,[0.3403471]
-2.966018213708941e-18,0.40406275339861253,-1.6964460240031608e-17,0.40406275339861253,9.734790844116064e-19,0.005968830405631553,-1.6964460240031608e-17,0.005968830405631553,5.467544734967305e-18,0.40410683688905735,5.9667511245042825e-18,-0.4041068368890574,0.7014146027337326,0.12662981538231766,0.7014146027337327,700.0,6.428571428571418,[0.3403471]
-2.5254022624590948e-18,0.4041799044255583,-1.7680461160812608e-17,0.4041799044255583,7.748763280600747e-19,0.006728338326791774,-1.7680461160812608e-17,0.006728338326791774,6.4383106669697385e-18,0.4042359034995447,7.02441616284788e-18,-0.4042359034995447,0.7012455364305124,0.12848889163101432,0.7012455364305124,700.0,6.428571428571418,[0.3403471]
-2.123855705901353e-18,0.40235137394295667,-1.8395342906224824e-17,0.40235137394295667,5.268941978615774e-19,0.0076493730514597645,-1.8395342906224824e-17,0.0076493730514597645,7.400937141744648e-18,0.40242408106606303,8.096806353071144e-18,-0.4024240810660632,0.7010287921896922,0.1308329661901862,0.7010287921896924,700.0,6.428571428571418,[0.3403471]
-1.773316414636081e-18,0.3982018986579304,-1.9099541614025918e-17,0.3982018986579304,2.6914471899005393e-19,0.008803070787742706,-1.9099541614025918e-17,0.008803070787742706,8.36139309459222e-18,0.3982991917517216,9.199390661623928e-18,-0.3982991917517216,0.7007391957855409,0.1338998094833102,0.7007391957855409,700.0,6.428571428571418,[0.3403471]
-1.4705286057722705e-18,0.39075963497513416,-1.980017930928997e-17,0.39075963497513416,-3.8526764210269817e-20,0.010326579622052237,-1.980017930928997e-17,0.010326579622052237,9.303399611057409e-18,0.3908960610860524,1.0342312892552384e-17,-0.39089606108605235,0.7003238950436527,0.1381770026515774,0.7003238950436526,700.0,6.428571428571418,[0.33948308]
-1.2654142836387213e-18,0.3777670213000564,-2.0483181513894393e-17,0.3777670213000564,-4.134844271581071e-19,0.012509414733452613,-2.0483181513894393e-17,0.012509414733452613,1.0237266670295076e-17,0.37797408355453527,1.1577707882172765e-17,-0.3779740835545354,0.6996554748191429,0.1447909980323343,0.6996554748191429,700.0,6.428571428571418,[0.3411857]
-1.2740963713480779e-18,0.35335206277045933,-2.1133456317563155e-17,0.35335206277045933,-9.69138040556928e-19,0.016069297017701396,-2.1133456317563155e-17,0.016069297017701396,1.1134234856767977e-17,0.35371726360298256,1.3037772470126816e-17,-0.35371726360298256,0.6983384556126806,0.1569930024714242,0.6983384556126805,700.0,6.428571428571418,[0.29303494]
-1.8536257259476295e-18,0.2975313113028414,-2.1692603114688787e-17,0.2975313113028414,-2.0305232630257698e-18,0.023298892393335834,-2.1692603114688787e-17,0.023298892393335834,1.1909111184828052e-17,0.2984421545163225,1.521579627116269e-17,-0.2984421545163225,0.6943353887477924,0.189200253342599,0.6943353887477924,700.0,6.428571428571418,[0.38553782]
-4.970495213606641e-18,0.11036480654148968,-2.18620394826417e-17,0.11036480654148968,-6.8924923802654545e-18,0.0409877678625989,-2.18620394826417e-17,0.0409877678625989,1.1842910266044208e-17,0.1177301475294189,2.47932750308467e-17,-0.11773014752941896,0.6311379996718287,0.45092089188735235,0.6311379996718288,700.0,6.428571428571418,[0.2753715]
-5.068168700336903e-18,0.11334110952545037,-2.1290988729320816e-17,0.11334110952545037,-6.864275595210046e-18,0.0472838910242221,-2.1290988729320816e-17,0.0472838910242221,1.1360511767693083e-17,0.1228086864144822,2.3549650544779536e-17,-0.12280868641448237,0.526054292153267,0.6682318186185462,0.5260542921532675,700.0,19.28571428571425,[0.26913589]
-2.428814036692503e-18,0.3010930071708672,-2.054070034496888e-17,0.3010930071708672,-1.943702385932204e-18,0.031042641299042523,-2.054070034496888e-17,0.031042641299042523,1.07446261708106e-17,0.3026890228369984,1.4819779225579446e-17,-0.3026890228369984,0.6399558626828021,0.42533867404201703,0.6399558626828021,700.0,19.28571428571425,[0.59903651]
-2.3072648087615107e-18,0.35628803444449014,-1.938303212637948e-17,0.35628803444449014,-8.237130714252055e-19,0.022744373049223818,-1.938303212637948e-17,0.022744373049223818,9.26053180299246e-18,0.357013263050157,1.1692198078091515e-17,-0.35701326305015696,0.6511921283273168,0.38974045723927486,0.6511921283273168,700.0,19.28571428571425,[0.65920352]
-2.7348576284473222e-18,0.3805851223999633,-1.8097404857292412e-17,0.3805851223999633,-2.1054062695189705e-19,0.019168965577124386,-1.8097404857292412e-17,0.019168965577124386,7.655973468206998e-18,0.38106755914600243,9.450096908520932e-18,-0.3810675591460025,0.654833364970501,0.37734139481750556,0.654833364970501,700.0,19.28571428571425,[0.8451902]
-3.3816731627943877e-18,0.3936955597489939,-1.6765484425223814e-17,0.3936955597489939,2.2139323658859275e-19,0.01745848281744734,-1.6765484425223814e-17,0.01745848281744734,6.0025783900564044e-18,0.39408246901931687,7.46734058412747e-18,-0.39408246901931687,0.6564247172621605,0.37177033385490244,0.6564247172621603,700.0,19.28571428571425,[0.8443516]
-4.100115920743644e-18,0.401391764349549,-1.5408670819801046e-17,0.401391764349549,5.979787909819343e-19,0.016688287604143454,-1.5408670819801046e-17,0.016688287604143454,4.329105984077924e-18,0.4017385311751944,5.600448206976114e-18,-0.40173853117519437,0.657148805927339,0.3692030521766381,0.657148805927339,700.0,19.28571428571425,[0.8443516]
-4.890185902295093e-18,0.405896930989291,-1.4042123780110367e-17,0.405896930989291,9.15960253337119e-19,0.016497358476097304,-1.4042123780110367e-17,0.016497358476097304,2.6502072732810956e-18,0.40623205366294535,3.781327133122274e-18,-0.40623205366294535,0.6573913861400984,0.3683383374800945,0.6573913861400983,700.0,19.28571428571425,[0.8443516]
-5.717154756611307e-18,0.40817720422012715,-1.2660722230979461e-17,0.40817720422012715,1.200298625818547e-18,0.01673657387372695,-1.2660722230979461e-17,0.01673657387372695,9.53944387065554e-19,0.40852018671051027,1.9822950809308646e-18,-0.40852018671051005,0.6572979963860357,0.3686715176058563,0.6572979963860356,700.0,19.28571428571425,[0.8443516]
-6.57451091791027e-18,0.40862068230449045,-1.1269587247580642e-17,0.40862068230449045,1.464017039990253e-18,0.017361315273524462,-1.1269587247580642e-17,0.017361315273524462,-7.43403760113657e-19,0.40898933638300894,2.0522138958010491e-19,-0.40898933638300894,0.6569109791811499,0.37004855203408843,0.6569109791811499,700.0,19.28571428571425,[0.8443516]
-7.475277517756014e-18,0.40725105203338696,-9.871838955184462e-18,0.40725105203338696,1.7038597129612287e-18,0.018401266846310552,-9.871838955184462e-18,0.018401266846310552,-2.4548602998205726e-18,0.407666562283258,-1.5712109734650759e-18,-0.4076665622832581,0.6562043835863229,0.3725474653305103,0.6562043835863229,700.0,19.28571428571425,[0.8443516]
-8.415113512293864e-18,0.4037351470981503,-8.459100495727596e-18,0.4037351470981503,1.915485600876795e-18,0.019969893537976575,-8.459100495727596e-18,0.019969893537976575,-4.176084188200514e-18,0.4042287293727195,-3.3525953527077845e-18,-0.4042287293727196,0.6550737674885013,0.37650593394638765,0.6550737674885012,700.0,19.28571428571425,[0.8443516]
-9.402700989233174e-18,0.3971903105226622,-7.026318622847958e-18,0.3971903105226622,2.0739337015725527e-18,0.02232097173406403,-7.026318622847958e-18,0.02232097173406403,-5.9135869910354995e-18,0.39781700385006374,-5.137312658727634e-18,-0.3978170038500638,0.6532711303149065,0.38271877481274524,0.6532711303149065,700.0,19.28571428571425,[0.8443516]
-1.0464086211702016e-17,0.38555314918516687,-5.563725987872521e-18,0.38555314918516687,2.1661808834844663e-18,0.02601587501301138,-5.563725987872521e-18,0.02601587501301138,-7.678221317962224e-18,0.3864298857481034,-6.960133810467303e-18,-0.3864298857481034,0.6501890983805015,0.3930754033188811,0.6501890983805015,700.0,19.28571428571425,[0.84649219]
-1.1729500495340738e-17,0.36343683693011347,-4.034864605303011e-18,0.36343683693011347,2.0793600063909005e-18,0.032462732559040856,-4.034864605303011e-18,0.032462732559040856,-9.501459736927106e-18,0.3648837670313187,-8.854834534000439e-18,-0.3648837670313188,0.6440019974975612,0.4129441299235306,0.6440019974975612,700.0,19.28571428571425,[0.83617113]
-1.3494134822267464e-17,0.3123957089752915,-2.3193722513874494e-18,0.3123957089752915,1.479210693481627e-18,0.04610653130516162,-2.3193722513874494e-18,0.04610653130516162,-1.1498339910079119e-17,0.3157798144517298,-1.1002897441038549e-17,-0.31577981445172965,0.6261745262623153,0.4645545450432383,0.6261745262623153,700.0,19.28571428571425,[0.59903651]
-1.7539987694827628e-17,0.13637978089143052,1.0231976023097188e-19,0.13637978089143052,-2.9063288607071146e-18,0.07720094528671452,1.0231976023097188e-19,0.07720094528671452,-1.4605442049065104e-17,0.15671448748969222,-2.1874613867464538e-17,-0.1567144874896923,0.46577535662037467,0.7524005810273708,0.4657753566203749,700.0,19.28571428571425,[0.29704236]
-1.6762940844840214e-17,0.14180599814048034,1.2453708702159489e-18,0.14180599814048034,-2.910669904561793e-18,0.08156936411296477,1.2453708702159489e-18,0.08156936411296477,-1.4812726893125992e-17,0.1635924884290576,-1.3577343636451148e-17,-0.16359248842905763,0.3314090736134102,0.8833663180433147,0.3314090736134104,700.0,32.142857142857125,[0.2796726]
-1.1653532227883867e-17,0.3190035781566713,7.08438008440428e-19,0.3190035781566713,1.4802959544452966e-18,0.05150222192191512,7.08438008440428e-19,0.05150222192191512,-1.1629656486683137e-17,0.3231342781873407,-1.1516554203487355e-17,-0.32313427818734064,0.5311102203933911,0.6601847223219933,0.5311102203933911,700.0,32.142857142857125,[0.5774105]
-8.797125371505553e-18,0.3690429943228611,9.071425080073038e-19,0.3690429943228611,2.070677918681544e-18,0.03714397501374033,9.071425080073038e-19,0.03714397501374033,-9.575257482456636e-18,0.37090754446169566,-9.796618109474247e-18,-0.37090754446169566,0.5580403093831544,0.6141514684563629,0.5580403093831544,700.0,32.142857142857125,[1.14303519]
-6.416062817214512e-18,0.39107166636586815,1.3043141063052525e-18,0.39107166636586815,2.148816708065753e-18,0.03071138175295701,1.3043141063052525e-18,0.03071138175295701,-7.725972800363685e-18,0.392275715796113,-7.885172704681895e-18,-0.3922757157961128,0.567433618471351,0.5966893473634489,0.5674336184713511,700.0,32.142857142857125,[1.14628169]
-4.1956188855465665e-18,0.4030447206378632,1.7830837633091073e-18,0.4030447206378632,2.0641663528995265e-18,0.02736836966278568,1.7830837633091073e-18,0.02736836966278568,-5.945059558981917e-18,0.403972863558992,-6.196212229626261e-18,-0.40397286355899215,0.5718617821039252,0.5881736175125889,0.5718617821039255,700.0,32.142857142857125,[1.14628169]
-2.0815305283182397e-18,0.41016941185008576,2.2933259882593797e-18,0.41016941185008576,1.90354773027643e-18,0.0255636650992063,2.2933259882593797e-18,0.0255636650992063,-4.199959929401245e-18,0.4109652629976768,-4.473343737097805e-18,-0.41096526299767694,0.5741636233304335,0.5836713692551111,0.5741636233304337,700.0,32.142857142857125,[1.14829267]
-1.7364175418713157e-20,0.4144470656210445,2.826663923092745e-18,0.4144470656210445,1.6908365813971939e-18,0.024686443815226493,2.826663923092745e-18,0.024686443815226493,-2.474394997166625e-18,0.41518163580550704,-2.794337989283315e-18,-0.415181635805507,0.5752962880840071,0.5814364641416346,0.5752962880840072,700.0,32.142857142857125,[1.14829267]
2.0229264362800828e-18,0.41674993202305033,3.380079185753998e-18,0.41674993202305033,1.4433970816805312e-18,0.024474671768625337,3.380079185753998e-18,0.024474671768625337,-7.596826745687006e-19,0.41746798128646817,-1.1503645663197536e-18,-0.4174679812864681,0.575639130358661,0.5807574219929087,0.575639130358661,700.0,32.142857142857125,[1.14829267]
4.039341306778148e-18,0.4174341722169223,3.945296661395157e-18,0.4174341722169223,1.1785934065451555e-18,0.024833260431909462,3.945296661395157e-18,0.024833260431909462,9.376654726105105e-19,0.4181721881690678,4.968468089004608e-19,-0.41817218816906776,0.5753268187507774,0.5813760428949755,0.5753268187507772,700.0,32.142857142857125,[1.14829267]
6.01451626065677e-18,0.4165339652968161,4.525606047312346e-18,0.4165339652968161,8.920845121363884e-19,0.025778708399267998,4.525606047312346e-18,0.025778708399267998,2.6230757491893563e-18,0.41733090713799714,2.0958092315103173e-18,-0.4173309071379972,0.5743428390198888,0.5833186149379669,0.5743428390198888,700.0,32.142857142857125,[1.14829267]
7.981009126826035e-18,0.41377243086719295,5.1203290554032715e-18,0.41377243086719295,5.578241353261602e-19,0.027444361590587482,5.1203290554032715e-18,0.027444361590587482,4.28895132842215e-18,0.4146815857122921,3.636130020680537e-18,-0.414681585712292,0.5725139566016616,0.5869033472324225,0.5725139566016616,700.0,32.142857142857125,[1.14829267]
9.880215813247786e-18,0.4083978650667551,5.743336677359835e-18,0.4083978650667551,1.9968801731520133e-19,0.03015038478210929,5.743336677359835e-18,0.03015038478210929,5.932036427417882e-18,0.40950929402590225,5.11813763361004e-18,-0.40950929402590214,0.5694012311643949,0.5929287275018328,0.569401231164395,700.0,32.142857142857125,[1.1471289]
1.1720818407631381e-17,0.3986397686568027,6.407448558315385e-18,0.3986397686568027,-2.5178054357134078e-19,0.034618844723644335,6.407448558315385e-18,0.034618844723644335,7.526284783048484e-18,0.40014013740781973,6.474945907883905e-18,-0.40014013740781973,0.5639315185653602,0.6032930338874584,0.5639315185653601,700.0,32.142857142857125,[1.14628169]
1.3422507598665272e-17,0.3798479970820437,7.157024740159912e-18,0.3798479970820437,-8.573561612989622e-19,0.0426694011129313,7.157024740159912e-18,0.0426694011129313,9.03154173965818e-18,0.38223707130336876,7.527784812491267e-18,-0.3822370713033686,0.5529863825324597,0.6232271828693999,0.5529863825324597,700.0,32.142857142857125,[1.1760569]
1.4687921882303992e-17,0.33589624385635564,8.146952311052135e-18,0.33589624385635564,-1.9925391292973348e-18,0.06001899408925942,8.146952311052135e-18,0.06001899408925942,1.0262227672459476e-17,0.341216304253321,8.088704529981958e-18,-0.34121630425332106,0.5232162930057559,0.6726733393458003,0.5232162930057559,700.0,32.142857142857125,[0.5774105]
1.4051958957593622e-17,0.17574230129266652,1.0025369467138592e-17,0.17574230129266652,-6.9000892070111415e-18,0.09835454834938105,1.0025369467138592e-17,0.09835454834938105,1.0018043955633822e-17,0.20139258587309816,1.4555154454017153e-18,-0.20139258587309797,0.3387407902598905,0.8777866221515399,0.33874079025989057,700.0,32.142857142857125,[0.64667011]
1.51762893159553e-17,0.18253873871784035,9.726176585216936e-18,0.18253873871784035,-6.991251127959385e-18,0.09992663191429257,9.726176585216936e-18,0.09992663191429257,1.0928577904152593e-17,0.20810027125987723,7.56396083288922e-19,-0.20810027125987723,0.19849110792455685,0.9597929777560181,0.1984911079245568,700.0,45.0,[0.72262104]
1.7453166817734062e-17,0.3442281482003094,7.11144377968579e-18,0.3442281482003094,-2.253001760578032e-18,0.06198783983401958,7.11144377968579e-18,0.06198783983401958,1.3601575657670751e-17,0.34976493577930623,1.095853461837189e-17,-0.34976493577930634,0.4034714167923012,0.8212317770661499,0.4034714167923011,700.0,45.0,[0.76190813]
1.7848201808509786e-17,0.386992591806491,5.392254755612729e-18,0.386992591806491,-1.2979721125488085e-18,0.04441302787816589,5.392254755612729e-18,0.04441302787816589,1.476714593265187e-17,0.3895327754610798,1.3481859809101528e-17,-0.3895327754610798,0.4397313724407691,0.7831172582587589,0.43973137244076893,700.0,45.0,[1.26813322]
1.7854713374291804e-17,0.4057368433776374,3.920166087205183e-18,0.4057368433776374,-8.616972051536405e-19,0.0363974065441118,3.920166087205183e-18,0.0363974065441118,1.562992839876918e-17,0.40736612190655586,1.4972568028852153e-17,-0.4073661219065558,0.4533261567075614,0.7674573547041578,0.45332615670756143,700.0,45.0,[1.26376903]
1.7722311536724116e-17,0.4159755157068412,2.5372044754390014e-18,0.4159755157068412,-5.86040920381569e-19,0.03208460811690679,2.5372044754390014e-18,0.03208460811690679,1.639069633430155e-17,0.4172110398174861,1.5926932496884734e-17,-0.417211039817486,0.46006801229165933,0.7593911035375666,0.46006801229165945,700.0,45.0,[1.27067871]
1.7539987694827628e-17,0.42213480044801993,1.1961949827996714e-18,0.42213480044801993,-4.015465565577418e-19,0.02960396383493747,1.1961949827996714e-18,0.02960396383493747,1.7090689655868425e-17,0.42317157799647875,1.6912431743944032e-17,-0.42317157799647875,0.4637963145723703,0.7548416768953434,0.46379631457237036,700.0,45.0,[1.28849532]
1.730774184860234e-17,0.42590776254258605,-1.1736079889932984e-19,0.42590776254258605,-2.4961002164400163e-19,0.028215816333034785,-1.1736079889932984e-19,0.028215816333034785,1.77657219752709e-17,0.42684136922909843,1.779909155688498e-17,-0.4268413692290984,0.4658545010852713,0.7523025771836662,0.4658545010852712,700.0,45.0,[1.28724037]
1.7060302348885677e-17,0.4280330899777385,-1.4056333915853415e-18,0.4280330899777385,-1.3240183756768782e-19,0.027597102792066817,-1.4056333915853415e-18,0.027597102792066817,1.8412537509617964e-17,0.4289218182820812,1.857998468180585e-17,-0.4289218182820813,0.4667936790782746,0.7511373525162609,0.4667936790782745,700.0,45.0,[1.28724037]
1.6778134498331588e-17,0.4288162988713185,-2.687767476945597e-18,0.4288162988713185,-3.689887276476546e-20,0.027621079266838048,-2.687767476945597e-18,0.027621079266838048,1.9039818346618977e-17,0.42970494783928304,1.9380753433620733e-17,-0.429704947839283,0.46682639055221503,0.7510966929550297,0.466826390552215,700.0,45.0,[1.28724037]
1.6487284560068143e-17,0.4282953302455984,-3.9531308889766465e-18,0.4282953302455984,3.255782891008717e-20,0.02828776890633926,-3.9531308889766465e-18,0.02828776890633926,1.9651905530128615e-17,0.4292284796933734,2.0160606246966808e-17,-0.4292284796933734,0.4659611142590203,0.7521705125814122,0.4659611142590204,700.0,45.0,[1.28724037]
1.6179070446385984e-17,0.4262526732400908,-5.198416973179809e-18,0.4262526732400908,6.945670167485263e-20,0.029723962696152698,-5.198416973179809e-18,0.029723962696152698,2.0233605406655506e-17,0.42728778990592037,2.0904566294336965e-17,-0.4272877899059202,0.4640066015357533,0.754583161396066,0.46400660153575335,700.0,45.0,[1.30026446]
1.5840469025721077e-17,0.4220834467903981,-6.4227609122246604e-18,0.4220834467903981,6.294513589283519e-20,0.032252773395718456,-6.4227609122246604e-18,0.032252773395718456,2.078057693234497e-17,0.42331392304787036,2.1721420685458964e-17,-0.4233139230478705,0.46045104137833387,0.7589266611387533,0.46045104137833387,700.0,45.0,[1.29036193]
1.542806985952664e-17,0.41435079663958657,-7.593197904339736e-18,0.41435079663958657,-3.0387306982748025e-20,0.036613916408171014,-7.593197904339736e-18,0.036613916408171014,2.126677384406894e-17,0.41596533695802645,2.2588356907459214e-17,-0.41596533695802623,0.45404850677441366,0.7666028352359848,0.4540485067744136,700.0,45.0,[1.26578001]
1.492016772852928e-17,0.3992468973322922,-8.67226948907588e-18,0.3992468973322922,-2.865088944087671e-19,0.04467814330188106,-8.67226948907588e-18,0.04467814330188106,2.1611886830515863e-17,0.40173899676078934,2.3596556933123988e-17,-0.4017389967607891,0.44129242728399504,0.7813590642231011,0.4412924272839949,700.0,45.0,[1.26376903]
1.4112733571559118e-17,0.3632870279463182,-9.515212028201106e-18,0.3632870279463182,-1.0483620909048069e-18,0.0623020017127188,-9.515212028201106e-18,0.0623020017127188,2.1574987957751098e-17,0.36859056430066206,2.4350547820111578e-17,-0.36859056430066195,0.40829182212608633,0.8164530457839697,0.4082918221260861,700.0,45.0,[1.26014664]
1.1807639284724947e-17,0.22056273232984697,-9.452046448675025e-18,0.22056273232984697,-5.615140226026367e-18,0.10029088639872279,-9.452046448675025e-18,0.10029088639872279,1.9656246573983294e-17,0.24229358387594427,2.4540939801623892e-17,-0.24229358387594435,0.24819445073028448,0.936375474504424,0.24819445073028445,700.0,45.0,[0.7644059]
1.1173846881941916e-17,0.2273757049158762,-1.0216511054364895e-17,0.2273757049158762,-5.6194812698810454e-18,0.09876331227492462,-1.0216511054364895e-17,0.09876331227492462,1.8842300851231114e-17,0.24789897748378453,1.9063195822447243e-17,-0.24789897748378462,0.10652535413687801,0.9885872231887409,0.10652535413687796,700.0,57.8571428571429,[0.80923325]
1.1660043793665885e-17,0.3716711309252376,-1.1668912410603372e-17,0.3716711309252376,-1.06572626632352e-18,0.06047814229341423,-1.1668912410603372e-17,0.06047814229341423,1.9736555885294842e-17,0.3765594710779528,2.3358574761362864e-17,-0.3765594710779526,0.27516034879439966,0.9211805278568846,0.2751603487943996,700.0,57.8571428571429,[1.25981673]
1.0678967882508592e-17,0.4064790906147533,-1.2228008336121333e-17,0.4064790906147533,-3.212372452461934e-19,0.04317879324159376,-1.2228008336121333e-17,0.04317879324159376,1.872292214522746e-17,0.4087660202277057,2.1202669883496382e-17,-0.4087660202277058,0.31085424859305677,0.8981866578074361,0.3108542485930568,700.0,57.8571428571429,[1.25163679]
9.407042033087853e-18,0.4215709133018638,-1.2544209292207998e-17,0.4215709133018638,-8.465035516622664e-20,0.0351788875788054,-1.2544209292207998e-17,0.0351788875788054,1.7299059760892983e-17,0.42303615575202286,1.9299751835478866e-17,-0.423036155752023,0.3251116658770885,0.8880342388789122,0.32511166587708845,700.0,57.8571428571429,[1.27048681]
8.056977394282905e-18,0.42981974197632383,-1.2780796182287965e-17,0.42981974197632383,-1.7364175418713157e-20,0.0307616225653051,-1.2780796182287965e-17,0.0307616225653051,1.5718919797790085e-17,0.4309191200392992,1.7522296908590134e-17,-0.43091912003929933,0.33250312003999477,0.8825436818239298,0.3325031200399948,700.0,57.8571428571429,[1.29077051]
6.637456053803105e-18,0.43480951918418165,-1.2964591061506302e-17,0.43480951918418165,-2.1705219273391446e-20,0.028107378157475965,-1.2964591061506302e-17,0.028107378157475965,1.4067152611084996e-17,0.4357170442845523,1.5717739900308877e-17,-0.4357170442845522,0.33679720903773674,0.8792811154396427,0.33679720903773674,700.0,57.8571428571429,[1.29077051]
5.213593669468625e-18,0.43789972073144484,-1.3128914832888177e-17,0.43789972073144484,-7.379774552953092e-20,0.02649409849115301,-1.3128914832888177e-17,0.02649409849115301,1.2376316029687804e-17,0.43870047033430054,1.392175379192114e-17,-0.4387004703343005,0.3393585123657878,0.8773092956134452,0.33935851236578773,700.0,57.8571428571429,[1.29893487]
3.772367109715433e-18,0.43968226039280306,-1.3282892591059757e-17,0.43968226039280306,-1.4976601298640098e-19,0.025601617010983548,-1.3282892591059757e-17,0.025601617010983548,1.0646410053598504e-17,0.4404269892930062,1.216037945960634e-17,-0.4404269892930061,0.34076405564322204,0.8762189890450711,0.340764055643222,700.0,57.8571428571429,[1.29893487]
2.3224584622528847e-18,0.4404033278745832,-1.3413939972073177e-17,0.4404033278745832,-2.669741970627148e-19,0.025296578560359953,-1.3413939972073177e-17,0.025296578560359953,8.899139902090493e-18,0.44112924193468295,1.043181255047152e-17,-0.4411292419346829,0.34125053351462714,0.8758402518450294,0.34125053351462714,700.0,57.8571428571429,[1.29893487]
8.334804200982316e-19,0.44009714044346565,-1.3534543835961598e-17,0.44009714044346565,-3.972055127030635e-19,0.025562470159685026,-1.3534543835961598e-17,0.025562470159685026,7.123652965527073e-18,0.44083889677202986,8.676232868342447e-18,-0.4408388967720299,0.34085287320393653,0.8761498945141993,0.3408528732039364,700.0,57.8571428571429,[1.29893487]
-6.424744904923868e-19,0.43859686572268025,-1.363571898501995e-17,0.43859686572268025,-5.599946572534993e-19,0.026494362441865038,-1.363571898501995e-17,0.026494362441865038,5.309096634271548e-18,0.43939636077573496,6.936736780991416e-18,-0.43939636077573474,0.3394175797630731,0.8772635938505348,0.339417579763073,700.0,57.8571428571429,[1.29893487]
-2.148816708065753e-18,0.4354312140274559,-1.3720140417951652e-17,0.4354312140274559,-7.705352842053963e-19,0.028354270221534035,-1.3720140417951652e-17,0.028354270221534035,3.448959342541901e-18,0.4363534195915275,5.2061462892237224e-18,-0.43635341959152757,0.3365032593150093,0.8795061756126284,0.3365032593150092,700.0,57.8571428571429,[1.29893487]
-3.6985693641859024e-18,0.4294716188241935,-1.3758925779500921e-17,0.4294716188241935,-1.0613852224688417e-18,0.031753001943573805,-1.3758925779500921e-17,0.031753001943573805,1.5041716956460272e-18,0.43064384879840334,3.5203706225026906e-18,-0.43064384879840334,0.331033228745646,0.8836481216708754,0.33103322874564584,700.0,57.8571428571429,[1.29077051]
-5.309096634271548e-18,0.4176913493409486,-1.3728635976432878e-17,0.4176913493409486,-1.517194827210062e-18,0.03824183341035905,-1.3728635976432878e-17,0.03824183341035905,-6.120871835096388e-19,0.41943831624786965,1.8537151823019915e-18,-0.41943831624786965,0.3200485462306407,0.8917050275238481,0.3200485462306407,700.0,57.8571428571429,[1.24141589]
-7.136676097091108e-18,0.38904626483981,-1.3495033554003003e-17,0.38904626483981,-2.4830770848759814e-18,0.05265691919558304,-1.3495033554003003e-17,0.05265691919558304,-3.2167134963166127e-18,0.3925936160013018,2.292860039321676e-19,-0.3925936160013017,0.2924998624854621,0.9104326778471717,0.2924998624854619,700.0,57.8571428571429,[1.25573042]
-1.0066880698998953e-17,0.2618707953409499,-1.2530592658554457e-17,0.2618707953409499,-7.249543237312743e-18,0.08278194298169304,-1.2530592658554457e-17,0.08278194298169304,-8.061318438137583e-18,0.27464370288853535,-1.3631653085183092e-18,-0.274643702888535,0.17824233848031956,0.9677082915559495,0.17824233848031945,700.0,57.8571428571429,[0.82526816]
-1.0822222329712975e-17,0.2673492130229508,-1.2357374834431257e-17,0.2673492130229508,-7.321170460914935e-18,0.07846534061748144,-1.2357374834431257e-17,0.07846534061748144,-8.886116770526458e-18,0.27862593451114437,-2.248915968333816e-18,-0.2786259345111442,0.03613299161603278,0.9986935535156675,0.03613299161603272,700.0,70.71428571428567,[0.82597139]
-9.854169550119717e-18,0.39581809705302545,-1.2592817113338605e-17,0.39581809705302545,-2.7066408433919133e-18,0.0474256069668959,-1.2592817113338605e-17,0.0474256069668959,-5.194058972122573e-18,0.3986491617335432,-2.302639768743748e-18,-0.39864916173354337,0.15248313982331418,0.9764721112961943,0.15248313982331413,700.0,70.71428571428567,[1.25086476]
-1.0001765041178778e-17,0.42357252645053495,-1.210983359149925e-17,0.42357252645053495,-1.8796719890756992e-18,0.033836101136434545,-1.210983359149925e-17,0.033836101136434545,-3.785390241279468e-18,0.4249218362285047,-1.9263896293754885e-18,-0.42492183622850466,0.1796544767017016,0.9671858859609539,0.1796544767017015,700.0,70.71428571428567,[1.28451189]
-1.0323002286424972e-17,0.43537625413588027,-1.1448782485605301e-17,0.43537625413588027,-1.57362839732088e-18,0.02744347531672799,-1.1448782485605301e-17,0.02744347531672799,-2.8759415537243666e-18,0.43624033170128873,-1.4787841738641049e-18,-0.43624033170128873,0.19109280715803795,0.9627912951958599,0.19109280715803786,700.0,70.71428571428567,[1.30899827]
-1.0678967882508592e-17,0.44178309735970633,-1.0724243613336681e-17,0.44178309735970633,-1.4347149939711746e-18,0.0238027632225954,-1.0724243613336681e-17,0.0238027632225954,-2.1509872299930923e-18,0.4424238653709434,-1.0195945579335342e-18,-0.4424238653709436,0.19729624467353443,0.9602855740223539,0.19729624467353443,700.0,70.71428571428567,[1.29716456]
-1.1108731224121742e-17,0.4456403065026953,-9.960779482597695e-18,0.4456403065026953,-1.3695993361510003e-18,0.02150578480352074,-9.960779482597695e-18,0.02150578480352074,-1.515024305282723e-18,0.4461589196237498,-5.681144869104082e-19,-0.4461589196237497,0.2010997641769375,0.9587063000189161,0.2010997641769375,700.0,70.71428571428567,[1.31320616]
-1.1516789346461501e-17,0.4480144374979483,-9.177034537600133e-18,0.4480144374979483,-1.3522351607322871e-18,0.0199910960715845,-9.177034537600133e-18,0.0199910960715845,-9.333244287558322e-19,0.44846023249419387,-1.3112927303322965e-19,-0.4484602324941939,0.20355842201708402,0.9576679683751719,0.203558422017084,700.0,70.71428571428567,[1.31320616]
-1.195089373192933e-17,0.44936641620578077,-8.386235396338719e-18,0.44936641620578077,-1.3739403800056785e-18,0.01900484302137681,-8.386235396338719e-18,0.01900484302137681,-3.906939469210461e-19,0.4497681181140944,2.9097956826251325e-19,-0.44976811811409456,0.2051320432689828,0.9569961805820255,0.2051320432689828,700.0,70.71428571428567,[1.31320616]
-1.2380657073542482e-17,0.44988610513213206,-7.581819621423763e-18,0.44988610513213206,-1.4021571650610874e-18,0.018433480014827978,-7.581819621423763e-18,0.018433480014827978,1.1069661829429638e-19,0.4502635903295057,7.087066356492585e-19,-0.45026359032950575,0.20602279918319266,0.956613408035578,0.2060227991831927,700.0,70.71428571428567,[1.3118787]
-1.2840807722138381e-17,0.4495971826377142,-6.772282771336492e-18,0.4495971826377142,-1.4629317790265835e-18,0.01824724104338675,-6.772282771336492e-18,0.01824724104338675,5.947230080909256e-19,0.4499673193038199,1.1238731457064088e-18,-0.44996731930382,0.20628473748180648,0.9565005040062051,0.20628473748180642,700.0,70.71428571428567,[1.3118787]
-1.3287935239170245e-17,0.4483647024943466,-5.948637528721515e-18,0.4483647024943466,-1.5606052657568452e-18,0.01849066300597666,-5.948637528721515e-18,0.01849066300597666,1.0331684374134328e-18,0.44874582010448255,1.4961069430934824e-18,-0.4487458201044826,0.20584278093675457,0.9566909109385573,0.20584278093675454,700.0,70.71428571428567,[1.3118787]
-1.3750256409693483e-17,0.4458112153470522,-5.1107651931609334e-18,0.4458112153470522,-1.7060302348885679e-18,0.01931278767698737,-5.1107651931609334e-18,0.01931278767698737,1.4151802966251223e-18,0.446229339574475,1.8298700601209294e-18,-0.44622933957447497,0.20443754788585902,0.9572933604850891,0.20443754788585897,700.0,70.71428571428567,[1.31320616]
-1.4249476452981484e-17,0.4410299686341825,-4.254443421217969e-18,0.4410299686341825,-1.920911905695143e-18,0.021074561779823874,-4.254443421217969e-18,0.021074561779823874,1.6951776252518721e-18,0.44153320417345693,2.071978186153578e-18,-0.441533204173457,0.2014198527796384,0.958571899135614,0.20141985277963834,700.0,70.71428571428567,[1.31320616]
-1.4785595369034253e-17,0.4315593442930956,-3.352405031180424e-18,0.4315593442930956,-2.313776374543528e-18,0.02470056211108843,-3.352405031180424e-18,0.02470056211108843,1.7754869365634203e-18,0.4322656421869431,2.1071987161329068e-18,-0.4322656421869432,0.19502283517792235,0.9612139135064213,0.19502283517792235,700.0,70.71428571428567,[1.28474202]
-1.54258993375993e-17,0.40811134171863134,-2.3196774810334815e-18,0.40811134171863134,-3.2015198428252387e-18,0.0330487178418214,-2.3196774810334815e-18,0.0330487178418214,1.306654200258165e-18,0.4094472920784431,1.6352847772647402e-18,-0.4094472920784431,0.17890895149371092,0.9674622339661856,0.17890895149371086,700.0,70.71428571428567,[1.26817933]
-1.6960458340228076e-17,0.2915320127390313,-8.79790540282319e-19,0.2915320127390313,-7.894188249732469e-18,0.049339372332848956,-8.79790540282319e-19,0.049339372332848956,-1.6843250156151764e-18,0.29567767604922457,-1.735918288764618e-18,-0.29567767604922474,0.11889547913685346,0.9857625120086664,0.11889547913685339,700.0,70.71428571428567,[0.81738285]
-1.6600151700289778e-17,0.2945966596845056,-5.82615565464987e-19,0.2945966596845056,-7.950621819843287e-18,0.043084829486714604,-5.82615565464987e-19,0.043084829486714604,-1.8123858093281858e-18,0.29773057355462784,-1.94681942950273e-18,-0.29773057355462784,0.023345096116555206,0.9994548578973527,0.02334509611655515,700.0,83.57142857142856,[0.84325252]
-1.4598930483283087e-17,0.4119482694366867,-8.44417815747714e-19,0.4119482694366867,-3.3599679435209963e-18,0.02543445620159642,-8.44417815747714e-19,0.02543445620159642,1.1894460161818513e-18,0.4127327080013794,1.2408873998011704e-18,-0.41273270800137946,0.03571924162988484,0.9987233208225249,0.03571924162988483,700.0,83.57142857142856,[1.33286279]
-1.3448553861793342e-17,0.4349556976145402,-7.331955241741401e-19,0.4349556976145402,-2.5590453523328515e-18,0.018241724672812883,-7.331955241741401e-19,0.018241724672812883,1.6582787524871067e-18,0.4353380518704861,1.687610481947365e-18,-0.43533805187048624,0.04965811283848614,0.9975310239078483,0.04965811283848614,700.0,83.57142857142856,[1.36164583]
-1.2432749599798622e-17,0.4444927843612255,-5.236384149705686e-19,0.4444927843612255,-2.2703659359967453e-18,0.014717171951010301,-5.236384149705686e-19,0.014717171951010301,1.5627757876841843e-18,0.44473636066711547,1.5843208127659985e-18,-0.4447363606671154,0.055875102534971695,0.9968730841152315,0.055875102534971695,700.0,83.57142857142856,[1.36958777]
-1.1432138991295275e-17,0.449575525369723,-2.8318528270752902e-19,0.449575525369723,-2.1661808834844663e-18,0.012568096808486324,-2.8318528270752902e-19,0.012568096808486324,1.2545616740020256e-18,0.44975116461088793,1.258665587493113e-18,-0.44975116461088793,0.0595043821017251,0.9964529376851592,0.05950438210172509,700.0,83.57142857142856,[1.36958777]
-1.045540412399266e-17,0.4525659412396642,-2.4961002164400166e-20,0.4525659412396642,-2.116258879155666e-18,0.01107671264495241,-2.4961002164400166e-20,0.01107671264495241,8.551856393716231e-19,0.45270147418929624,8.498383648182487e-19,-0.4527014741892963,0.06195441685113447,0.9961542553567051,0.061954416851134474,700.0,83.57142857142856,[1.36683558]
-9.48952186632674e-18,0.4543363531149911,2.397070153505168e-19,0.4543363531149911,-2.1227704449376834e-18,0.009953431835148989,2.397070153505168e-19,0.009953431835148989,3.906939469210461e-19,0.4544453680775356,3.751874018975419e-19,-0.45444536807753555,0.06376191306477168,0.9959261201939837,0.06376191306477168,700.0,83.57142857142856,[1.36683558]
-8.523639608660821e-18,0.4552584329157585,5.078512593896878e-19,0.4552584329157585,-2.1683514054118055e-18,0.009061031783037283,5.078512593896878e-19,0.009061031783037283,-1.1937870600365295e-19,0.45534859507621767,-1.4240030009139628e-19,-0.4553485950762176,0.06517284251951803,0.9957434414525923,0.06517284251951803,700.0,83.57142857142856,[1.36754349]
-7.575121526413615e-18,0.45547987923150735,7.853219648353944e-19,0.45547987923150735,-2.222614453595284e-18,0.008328299682689957,7.853219648353944e-19,0.008328299682689957,-6.598386659111e-19,0.45555601297793574,-6.913639223188479e-19,-0.45555601297793574,0.06631183765960572,0.9955930294916756,0.06631183765960573,700.0,83.57142857142856,[1.36754349]
-6.620091878384392e-18,0.45500911460756904,1.056467633727214e-18,0.45500911460756904,-2.311605852616189e-18,0.007718136617982675,1.056467633727214e-18,0.007718136617982675,-1.2415385424379907e-18,0.4550745697232681,-1.2786336082049264e-18,-0.45507456972326815,0.0672422173272984,0.9954682156743212,0.06724221732729842,700.0,83.57142857142856,[1.36754349]
-5.6824264057738806e-18,0.4537179838906072,1.3442144039226667e-18,0.4537179838906072,-2.4374961244018594e-18,0.0072157318823618454,1.3442144039226667e-18,0.0072157318823618454,-1.862307813656986e-18,0.45377535818106673,-1.9058844073038993e-18,-0.45377535818106673,0.0679874362756842,0.9953669760532141,0.06798743627568421,700.0,83.57142857142856,[1.36754349]
-4.7512724989453876e-18,0.4512645529591949,1.629824566595895e-18,0.4512645529591949,-2.5916031812429387e-18,0.006827606811487484,1.629824566595895e-18,0.006827606811487484,-2.5460222207688166e-18,0.4513162006534157,-2.595940691579131e-18,-0.4513162006534157,0.06853178154496177,0.9952923137634226,0.06853178154496178,700.0,83.57142857142856,[1.36754349]
-3.824459635971573e-18,0.44683348254982946,1.9153669004588938e-18,0.44683348254982946,-2.836872159032262e-18,0.00659324715024703,1.9153669004588938e-18,0.00659324715024703,-3.32523959268357e-18,0.44688212319983567,-3.3818718740992485e-18,-0.44688212319983556,0.0687952491656064,0.9952559607379824,0.06879524916560639,700.0,83.57142857142856,[1.36754349]
-2.938886689617202e-18,0.43820034058119156,2.206810340811846e-18,0.43820034058119156,-3.2492713252267e-18,0.006627066879304092,2.206810340811846e-18,0.006627066879304092,-4.321509157332237e-18,0.4382504495159075,-4.388283752489139e-18,-0.43825044951590747,0.0685364045825907,0.9952916770946008,0.06853640458259068,700.0,83.57142857142856,[1.36754349]
-2.144475664211075e-18,0.416800888011812,2.5188398250694053e-18,0.416800888011812,-4.169572622418497e-18,0.007241506710209891,2.5188398250694053e-18,0.007241506710209891,-5.908160686217152e-18,0.416863790304302,-5.994703543150265e-18,-0.4168637903043021,0.0669526963903926,0.9955072440178986,0.06695269639039261,700.0,83.57142857142856,[1.33363176]
-2.114088357228327e-18,0.30376353823741514,2.8483691423661365e-18,0.30376353823741514,-8.886116770526458e-18,0.006450732519642624,2.8483691423661365e-18,0.006450732519642624,-1.0108120615618396e-17,0.3038320245012917,-1.0224495125615577e-17,-0.30383202450129165,0.06423463344105133,0.9958653642603439,0.06423463344105133,700.0,83.57142857142856,[0.84155866]
