stress_11,stress_12,stress_13,stress_21,stress_22,stress_23,stress_31,stress_32,stress_33,e1,e2,e3,anev1,anev2,anev3,temp,miss,velo
1.0118973225255092e-17,0.2932031354264114,-7.339755554917776e-18,0.2932031354264114,-9.068440612422946e-18,-0.043769850213241306,-7.339755554917776e-18,-0.043769850213241306,1.9393613420775257e-18,0.29645215197661856,-6.862874780473075e-20,-0.29645215197661867,0.1324404715587017,0.9823029283202904,0.13244047155870167,100.0,109.28571428571416,[1.05677469]
9.886727379029804e-18,0.40987777185592106,-6.3093172271160754e-18,0.40987777185592106,-4.354066986242324e-18,-0.027505284047732743,-6.3093172271160754e-18,-0.027505284047732743,4.4647636045366205e-18,0.4107996208763111,3.637034463977168e-18,-0.41079962087631117,0.18833064086738946,0.9638792141243407,0.1883306408673895,100.0,109.28571428571416,[1.29048128]
8.80363693728757e-18,0.4334180054549,-5.700816491947313e-18,0.4334180054549,-3.4229130794138314e-18,-0.019193104714060938,-5.700816491947313e-18,-0.019193104714060938,4.483213040919003e-18,0.4338427626699201,3.997602901410147e-18,-0.43384276266992006,0.20378712548184041,0.9575706840623815,0.20378712548184047,100.0,109.28571428571416,[1.3169425]
7.55992787292224e-18,0.4429793316964041,-5.208718473733391e-18,0.4429793316964041,-3.001831825510037e-18,-0.01560833921604661,-5.208718473733391e-18,-0.01560833921604661,3.940582559084217e-18,0.44325422565755185,3.575857800664836e-18,-0.44325422565755185,0.2098956029405234,0.9549280976767143,0.2098956029405234,100.0,109.28571428571416,[1.3154463]
6.303195676992877e-18,0.44785010566321576,-4.764482159737553e-18,0.44785010566321576,-2.758733369648053e-18,-0.013891837888508434,-4.764482159737553e-18,-0.013891837888508434,3.200434581861569e-18,0.44806550894090713,2.9090297834026443e-18,-0.4480655089409072,0.21273738376879126,0.9536695502606866,0.21273738376879128,100.0,109.28571428571416,[1.31394859]
5.026928783717459e-18,0.45049202738925703,-4.3361771375443335e-18,0.45049202738925703,-2.5742390058242255e-18,-0.013118582995255909,-4.3361771375443335e-18,-0.013118582995255909,2.3669541617633372e-18,0.4506829971954639,2.118088866814438e-18,-0.4506829971954638,0.21401600805718088,0.9530972125604698,0.2140160080571809,100.0,109.28571428571416,[1.31332615]
3.761514500078738e-18,0.451811862226094,-3.935902371178392e-18,0.451811862226094,-2.4505192559658943e-18,-0.012927386055864921,-3.935902371178392e-18,-0.012927386055864921,1.4672728228812618e-18,0.45199676565042846,1.243450703529467e-18,-0.45199676565042834,0.21435822289228926,0.9529433900064156,0.21435822289228926,100.0,109.28571428571416,[1.31332615]
2.446178212111216e-18,0.4521870503894139,-3.5336351335119634e-18,0.4521870503894139,-2.3528457692356328e-18,-0.013169028657859693,-3.5336351335119634e-18,-0.013169028657859693,5.306926112344209e-19,0.4523787703414802,3.260625384091031e-19,-0.4523787703414802,0.2140143913959051,0.9530979385933434,0.21401439139590514,100.0,109.28571428571416,[1.31332615]
1.1286714022163552e-18,0.4517525220201594,-3.147078744014908e-18,0.4517525220201594,-2.281218545633441e-18,-0.013798821094675466,-3.147078744014908e-18,-0.013798821094675466,-4.384454293225072e-19,0.4519632159979145,-6.303813417669601e-19,-0.45196321599791467,0.21305660040211052,0.9535270158994923,0.21305660040211058,100.0,109.28571428571416,[1.31394859]
-1.8232384189648815e-19,0.4504845819452557,-2.767462089664442e-18,0.4504845819452557,-2.2399786290139972e-18,-0.014846385264374566,-2.767462089664442e-18,-0.014846385264374566,-1.4455676036078703e-18,0.4507291578385074,-1.6286747340735193e-18,-0.4507291578385072,0.21143175406327808,0.9542500860610131,0.21143175406327808,100.0,109.28571428571416,[1.3154463]
-1.5063422175733664e-18,0.44819335396695287,-2.4005379014281433e-18,0.44819335396695287,-2.2312965413046407e-18,-0.016425125597423235,-2.4005379014281433e-18,-0.016425125597423235,-2.4776507800576336e-18,0.4484942221378528,-2.6585394562736786e-18,-0.4484942221378528,0.20894285754724196,0.9553458873936632,0.20894285754724196,100.0,109.28571428571416,[1.3154463]
-2.849895290596297e-18,0.4444179061399275,-2.056535611748725e-18,0.4444179061399275,-2.2551722825053713e-18,-0.018788756524097495,-2.056535611748725e-18,-0.018788756524097495,-3.565082265654545e-18,0.44481489708587707,-3.7397895795343274e-18,-0.4448148970858769,0.2051423811235081,0.9569917486237564,0.2051423811235081,100.0,109.28571428571416,[1.31816338]
-4.230347236383993e-18,0.438091693520115,-1.7387173624681545e-18,0.438091693520115,-2.3636983788723285e-18,-0.022498587117880144,-1.7387173624681545e-18,-0.022498587117880144,-4.748016716054379e-18,0.4386690305385409,-4.9435383074522044e-18,-0.43866903053854095,0.19900403865359217,0.9595805256460341,0.1990040386535922,100.0,109.28571428571416,[1.30350055]
-5.675914839991863e-18,0.42636752277041623,-1.4909291802739068e-18,0.42636752277041623,-2.641525185571739e-18,-0.028962680554361745,-1.4909291802739068e-18,-0.028962680554361745,-6.112189747387031e-18,0.4273500922408645,-6.3078970215377794e-18,-0.4273500922408645,0.18777230022003705,0.9640970524486384,0.18777230022003707,100.0,109.28571428571416,[1.31790218]
-7.266907412731456e-18,0.39869180394212855,-1.4263497939846083e-18,0.39869180394212855,-3.429424645195849e-18,-0.04262596403658661,-1.4263497939846083e-18,-0.04262596403658661,-7.984264909717043e-18,0.4009639975617224,-8.285360097265141e-18,-0.40096399756172235,0.1612658918945604,0.9736460466837545,0.1612658918945605,100.0,109.28571428571416,[1.26486684]
-9.986571387687404e-18,0.2703017437873705,-2.072988337529981e-18,0.2703017437873705,-8.010311172845113e-18,-0.0737420950298831,-2.072988337529981e-18,-0.0737420950298831,-1.2139729139607836e-17,0.28018017287789937,-1.3018790949737204e-17,-0.2801801728778994,0.0496450136428188,0.9975323279176515,0.04964501364281883,100.0,109.28571428571416,[1.0614398]
1.0346878027625702e-17,0.2961862277096591,-7.192024406238256e-18,0.2961862277096591,-9.118362616751747e-18,-0.03743423857880651,-7.192024406238256e-18,-0.03743423857880651,1.92850873244083e-18,0.29854246549335817,3.173414418552295e-19,-0.2985424654933583,0.00956062843363673,0.999908590206079,0.009560628433636675,100.0,96.42857142857144,[1.12080921]
1.0357730637262398e-17,0.4134368084447026,-6.433291335012767e-18,0.4134368084447026,-4.501662477301386e-18,-0.019742414550620986,-6.433291335012767e-18,-0.019742414550620986,4.706776799434935e-18,0.41390790945478484,4.099831941726098e-18,-0.41390790945478495,0.04556550242368407,0.9979216251679057,0.045565502423684096,100.0,96.42857142857144,[1.44921548]
9.500374475963436e-18,0.43634459895040983,-6.06004634952322e-18,0.43634459895040983,-3.6681820572031544e-18,-0.012505284834248943,-6.06004634952322e-18,-0.012505284834248943,4.9542162991515976e-18,0.4365237578666018,4.609788217813576e-18,-0.4365237578666019,0.05900892362678925,0.9965118633838814,0.059008923626789264,100.0,96.42857142857144,[1.43651631]
8.534492218297517e-18,0.4457818248072164,-5.776911938423363e-18,0.4457818248072164,-3.3469448119569614e-18,-0.008938284176975389,-5.776911938423363e-18,-0.008938284176975389,4.634064314869074e-18,0.44587142569633276,4.403800186867702e-18,-0.44587142569633265,0.0650688505494268,0.9957570433475994,0.06506885054942682,100.0,96.42857142857144,[1.39724193]
7.525199522084814e-18,0.4507641278844446,-5.5308968437215166e-18,0.4507641278844446,-3.205860886679917e-18,-0.006750002394049293,-5.5308968437215166e-18,-0.006750002394049293,4.11096853038034e-18,0.45081466426874756,3.946354344843553e-18,-0.4508146642687476,0.06864109848154643,0.9952772474032013,0.06864109848154643,100.0,96.42857142857144,[1.39724193]
6.507224738162756e-18,0.45365346680932384,-5.293767323159715e-18,0.45365346680932384,-3.1233810534410295e-18,-0.005223105693549678,-5.293767323159715e-18,-0.005223105693549678,3.4901992591613445e-18,0.4536835337338181,3.3686902583737656e-18,-0.4536835337338179,0.07107609815218335,0.9949353629974776,0.07107609815218335,100.0,96.42857142857144,[1.39724193]
5.478397344604001e-18,0.4553221785973702,-5.079869170101465e-18,0.4553221785973702,-3.099505312240299e-18,-0.004068232139626797,-5.079869170101465e-18,-0.004068232139626797,2.7978027643401574e-18,0.4553403527422069,2.707241153678683e-18,-0.45534035274220697,0.07288976845851297,0.9946728926175322,0.07288976845851297,100.0,96.42857142857144,[1.39724193]
4.445228907190568e-18,0.45614197925557015,-4.8565088980162214e-18,0.45614197925557015,-3.101675834167638e-18,-0.003148299066099435,-4.8565088980162214e-18,-0.003148299066099435,2.0619958309721874e-18,0.4561528439308458,1.9950532207406475e-18,-0.4561528439308458,0.07431929539284125,0.9944613037542605,0.07431929539284127,100.0,96.42857142857144,[1.38423529]
3.403378382067779e-18,0.4562606241784733,-4.639660191712995e-18,0.4562606241784733,-3.132063141150386e-18,-0.0023921916765539102,-4.639660191712995e-18,-0.0023921916765539102,1.3001426344761476e-18,0.45626689531100934,1.251561697924183e-18,-0.45626689531100917,0.07548572650889135,0.9942855777827868,0.07548572650889138,100.0,96.42857142857144,[1.38423529]
2.3593573350176502e-18,0.4556865994917033,-4.425846824667532e-18,0.4556865994917033,-3.1819851454791864e-18,-0.0017628836886733543,-4.425846824667532e-18,-0.0017628836886733543,5.057316090700207e-19,0.4556900094529304,4.715121706218137e-19,-0.45569000945293037,0.0764519328707861,0.9941379199691769,0.0764519328707861,100.0,96.42857142857144,[1.38423529]
1.276266893275417e-18,0.4542918177434645,-4.2221738647513564e-18,0.4542918177434645,-3.2731470664274305e-18,-0.0012456188210379462,-4.2221738647513564e-18,-0.0012456188210379462,-3.3208985488288913e-19,0.4542935254160116,-3.5523162741428768e-19,-0.45429352541601165,0.07724393078563142,0.9940154678442229,0.07724393078563145,100.0,96.42857142857144,[1.38423529]
2.4092793393464505e-19,0.45173441528826086,-4.016686484161546e-18,0.45173441528826086,-3.40120786014044e-18,-0.0008469580671325607,-4.016686484161546e-18,-0.0008469580671325607,-1.2371974985833124e-18,0.45173520926953914,-1.252254553348883e-18,-0.4517352092695391,0.0778532831444167,0.9939203854470795,0.07785328314441671,100.0,96.42857142857144,[1.38423529]
-8.443330297349274e-19,0.44719912534936024,-3.817558054530737e-18,0.44719912534936024,-3.613919009019676e-18,-0.0006064138564977252,-3.817558054530737e-18,-0.0006064138564977252,-2.2421491509413364e-18,0.4471995365057952,-2.252500101527082e-18,-0.44719953650579525,0.07821794195248644,0.9938631229266106,0.07821794195248645,100.0,96.42857142857144,[1.38416108]
-1.9404466030411953e-18,0.4384615898586836,-3.61815830965901e-18,0.4384615898586836,-3.987248780522009e-18,-0.0006384148862477191,-3.61815830965901e-18,-0.0006384148862477191,-3.461982474105936e-18,0.43846205463525745,-3.472515474598348e-18,-0.4384620546352574,0.07814765983567344,0.993874180429503,0.07814765983567344,100.0,96.42857142857144,[1.38423529]
-3.14725679464176e-18,0.4169576449768727,-3.4431769364698492e-18,0.4169576449768727,-4.864139639167023e-18,-0.0012554052197331564,-3.4431769364698492e-18,-0.0012554052197331564,-5.267856717652104e-18,0.4169595349034792,-5.2885725193632196e-18,-0.4169595349034792,0.07705487126905657,0.9940448146977168,0.07705487126905657,100.0,96.42857142857144,[1.36751875]
-5.113749660811025e-18,0.3038157802299354,-3.2849323222047797e-18,0.3038157802299354,-9.558978568001593e-18,-0.0004715431109459355,-3.2849323222047797e-18,-0.0004715431109459355,-9.689209883641942e-18,0.30381614616348124,-9.699395525003295e-18,-0.3038161461634814,0.07808016832886393,0.9938847894134777,0.07808016832886396,100.0,96.42857142857144,[1.0809399]
-1.0837415983204349e-17,0.26488854516043236,-2.0921393781681737e-18,0.26488854516043236,-7.983179648753374e-18,-0.07812051045406859,-2.0921393781681737e-18,-0.07812051045406859,-1.2174457490445262e-17,0.27616798422484584,-1.2607981664484697e-17,-0.27616798422484573,0.19147526282710234,0.9626393132687777,0.19147526282710234,100.0,122.14285714285735,[1.10930817]
-9.324562199848965e-18,0.3921345237980762,-1.093177857613529e-18,0.3921345237980762,-3.3393479852112744e-18,-0.04805186029045785,-1.093177857613529e-18,-0.04805186029045785,-8.570305830098613e-18,0.3950676727242026,-8.906896801833373e-18,-0.39506767272420246,0.30058787879489995,0.905148526068051,0.30058787879489984,100.0,122.14285714285735,[1.37401418]
-8.949061906419293e-18,0.4208479303981681,-8.302967053180916e-19,0.4208479303981681,-2.489588650657999e-18,-0.03369450567567348,-8.302967053180916e-19,-0.03369450567567348,-7.223496974184673e-18,0.42219462364311244,-7.35207339150758e-18,-0.42219462364311233,0.32722050114780554,0.886483777210366,0.32722050114780554,100.0,122.14285714285735,[1.39384637]
-8.773249630304823e-18,0.43269520537872835,-7.662875049647834e-19,0.43269520537872835,-2.159669317702449e-18,-0.027265076944701365,-7.662875049647834e-19,-0.027265076944701365,-6.354202942285347e-18,0.4335533706229722,-6.466712896278457e-18,-0.4335533706229723,0.33780657341388964,0.8785063676016999,0.3378065734138897,100.0,122.14285714285735,[1.40025207]
-8.65387092430117e-18,0.4387207060768684,-7.807562380468314e-19,0.4387207060768684,-1.9957949121883435e-18,-0.023927416079914315,-7.807562380468314e-19,-0.023927416079914315,-5.663976969391498e-18,0.43937271101064906,-5.75167740606269e-18,-0.43937271101064895,0.34303981154736946,0.874441178917765,0.34303981154736946,100.0,122.14285714285735,[1.40221646]
-8.55185639371623e-18,0.4419512300946443,-8.290037186230946e-19,0.4419512300946443,-1.8970361644944124e-18,-0.02213016971404944,-8.290037186230946e-19,-0.02213016971404944,-5.059486612627546e-18,0.44250495386350425,-5.140969285322534e-18,-0.44250495386350425,0.3457898501448508,0.8722721817607182,0.3457898501448508,100.0,122.14285714285735,[1.39821468]
-8.517128042878803e-18,0.44351537220335535,-9.001730977562382e-19,0.44351537220335535,-1.862307813656986e-18,-0.021262431901345875,-9.001730977562382e-19,-0.021262431901345875,-4.501662477301386e-18,0.4440247474984251,-4.586786378067737e-18,-0.4440247474984251,0.34710158407423725,0.8712295797700571,0.34710158407423725,100.0,122.14285714285735,[1.39821468]
-8.47371760433202e-18,0.4438844373835722,-9.857984920695117e-19,0.4438844373835722,-1.8406025943835946e-18,-0.02106208345693699,-9.857984920695117e-19,-0.02106208345693699,-3.974225648957974e-18,0.4443838488411539,-4.091412691125702e-18,-0.4443838488411539,0.3474034682915522,0.8709888979992805,0.3474034682915523,100.0,122.14285714285735,[1.39945419]
-8.452012385058629e-18,0.4432252683658396,-1.0906109610764122e-18,0.4432252683658396,-1.8557962478749686e-18,-0.021433947148042448,-1.0906109610764122e-18,-0.021433947148042448,-3.470664561815292e-18,0.4437432282393903,-3.587136762646033e-18,-0.44374322823939016,0.34684442485470685,0.8714343864539746,0.34684442485470673,100.0,122.14285714285735,[1.39821468]
-8.438989253494594e-18,0.44150365656465435,-1.2060132030803696e-18,0.44150365656465435,-1.8970361644944124e-18,-0.02239442960288119,-1.2060132030803696e-18,-0.02239442960288119,-3.0050876084010457e-18,0.4420712490506465,-3.1477161830285495e-18,-0.4420712490506465,0.3453903062902527,0.8725887190661191,0.3453903062902527,100.0,122.14285714285735,[1.40016283]
-8.443330297349273e-18,0.43847342141554396,-1.3377621883496e-18,0.43847342141554396,-1.9621518223145867e-18,-0.024076782021601417,-1.3377621883496e-18,-0.024076782021601417,-2.565556918114869e-18,0.4391339576033364,-2.739221854901778e-18,-0.43913395760333646,0.3428108234127349,0.8746207627893162,0.3428108234127349,100.0,122.14285714285735,[1.40221646]
-8.47371760433202e-18,0.4335426616803667,-1.4986097332072207e-18,0.4335426616803667,-2.0674221357905352e-18,-0.026801072414916877,-1.4986097332072207e-18,-0.026801072414916877,-2.161839839629788e-18,0.4343702763535814,-2.3755313968217412e-18,-0.4343702763535815,0.33854481623054,0.8779378194421628,0.33854481623054006,100.0,122.14285714285735,[1.40025207]
-8.547515349861552e-18,0.425351924410252,-1.6997391127397958e-18,0.425351924410252,-2.2703659359967453e-18,-0.03128926984189906,-1.6997391127397958e-18,-0.03128926984189906,-1.839517333419925e-18,0.4265012051644681,-2.1356132359400914e-18,-0.4265012051644681,0.3312657181710336,0.8834738524309922,0.3312657181710336,100.0,122.14285714285735,[1.40116198]
-8.718986582121344e-18,0.4103173224373766,-1.9870789100738722e-18,0.4103173224373766,-2.626331532080365e-18,-0.0393609378366559,-1.9870789100738722e-18,-0.0393609378366559,-1.662619796341785e-18,0.4122009079557675,-2.0893689049849514e-18,-0.4122009079557676,0.31731238583460714,0.8936586034901127,0.3173123858346071,100.0,122.14285714285735,[1.37245803]
-9.15960253337119e-18,0.37556589703421706,-2.513735707099647e-18,0.37556589703421706,-3.493455042052353e-18,-0.056732930657464195,-2.513735707099647e-18,-0.056732930657464195,-1.8992066864217515e-18,0.3798267610847092,-2.874243066737549e-18,-0.37982676108470925,0.2825546293068912,0.9166928400039408,0.2825546293068912,100.0,122.14285714285735,[1.37239134]
-1.106315026364762e-17,0.23132706931630082,-3.931035654044436e-18,0.23132706931630082,-8.166588751613532e-18,-0.0950921350056762,-3.931035654044436e-18,-0.0950921350056762,-4.046938133523835e-18,0.25010943032681987,-1.0313025000188794e-17,-0.25010943032682015,0.12031560303032138,0.9854178359127158,0.12031560303032153,100.0,122.14285714285735,[1.11528781]
-1.1243303583616769e-17,0.22455923767157018,-3.872550262424181e-18,0.22455923767157018,-8.17092979546821e-18,-0.09667701824104759,-3.872550262424181e-18,-0.09667701824104759,-3.4424477767598838e-18,0.24448578093544943,-7.933781502823637e-18,-0.24448578093544945,0.2615330407789399,0.9290860762931724,0.26153304077893974,100.0,135.00000000000023,[1.10507471]
-9.103168963260373e-18,0.3673314156301844,-2.1790853146306e-18,0.3673314156301844,-3.515160261325745e-18,-0.05874028019646502,-2.1790853146306e-18,-0.05874028019646502,-6.967375386758654e-19,0.3719983728814342,-1.6602597303124272e-18,-0.371998372881434,0.4147748457115929,0.8098911375795196,0.41477484571159295,100.0,135.00000000000023,[1.36669496]
-8.465035516622664e-18,0.4033374480699012,-1.3904566952965248e-18,0.4033374480699012,-2.6610598829177913e-18,-0.04116876164897464,-1.3904566952965248e-18,-0.04116876164897464,1.6170388358676627e-19,0.4054330572995377,-2.2752309092791524e-19,-0.4054330572995377,0.44664424853910495,0.7752533976022781,0.44664424853910517,100.0,135.00000000000023,[1.3747907]
-8.11992253017574e-18,0.4184864046007795,-8.485045015640323e-19,0.4184864046007795,-2.326799506107563e-18,-0.03315753145996387,-8.485045015640323e-19,-0.03315753145996387,6.4464501241972595e-19,0.41979791891838364,4.777965944581736e-19,-0.4197979189183838,0.45894566858933394,0.7607481492361177,0.458945668589334,100.0,135.00000000000023,[1.3682272]
-7.898529293587147e-18,0.42626314144231126,-3.938140721915961e-19,0.42626314144231126,-2.141219881320066e-18,-0.028850130442675773,-3.938140721915961e-19,-0.028850130442675773,9.940990427213282e-19,0.42723833603602024,9.064266451154118e-19,-0.4272383360360202,0.46509521440291746,0.7532415834770462,0.46509521440291757,100.0,135.00000000000023,[1.40032977]
-7.718375973617998e-18,0.4304755063707561,1.8992066864217515e-20,0.4304755063707561,-2.027267480134761e-18,-0.026375812073461728,1.8992066864217515e-20,-0.026375812073461728,1.2806079371300953e-18,0.43128279011304577,1.2349032203676034e-18,-0.4312827901130456,0.4684857633565384,0.7490274888577072,0.4684857633565384,100.0,135.00000000000023,[1.37523045]
-7.581633092195632e-18,0.4325603434619051,4.004443383915149e-19,0.4325603434619051,-1.974089692914952e-18,-0.024994847297676922,4.004443383915149e-19,-0.024994847297676922,1.5237063929920795e-18,0.43328188645189813,1.543139102693999e-18,-0.4332818864518982,0.470323718701632,0.7467202951931444,0.470323718701632,100.0,135.00000000000023,[1.37511562]
-7.455742820409962e-18,0.4331225096470274,7.620905973318425e-19,0.4331225096470274,-1.95346973460523e-18,-0.024384106299006794,7.620905973318425e-19,-0.024384106299006794,1.7396733247623244e-18,0.4338083597660844,1.8205667114599573e-18,-0.43380835976608445,0.47110480255431175,0.7457348925861828,0.47110480255431175,100.0,135.00000000000023,[1.37511562]
-7.345046202115665e-18,0.4323794834739573,1.1124772737740983e-18,0.4323794834739573,-1.949128690750552e-18,-0.02441678273682388,1.1124772737740983e-18,-0.02441678273682388,1.941531864004865e-18,0.4330683514278356,2.0300242668751585e-18,-0.4330683514278358,0.4710142167998115,0.7458493246929437,0.4710142167998115,100.0,135.00000000000023,[1.37511562]
-7.260395846949439e-18,0.4302932858033005,1.4507904219955301e-18,0.4302932858033005,-1.9730044319512825e-18,-0.025092842230861296,1.4507904219955301e-18,-0.025092842230861296,2.1227704449376834e-18,0.43102431780425543,2.245219827735962e-18,-0.4310243178042554,0.47004359943846347,0.7470729745171261,0.47004359943846347,100.0,135.00000000000023,[1.37602553]
-7.210473842620638e-18,0.4265583581634747,1.7660417747389836e-18,0.4265583581634747,-2.0294380020621002e-18,-0.02653902351245749,1.7660417747389836e-18,-0.02653902351245749,2.2779627627424323e-18,0.4273831450678816,2.463388473417526e-18,-0.4273831450678817,0.46798679272609517,0.7496510679428698,0.4679867927260952,100.0,135.00000000000023,[1.37523045]
-7.190939145274586e-18,0.4204359680745662,2.0555181795952846e-18,0.4204359680745662,-2.1401346203563966e-18,-0.029078392908656225,2.0555181795952846e-18,-0.029078392908656225,2.4092793393464505e-18,0.4214403352610518,2.6501550615452415e-18,-0.42144033526105174,0.46430958598622696,0.7542103265817809,0.464309585986227,100.0,135.00000000000023,[1.3682272]
-7.224582235148343e-18,0.41023300875630464,2.298616635457269e-18,0.41023300875630464,-2.3050942868341716e-18,-0.03345062610985285,2.298616635457269e-18,-0.03345062610985285,2.4809065629486423e-18,0.4115945406105278,2.8208438299234983e-18,-0.41159454061052786,0.4577106174532382,0.7622348596995223,0.45771061745323827,100.0,135.00000000000023,[1.37786926]
-7.4079913380085e-18,0.3915232643760282,2.4526897778932334e-18,0.3915232643760282,-2.656718839063113e-18,-0.04152644386131533,2.4526897778932334e-18,-0.04152644386131533,2.446178212111216e-18,0.39371933161508377,2.7750841816180276e-18,-0.3937193316150838,0.4444750262566302,0.7777428251474492,0.4444750262566302,100.0,135.00000000000023,[1.3747907]
-7.983179648753374e-18,0.3487921800631498,2.362070487426824e-18,0.3487921800631498,-3.5260128709624404e-18,-0.05916238027751907,2.362070487426824e-18,-0.05916238027751907,2.1054062695189703e-18,0.3537741823724655,2.6095811913649395e-18,-0.3537741823724654,0.4093427590494718,0.8153999087733158,0.409342759049472,100.0,135.00000000000023,[1.100675]
-1.0419590512191564e-17,0.18713541353985913,1.372956862257353e-18,0.18713541353985913,-8.176356100286558e-18,-0.09716387109856095,1.372956862257353e-18,-0.09716387109856095,2.6534630561721043e-19,0.21085654091725922,-6.087593231206152e-18,-0.21085654091725928,0.21334776253539162,0.9533968032473593,0.2133477625353918,100.0,135.00000000000023,[1.1331074]
-1.0054942828398587e-17,0.18036203054570327,1.8465376152786626e-18,0.18036203054570327,-8.14596879330381e-18,-0.09563808362856792,1.8465376152786626e-18,-0.09563808362856792,5.458862647257949e-19,0.20414971247276847,-5.988374311047301e-18,-0.20414971247276872,0.35272041805359816,0.8667044556111326,0.3527204180535983,100.0,147.8571428571427,[1.07663253]
-6.259785238446094e-18,0.3405383854814871,3.657397276376688e-18,0.3405383854814871,-3.441362515796214e-18,-0.05734388174584829,3.657397276376688e-18,-0.05734388174584829,2.3251716146620587e-18,0.3453327565696884,3.151629177455241e-18,-0.34533275656968876,0.5279420400173541,0.6652476266508803,0.5279420400173543,100.0,147.8571428571427,[0.78358632]
-4.371431161661037e-18,0.3845104778949045,4.566947707147134e-18,0.3845104778949045,-2.5107512394495555e-18,-0.04003602756571717,4.566947707147134e-18,-0.04003602756571717,2.644238337980913e-18,0.3865891761472515,3.54161221868612e-18,-0.3865891761472515,0.5565446061512308,0.6168599539019718,0.5565446061512308,100.0,147.8571428571427,[1.29876723]
-2.8867941633610623e-18,0.40332081892905775,5.247372416962841e-18,0.40332081892905775,-2.1205999230103443e-18,-0.032028099478716376,5.247372416962841e-18,-0.032028099478716376,2.6881914070095306e-18,0.40459051167547694,3.51113175279212e-18,-0.4045905116754769,0.5670645633813723,0.5973906275747778,0.5670645633813723,100.0,147.8571428571427,[1.29308247]
-1.5757989192482192e-18,0.41309573031307617,5.834769913548997e-18,0.41309573031307617,-1.8758735757028557e-18,-0.027603305193273822,5.834769913548997e-18,-0.027603305193273822,2.6333857283442172e-18,0.41401693789081473,3.3925272628365373e-18,-0.4140169378908148,0.5723100225955625,0.5873010097669962,0.5723100225955625,100.0,147.8571428571427,[1.29509345]
-3.2232250620986298e-19,0.41848530315054017,6.380079633387843e-18,0.41848530315054017,-1.7092860177795766e-18,-0.024942052411585862,6.380079633387843e-18,-0.024942052411585862,2.5362548720957905e-18,0.4192279271846067,3.2789664877911705e-18,-0.4192279271846068,0.5752815328131002,0.5814656619340646,0.5752815328131002,100.0,147.8571428571427,[1.26842497]
8.812319024996927e-19,0.4212599632375529,6.9002926934418296e-18,0.4212599632375529,-1.6137830529766542e-18,-0.02332232188940291,6.9002926934418296e-18,-0.02332232188940291,2.4163335356103027e-18,0.4219050690916351,3.1874024575052383e-18,-0.42190506909163517,0.5770129524791789,0.5780243120687238,0.5770129524791792,100.0,147.8571428571427,[1.26842497]
2.0598253090448482e-18,0.4221713325785303,7.404532068686804e-18,0.4221713325785303,-1.5128537833553838e-18,-0.022423990381246265,7.404532068686804e-18,-0.022423990381246265,2.2779627627424323e-18,0.42276644781220546,3.0585042259071743e-18,-0.4227664478122055,0.5779273766343347,0.5761943202367682,0.5779273766343348,100.0,147.8571428571427,[1.27929376]
3.19826405993423e-18,0.42149620524363035,7.893916934491552e-18,0.42149620524363035,-1.4721564972177748e-18,-0.022113751821175594,7.893916934491552e-18,-0.022113751821175594,2.1227704449376834e-18,0.4220759043754914,2.959141437881433e-18,-0.4220759043754913,0.5781917403668889,0.5756636368080027,0.5781917403668889,100.0,147.8571428571427,[1.26842497]
4.328020723114254e-18,0.41920031325540325,8.374823199017631e-18,0.41920031325540325,-1.4227771233708093e-18,-0.022375147544149692,8.374823199017631e-18,-0.022375147544149692,1.9578107784599084e-18,0.4197970341260773,2.866506644630642e-18,-0.41979703412607705,0.5778217505363362,0.5764061495284797,0.5778217505363362,100.0,147.8571428571427,[1.26842497]
5.4111111648564875e-18,0.41492740542779855,8.831005862215113e-18,0.41492740542779855,-1.438513407344018e-18,-0.02330330730590328,8.831005862215113e-18,-0.02330330730590328,1.7678901098177333e-18,0.41558127473027245,2.7592002086970747e-18,-0.4155812747302724,0.5766871620226507,0.5786742039494436,0.5766871620226507,100.0,147.8571428571427,[1.27806703]
6.452961689979278e-18,0.40780514220583736,9.27511499719177e-18,0.40780514220583736,-1.4824664763726358e-18,-0.025160309581181643,9.27511499719177e-18,-0.025160309581181643,1.5703726144298713e-18,0.40858056144136884,2.736262275960336e-18,-0.4085805614413689,0.5744216058939224,0.5831634739629146,0.5744216058939223,100.0,147.8571428571427,[1.27605605]
7.414502903790518e-18,0.3958321121333307,9.670285645587953e-18,0.3958321121333307,-1.5980467690034454e-18,-0.028557031099502254,9.670285645587953e-18,-0.028557031099502254,1.3343283548317392e-18,0.3968608887521567,2.7543499082449857e-18,-0.39686088875215664,0.5701017778353079,0.5915808700575461,0.5701017778353077,100.0,147.8571428571427,[1.29308247]
8.19589079763261e-18,0.37380098674255974,9.995287389801876e-18,0.37380098674255974,-1.8937803816034037e-18,-0.0350448219509808,9.995287389801876e-18,-0.0350448219509808,1.0282847630769198e-18,0.37544016465381963,2.9825451524918113e-18,-0.3754401646538197,0.560994309255639,0.6087452422529285,0.560994309255639,100.0,147.8571428571427,[1.30111457]
8.47697338722303e-18,0.3237566123565257,1.011924454049601e-17,0.3237566123565257,-2.6914471899005393e-18,-0.04945992463790872,1.011924454049601e-17,-0.04945992463790872,5.220105235250643e-19,0.3275127908796253,3.746579692131468e-18,-0.32751279087962537,0.535044735985066,0.6537998630998186,0.5350447359850661,100.0,147.8571428571427,[0.78358632]
6.541953089000183e-18,0.14655174159430723,9.506309496858504e-18,0.14655174159430723,-7.29349630634136e-18,-0.07958616086967871,9.506309496858504e-18,-0.07958616086967871,-1.1156482706523203e-18,0.16676741278289034,3.815124439718473e-18,-0.16676741278289062,0.3466115745694817,0.871619660602564,0.346611574569482,100.0,147.8571428571427,[0.5367836]
5.8604092038156905e-18,0.14111151375697717,9.905821189109365e-18,0.14111151375697717,-7.249543237312743e-18,-0.07526009020991217,9.905821189109365e-18,-0.07526009020991217,-1.6230077711678456e-18,0.1599266722382156,8.370086068405032e-18,-0.15992667223821574,0.47900141029248827,0.7356053954910979,0.4790014102924883,100.0,160.7142857142859,[0.55054985]
6.9152828605025155e-18,0.3171109655338689,1.0919726244417663e-17,0.3171109655338689,-2.542766437877808e-18,-0.044200109243671376,1.0919726244417663e-17,-0.044200109243671376,-1.4808385849271314e-18,0.3201765358657237,1.7248483831914382e-18,-0.3201765358657238,0.6287955865510193,0.4574190864709508,0.6287955865510195,100.0,160.7142857142859,[0.77887097]
5.70847266890195e-18,0.36813245071234624,1.1225600264146909e-17,0.36813245071234624,-1.6441703599594022e-18,-0.0305915657270831,1.1225600264146909e-17,-0.0305915657270831,-2.443465059702042e-18,0.36940133345876325,-5.277192591015313e-19,-0.36940133345876325,0.6457931427552965,0.4073112244223997,0.6457931427552964,100.0,160.7142857142859,[0.89764477]
4.0002719120860435e-18,0.3902260503156565,1.1347963437800654e-17,0.3902260503156565,-1.2632437617113822e-18,-0.02418114693814229,1.1347963437800654e-17,-0.02418114693814229,-3.585159593482432e-18,0.3909745493151712,-2.1544196355303067e-18,-0.3909745493151712,0.6517043211019838,0.3880244266976044,0.6517043211019838,100.0,160.7142857142859,[0.89552567]
2.0923831379549354e-18,0.40183740551901576,1.1402226485984132e-17,0.40183740551901576,-1.0418505251227894e-18,-0.020523969542208455,1.1402226485984132e-17,-0.020523969542208455,-4.783830327855475e-18,0.40236119817897875,-3.615206810083934e-18,-0.4023611981789787,0.6546447194493996,0.3779954795947089,0.6546447194493996,100.0,160.7142857142859,[0.89638969]
1.0418505251227895e-19,0.4083532938661094,1.1426237884805321e-17,0.4083532938661094,-8.953402950273972e-19,-0.01821194670401164,1.1426237884805321e-17,-0.01821194670401164,-6.0101752168020914e-18,0.408759204928832,-4.9780586506453936e-18,-0.4087592049288319,0.6563582213691418,0.37200506781799847,0.6563582213691417,100.0,160.7142857142859,[0.89638969]
-1.936105559186517e-18,0.41183705625332817,1.142796751946617e-17,0.41183705625332817,-7.976668082971357e-19,-0.016683729168798577,1.142796751946617e-17,-0.016683729168798577,-7.250085867794578e-18,0.4121748509096411,-6.31852400099925e-18,-0.4121748509096412,0.657426144782639,0.36821424240851,0.657426144782639,100.0,160.7142857142859,[0.89840067]
-4.040426567741818e-18,0.41317129914818707,1.1420506350340941e-17,0.41317129914818707,-7.317372047542091e-19,-0.01568555673766085,1.1420506350340941e-17,-0.01568555673766085,-8.500306497941925e-18,0.4134689336939007,-7.626471995164971e-18,-0.41346893369390075,0.6580860751291608,0.3658489243419924,0.6580860751291608,100.0,160.7142857142859,[0.89840067]
-6.14149179340611e-18,0.4126891420741336,1.139988639203122e-17,0.4126891420741336,-6.967375386758654e-19,-0.01510397554435361,1.139988639203122e-17,-0.01510397554435361,-9.766263412062481e-18,0.4129654441513587,-8.927193560023093e-18,-0.4129654441513589,0.6584380636759494,0.36458007708229645,0.6584380636759496,100.0,160.7142857142859,[0.89840067]
-8.288137979544524e-18,0.41036685626984787,1.1368651224920605e-17,0.41036685626984787,-6.782881022934827e-19,-0.01490930862104409,1.1368651224920605e-17,-0.01490930862104409,-1.1033305587146707e-17,0.4106376069094933,-1.0203431109255032e-17,-0.4106376069094933,0.6585068470217394,0.364331531508014,0.6585068470217394,100.0,160.7142857142859,[0.89723689]
-1.0467341994593025e-17,0.4058163071446437,1.132646170495795e-17,0.4058163071446437,-6.913112338575176e-19,-0.015146178683074593,1.132646170495795e-17,-0.015146178683074593,-1.2306588012772033e-17,0.4060988572665719,-1.1452894966634524e-17,-0.40609885726657186,0.6582515453762077,0.36525307119813377,0.6582515453762078,100.0,160.7142857142859,[0.89638969]
-1.271600271131638e-17,0.39807132030965264,1.1277760619213278e-17,0.39807132030965264,-7.575121526413615e-19,-0.015963709810223943,1.1277760619213278e-17,-0.015963709810223943,-1.3602118288152586e-17,0.3983912851506356,-1.2695896685383115e-17,-0.3983912851506356,0.6575321144945939,0.3678356111315721,0.6575321144945939,100.0,160.7142857142859,[0.89638969]
-1.5055825348987977e-17,0.38490867888915126,1.1198248296421925e-17,0.38490867888915126,-8.880147835226275e-19,-0.017722927652685946,1.1198248296421925e-17,-0.017722927652685946,-1.4915284054192767e-17,0.38531648452768563,-1.3888618539569266e-17,-0.3853164845276857,0.6559779529733274,0.3733441447590228,0.6559779529733275,100.0,160.7142857142859,[0.89853027]
-1.760727387457514e-17,0.3605559535961183,1.1084278938034062e-17,0.3605559535961183,-1.2005699410594644e-18,-0.021348486038947654,1.1084278938034062e-17,-0.021348486038947654,-1.6266705269202302e-17,0.3611874216106663,-1.4955922886467002e-17,-0.36118742161066647,0.6524555758084164,0.3854911713554744,0.6524555758084164,100.0,160.7142857142859,[0.90060615]
-2.0699724990551587e-17,0.3053018660670694,1.0837517726419693e-17,0.3053018660670694,-2.0199419686299915e-18,-0.02969839708221342,1.0837517726419693e-17,-0.02969839708221342,-1.7745644647443012e-17,0.3067429285465073,-1.5648038507149677e-17,-0.3067429285465072,0.6416795231224984,0.42011281724147276,0.6416795231224983,100.0,160.7142857142859,[0.77879518]
-2.6317035738505297e-17,0.11748756630478903,1.0178950850700393e-17,0.11748756630478903,-6.6377273690440224e-18,-0.045993129678884886,1.0178950850700393e-17,-0.045993129678884886,-2.0097405155714975e-17,0.12616931565908135,-1.4838044476096613e-17,-0.12616931565908146,0.53636605924381,0.6516309545920388,0.53636605924381,100.0,160.7142857142859,[0.49219868]
-2.7088656283674363e-17,0.11444646443394647,1.0077512865002403e-17,0.11444646443394647,-6.6363707928394354e-18,-0.039731272110332894,1.0077512865002403e-17,-0.039731272110332894,-2.0262907452674585e-17,0.12114688277019718,-1.4333452511629207e-17,-0.12114688277019721,0.6378329035482755,0.43166928811574234,0.6378329035482758,100.0,173.57142857142813,[0.48416601]
-2.274544190706873e-17,0.30154728663295277,9.967206262366925e-18,0.30154728663295277,-2.0332364154349437e-18,-0.022061968869391865,9.967206262366925e-18,-0.022061968869391865,-1.8516451246889325e-17,0.3023532644872388,-1.7090962755312123e-17,-0.3023532644872388,0.6950106717397128,0.1841747331634477,0.6950106717397126,100.0,173.57142857142813,[0.40238802]
-2.094390870737724e-17,0.35729937618519747,9.474819971709529e-18,0.35729937618519747,-1.253476413038356e-18,-0.01485244958272864,9.474819971709529e-18,-0.01485244958272864,-1.7630064354812202e-17,0.35760794102052423,-1.6843606222201233e-17,-0.35760794102052423,0.698766161309817,0.1531394907157716,0.6987661613098168,100.0,173.57142857142813,[0.32543829]
-1.9694773338193563e-17,0.3816427479649849,8.884353221460495e-18,0.3816427479649849,-9.520451803791323e-19,-0.011313265784058264,8.884353221460495e-18,-0.011313265784058264,-1.6858715124884054e-17,0.3818103941185543,-1.6335833141958937e-17,-0.3818103941185542,0.7000062379663009,0.141359589757939,0.7000062379663009,100.0,173.57142857142813,[0.3790236]
-1.8682224859089853e-17,0.3945608881399467,8.263227848987796e-18,0.3945608881399467,-8.318525286527273e-19,-0.009151774075191571,8.263227848987796e-18,-0.009151774075191571,-1.611286952760214e-17,0.3946670108059539,-1.573121493901368e-17,-0.394667010805954,0.7006358419075298,0.13497716128684137,0.7006358419075298,100.0,173.57142857142813,[0.378185]
-1.7734792037806316e-17,0.4019258298060295,7.6261627061112e-18,0.4019258298060295,-7.834227581489726e-19,-0.007650252182139936,7.6261627061112e-18,-0.007650252182139936,-1.539361282393013e-17,0.40199863062417956,-1.5104702800117447e-17,-0.40199863062417956,0.7010267282308529,0.13085508248398942,0.7010267282308529,100.0,173.57142857142813,[0.378185]
-1.6870924310725336e-17,0.40599517665375,6.984960005810613e-18,0.40599517665375,-7.858645953172291e-19,-0.006519175564823764,6.984960005810613e-18,-0.006519175564823764,-1.467652664218546e-17,0.40604751337270195,-1.4452523644216154e-17,-0.40604751337270206,0.7012989700883182,0.1279042966679703,0.7012989700883184,100.0,173.57142857142813,[0.378185]
-1.603364547725426e-17,0.4077408191502914,6.332497723011955e-18,0.4077408191502914,-8.112325703430054e-19,-0.0056213824914226425,6.332497723011955e-18,-0.0056213824914226425,-1.397002175483657e-17,0.407779567343026,-1.3796008706009766e-17,-0.407779567343026,0.7015024762243992,0.1256525037636432,0.7015024762243992,100.0,173.57142857142813,[0.378185]
-1.5251714952930334e-17,0.4075380725382839,5.672489485075281e-18,0.4075380725382839,-8.73092445272171e-19,-0.004885720018052031,5.672489485075281e-18,-0.004885720018052031,-1.3265958704655936e-17,0.4075673574126297,-1.3130090719922386e-17,-0.4075673574126297,0.7016610923208169,0.12386857166495485,0.7016610923208169,100.0,173.57142857142813,[0.378185]
-1.4482264929688608e-17,0.40537849687320293,5.01488916990175e-18,0.40537849687320293,-9.531304413428019e-19,-0.004275151482254028,5.01488916990175e-18,-0.004275151482254028,-1.2567864589775484e-17,0.4054010392776193,-1.2462355329897151e-17,-0.40540103927761933,0.7017866754950319,0.12243742971518692,0.7017866754950319,100.0,173.57142857142813,[0.378185]
-1.3761109019330178e-17,0.40086719966866435,4.353999157432095e-18,0.40086719966866435,-1.0716952016237027e-18,-0.0037749383694224165,4.353999157432095e-18,-0.0037749383694224165,-1.1876553355917965e-17,0.4008849734398754,-1.1794738379298531e-17,-0.4008849734398755,0.7018839755559328,0.12131681546923667,0.701883975555933,100.0,173.57142857142813,[0.378185]
-1.3114293484983113e-17,0.3930025224878367,3.689955105286775e-18,0.3930025224878367,-1.2241743670192776e-18,-0.00339170179516028,3.689955105286775e-18,-0.00339170179516028,-1.1196094731697143e-17,0.3930171577970482,-1.1132624962941318e-17,-0.3930171577970483,0.7019512391985911,0.12053595138017661,0.7019512391985913,100.0,173.57142857142813,[0.378185]
-1.2558097241102458e-17,0.37946985891831847,3.020603448741009e-18,0.37946985891831847,-1.4572341589673182e-18,-0.003165101700043771,3.020603448741009e-18,-0.003165101700043771,-1.052513214090843e-17,0.3794830585102056,-1.0474893853155964e-17,-0.3794830585102056,0.7019758722135073,0.12024869920365416,0.7019758722135074,100.0,173.57142857142813,[0.3790236]
-1.2227092647183236e-17,0.3542595929799835,2.3493186711037067e-18,0.3542595929799835,-1.864071362722949e-18,-0.003209951541555217,2.3493186711037067e-18,-0.003209951541555217,-9.88808395523439e-18,0.3542741353912852,-9.845678685724466e-18,-0.35427413539128527,0.7019144602817877,0.12096355192640833,0.7019144602817878,100.0,173.57142857142813,[0.31384809]
-1.2469105842081553e-17,0.2969365867912845,1.6583296240947787e-18,0.2969365867912845,-2.7710782131097942e-18,-0.003839968548249369,1.6583296240947787e-18,-0.003839968548249369,-9.346810049604192e-18,0.296961414890402,-9.304424376223078e-18,-0.29696141489040195,0.7015781471028804,0.12480467545479929,0.7015781471028804,100.0,173.57142857142813,[0.34011108]
-1.533636530809656e-17,0.10555910487120664,9.53690029027194e-19,0.10555910487120664,-7.482603029260784e-18,-0.0030744239934327815,9.53690029027194e-19,-0.0030744239934327815,-9.571459069083793e-18,0.10560386689937919,-9.521317459547433e-18,-0.1056038668993792,0.7000579226366895,0.14084676037170812,0.7000579226366895,100.0,173.57142857142813,[0.20965816]
-1.4469241798124573e-17,0.10551470519658142,8.319034002603993e-19,0.10551470519658142,-7.55056749711059e-18,0.003887045198294235,8.319034002603993e-19,0.003887045198294235,-8.62877426451631e-18,0.10558627814775494,-8.697951083794334e-18,-0.10558627814775497,0.6992697457631575,0.14847102518895183,0.6992697457631575,100.0,173.57142857142813,[0.20965816]
-9.897308673425582e-18,0.29680366161976207,6.678594227207204e-19,0.29680366161976207,-2.9419389860775225e-18,0.004672589311420962,6.678594227207204e-19,0.004672589311420962,-6.5121084124992694e-18,0.2968404397008122,-6.53410634634599e-18,-0.2968404397008122,0.7013273489886683,0.1275927079462371,0.7013273489886682,100.0,173.57142857142813,[0.34011108]
-7.917792675692282e-18,0.3540385687154447,5.233501425270939e-19,0.3540385687154447,-2.1398633051154792e-18,0.004061932282953708,5.233501425270939e-19,0.004061932282953708,-5.165163898964871e-18,0.3540618694973409,-5.177657941954405e-18,-0.3540618694973409,0.7017061221667721,0.12335735173609652,0.7017061221667719,100.0,173.57142857142813,[0.31384809]
-6.535170207977248e-18,0.37916123379901573,3.9406843022995616e-19,0.37916123379901573,-1.846503700873548e-18,0.004035913456219779,3.9406843022995616e-19,0.004035913456219779,-3.91738510598578e-18,0.3791827129675322,-3.926022871826449e-18,-0.3791827129675322,0.7017781672650663,0.12253492522611469,0.7017781672650664,100.0,173.57142857142813,[0.3790236]
-5.3780107054645656e-18,0.3926068645801223,2.7444384478922177e-19,0.3926068645801223,-1.7257005898550789e-18,0.004280832263863554,2.7444384478922177e-19,0.004280832263863554,-2.6941603423097133e-18,0.39263020214994393,-2.700527364084438e-18,-0.39263020214994393,0.7017556799944366,0.12279222773079812,0.7017556799944367,100.0,173.57142857142813,[0.378185]
-4.312013123900128e-18,0.4003851447862112,1.5509905319068349e-19,0.4003851447862112,-1.668860046882885e-18,0.004681872020667512,1.5509905319068349e-19,0.004681872020667512,-1.4884354116728184e-18,0.4004125174006092,-1.4924766704675908e-18,-0.40041251740060935,0.7016868928824723,0.12357592287288012,0.7016868928824724,100.0,173.57142857142813,[0.378185]
-3.311402515396783e-18,0.40481074643670095,3.942549594580868e-20,0.40481074643670095,-1.6571256627132078e-18,0.005199366058886778,3.942549594580868e-20,0.005199366058886778,-2.9600492784087585e-19,0.4048441352397898,-2.975024159255078e-19,-0.40484413523978985,0.7015859095937826,0.12471737216173824,0.7015859095937825,100.0,173.57142857142813,[0.378185]
-2.3493186711037067e-18,0.4068853913929845,-7.340772987071216e-20,0.4068853913929845,-1.6889373747107721e-18,0.0058266868623043505,-7.340772987071216e-20,0.0058266868623043505,8.986639067286352e-19,0.406927108962789,9.002363892548321e-19,-0.40692710896278905,0.7014549790884398,0.1261817127165152,0.7014549790884399,100.0,173.57142857142813,[0.378185]
-1.4203352862025528e-18,0.40700403335722296,-1.8084856527399982e-19,0.40700403335722296,-1.7385202349884255e-18,0.006578568093950356,-1.8084856527399982e-19,0.006578568093950356,2.0846506535887897e-18,0.40705719589170036,2.089868919805467e-18,-0.4070571958917005,0.7012893705331337,0.12800952134307467,0.7012893705331337,100.0,173.57142857142813,[0.378185]
-5.320491874390078e-19,0.40517517127959995,-2.9142648315039484e-19,0.40517517127959995,-1.821610527519377e-18,0.00749204363210165,-2.9142648315039484e-19,0.00749204363210165,3.266228527784037e-18,0.4052444325826555,3.27543788885255e-18,-0.4052444325826555,0.7010768607958139,0.13031680825347997,0.7010768607958138,100.0,173.57142857142813,[0.378185]
3.3154722440105434e-19,0.40102354674329466,-3.941956092491362e-19,0.40102354674329466,-1.9309505696090865e-18,0.008638266051657831,-3.941956092491362e-19,0.008638266051657831,4.440480890474514e-18,0.4011165724361817,4.456205612457102e-18,-0.4011165724361818,0.7007926957191941,0.13333864876040466,0.7007926957191941,100.0,173.57142857142813,[0.378185]
1.1056096067383768e-18,0.3935773240258676,-4.804399414557525e-19,0.3935773240258676,-2.091263962586151e-18,0.010154399606730558,-4.804399414557525e-19,0.010154399606730558,5.602863211374855e-18,0.3937082953389932,5.6248622728134456e-18,-0.3937082953389932,0.7003849452902213,0.13755674037148224,0.7003849452902213,100.0,173.57142857142813,[0.378185]
1.7909519052957117e-18,0.3805789523717843,-5.602490152918594e-19,0.3805789523717843,-2.319609652223252e-18,0.012329975378722007,-5.602490152918594e-19,0.012329975378722007,6.753918120966896e-18,0.38077863291057285,6.785752024996132e-18,-0.3807786329105729,0.6997285391754913,0.14408311117777417,0.6997285391754912,100.0,173.57142857142813,[0.3790236]
2.2641256854556452e-18,0.3561564506704887,-6.030405159452995e-19,0.3561564506704887,-2.7189178580434254e-18,0.015882729835630677,-6.030405159452995e-19,0.015882729835630677,7.86278351059628e-18,0.3565104184469675,7.89691652669182e-18,-0.3565104184469675,0.6984358896327101,0.1561237206382495,0.6984358896327101,100.0,173.57142857142813,[0.32543829]
2.199823973358223e-18,0.30032638745320767,-5.486078957362475e-19,0.30032638745320767,-3.636302516395361e-18,0.023105344074392367,-5.486078957362475e-19,0.023105344074392367,8.867328190092929e-18,0.301213870738866,8.893316746719315e-18,-0.30121387073886613,0.6945173615259693,0.18785970583925973,0.6945173615259692,100.0,173.57142857142813,[0.39994947]
-4.221665148674637e-19,0.11314882176178999,-1.160805301062509e-19,0.11314882176178999,-8.34209579808197e-18,0.040787399820479416,-1.160805301062509e-19,0.040787399820479416,9.015330654013367e-18,0.12027579910437905,7.503062377519398e-18,-0.12027579910437904,0.6341762150783575,0.4423133012444664,0.6341762150783575,100.0,173.57142857142813,[0.48416601]
-5.2906471978891656e-20,0.1161153750978799,6.782584271890074e-19,0.1161153750978799,-8.292275536968514e-18,0.047078321035615205,6.782584271890074e-19,0.047078321035615205,8.362071382694513e-18,0.1252962435416713,6.287238099250695e-18,-0.1252962435416713,0.5307714092656605,0.6607294621948453,0.5307714092656604,100.0,160.7142857142859,[0.49219868]
3.0615211785118635e-18,0.3038587751428929,1.2692126970115648e-18,0.3038587751428929,-3.480397996083204e-18,0.03083387356692658,1.2692126970115648e-18,0.03083387356692658,7.200435178706695e-18,0.30541919224318625,6.879913772609417e-18,-0.3054191922431862,0.6404388530501258,0.4238822371929243,0.6404388530501258,100.0,160.7142857142859,[0.78241359]
3.652852746091322e-18,0.3590435001514133,2.2752877640390124e-18,0.3590435001514133,-2.462117982515113e-18,0.022533106368407472,2.2752877640390124e-18,0.022533106368407472,5.1668596192206044e-18,0.3597498796158074,4.8894599938666014e-18,-0.3597498796158074,0.6514877417350011,0.38875113470967126,0.6514877417350011,100.0,160.7142857142859,[0.94436799]
3.6841896564172806e-18,0.38332849086292614,3.403806551432352e-18,0.38332849086292614,-1.9646954026981873e-18,0.018955909455737753,3.403806551432352e-18,0.018955909455737753,3.0035275457657707e-18,0.38379689734355943,2.6741569677254453e-18,-0.38379689734355943,0.6550769631599289,0.37649481360880643,0.6550769631599289,100.0,160.7142857142859,[0.89853027]
3.5304895724375774e-18,0.3964250494077088,4.5765073300888324e-18,0.3964250494077088,-1.6360478599344378e-18,0.01724435562084053,4.5765073300888324e-18,0.01724435562084053,8.048566621814467e-19,0.3967999339701082,4.1942990276851175e-19,-0.39679993397010827,0.6566463146931723,0.37098683911932767,0.6566463146931724,100.0,160.7142857142859,[0.89638969]
3.2762671916979805e-18,0.404105610773707,5.775860591864808e-18,0.404105610773707,-1.3762974311611484e-18,0.016473814658412026,5.775860591864808e-18,0.016473814658412026,-1.4171134177166587e-18,0.4044412580686973,-1.8850497618820795e-18,-0.4044412580686972,0.6573596827763105,0.3684514824511593,0.6573596827763104,100.0,160.7142857142859,[0.89638969]
2.941464184405917e-18,0.4085933905438175,6.981746615925997e-18,0.4085933905438175,-1.1579056194252043e-18,0.016283270142613653,6.981746615925997e-18,0.016283270142613653,-3.651563998696964e-18,0.40891772238756025,-4.195687555803818e-18,-0.40891772238756013,0.6575971764036538,0.3676029205159876,0.6575971764036537,100.0,160.7142857142859,[0.89638969]
2.573560717721932e-18,0.4108545576799344,8.206874825589125e-18,0.4108545576799344,-9.934885834292641e-19,0.01652360360415498,8.206874825589125e-18,0.01652360360415498,-5.891712199736535e-18,0.4111866936592695,-6.534056748883599e-18,-0.4111866936592694,0.6575022444132476,0.36794238296652426,0.6575022444132477,100.0,160.7142857142859,[0.89840067]
2.1996883157377644e-18,0.4112772383848868,9.433792020122052e-18,0.4112772383848868,-8.30835096499287e-19,0.017150197657512842,9.433792020122052e-18,0.017150197657512842,-8.143119983274177e-18,0.4116346633766292,-8.91138332301398e-18,-0.41163466337662924,0.6571165401217922,0.3693178920614733,0.6571165401217921,100.0,160.7142857142859,[0.89840067]
1.7539173749104875e-18,0.40988515083195926,1.0673422877272342e-17,0.40988515083195926,-7.0502961072640325e-19,0.018192735661129465,1.0673422877272342e-17,0.018192735661129465,-1.0403209854521176e-17,0.41028869409645397,-1.1315841536067699e-17,-0.4102886940964541,0.6564142683407244,0.37180723048028913,0.6564142683407245,100.0,160.7142857142859,[0.89723689]
1.3027879580750922e-18,0.4063451634243394,1.1927556381909795e-17,0.4063451634243394,-6.106797356973798e-19,0.019764679810981223,1.1927556381909795e-17,0.019764679810981223,-1.2677442032700996e-17,0.4068255577104069,-1.379498675214507e-17,-0.40682555771040696,0.6552920565422921,0.3757454474310325,0.6552920565422921,100.0,160.7142857142859,[0.89638969]
7.887134053468618e-19,0.39977465710977533,1.3194717257411924e-17,0.39977465710977533,-5.516517135952895e-19,0.022119801826830703,1.3194717257411924e-17,0.022119801826830703,-1.4958355348688403e-17,0.4003861412437956,-1.6352453067862166e-17,-0.4003861412437956,0.6535046532240956,0.38192058916600585,0.6535046532240956,100.0,160.7142857142859,[0.89638969]
2.0056979184818286e-19,0.38811027976123263,1.4503783619733868e-17,0.38811027976123263,-5.79902413055813e-19,0.025819468737361684,1.4503783619733868e-17,0.025819468737361684,-1.7277117140783788e-17,0.38896816607817886,-1.9100869119085984e-17,-0.3889681660781789,0.6504518531324797,0.3922050146454602,0.6504518531324797,100.0,160.7142857142859,[0.89552567]
-6.054399601071627e-19,0.3659652491418726,1.5869919447262533e-17,0.3659652491418726,-7.816846448868456e-19,0.032271801333100085,1.5869919447262533e-17,0.032271801333100085,-1.9650243724277996e-17,0.36738540082691895,-2.2347445010843713e-17,-0.3673854008269189,0.6443315212694001,0.41191477443437324,0.6443315212694002,100.0,160.7142857142859,[0.89998057]
-1.8970361644944124e-18,0.31489394715790897,1.742433957338659e-17,0.31489394715790897,-1.4746492059937034e-18,0.04592177635722138,1.742433957338659e-17,0.04592177635722138,-2.219979304317874e-17,0.3182247751204964,-2.6717558180981094e-17,-0.3182247751204966,0.6267388001510319,0.4630301855932174,0.626738800151032,100.0,160.7142857142859,[0.77887097]
-5.468290851879828e-18,0.13884643866740667,1.9685264586859537e-17,0.13884643866740667,-5.9774308586638736e-18,0.07702305591513056,1.9685264586859537e-17,0.07702305591513056,-2.5851424870685936e-17,0.15877935846049773,-4.197210912769681e-17,-0.15877935846049787,0.470348312549282,0.7466893127426465,0.4703483125492819,100.0,160.7142857142859,[0.55054985]
-5.937055759374854e-18,0.14424219820611742,2.0053261318157587e-17,0.14424219820611742,-5.9222860359474134e-18,0.0814022950144398,2.0053261318157587e-17,0.0814022950144398,-2.6662369168585466e-17,0.1656265237724646,-3.560846504331869e-17,-0.16562652377246442,0.3365252027720241,0.8794893835621304,0.33652520277202386,100.0,147.85714285714295,[0.54078539]
-3.798142057602586e-18,0.32141031808649473,1.8122713482109237e-17,0.32141031808649473,-1.2800059564393099e-18,0.051350201418199196,1.8122713482109237e-17,0.051350201418199196,-2.412784393115052e-17,0.32548646017638183,-2.9159808285388573e-17,-0.325486460176382,0.5318749118805142,0.6589523171096606,0.5318749118805143,100.0,147.85714285714295,[0.78358632]
-3.899817444136379e-18,0.3714187926859862,1.692566851953138e-17,0.3714187926859862,-4.603117420201934e-19,0.0370080201523305,1.692566851953138e-17,0.0370080201523305,-2.2733554908076038e-17,0.37325797126908233,-2.5852863293269513e-17,-0.37325797126908206,0.558474224549622,0.6133621124811974,0.558474224549622,100.0,147.85714285714295,[1.30246753]
-4.506613980448128e-18,0.39341510355121667,1.5927739268682413e-17,0.39341510355121667,-1.356406632561392e-19,0.030592475877174057,1.5927739268682413e-17,0.030592475877174057,-2.153212014968615e-17,0.3946027664405181,-2.3933798699396768e-17,-0.39460276644051817,0.5677563711873802,0.5960750002745253,0.5677563711873804,100.0,147.85714285714295,[1.29308247]
-5.25992074685527e-18,0.40535444214631683,1.501039276403623e-17,0.40535444214631683,1.6465443683174292e-20,0.02726745961776251,1.501039276403623e-17,0.02726745961776251,-2.0403804848723498e-17,0.40627052332375535,-2.235815472213926e-17,-0.40627052332375535,0.5721249210095073,0.5876615943889221,0.5721249210095073,100.0,147.85714285714295,[1.29308247]
-6.132267075214918e-18,0.4124441312825895,1.4133561255600168e-17,0.4124441312825895,9.604135598411782e-20,0.025481658654776206,1.4133561255600168e-17,0.025481658654776206,-1.9311625346410532e-17,0.4132305365740152,-2.1016249869697722e-17,-0.4132305365740152,0.5743866066238107,0.5832324170194655,0.5743866066238107,100.0,147.85714285714295,[1.27806703]
-7.036899917243736e-18,0.41668556734510304,1.327248934729083e-17,0.41668556734510304,1.2881538922681103e-19,0.024624207317242585,1.327248934729083e-17,0.024624207317242585,-1.823597911659097e-17,0.417412522116566,-1.9761540579885038e-17,-0.41741252211656615,0.5754885166895874,0.5810558788247796,0.5754885166895873,100.0,147.85714285714295,[1.27806703]
-7.964187581889156e-18,0.4189510735303653,1.2428463666852255e-17,0.4189510735303653,1.2136693800350073e-19,0.02443302802400414,1.2428463666852255e-17,0.02443302802400414,-1.7181682004791095e-17,0.41966293006491207,-1.860368802071241e-17,-0.41966293006491195,0.575806038822725,0.5804264047323874,0.575806038822725,100.0,147.85714285714295,[1.26842497]
-8.913790925100032e-18,0.4195968861600726,1.1597586177346573e-17,0.4195968861600726,8.693533821082781e-20,0.024812986834296377,1.1597586177346573e-17,0.024812986834296377,-1.6131700501042063e-17,0.4203299075617483,-1.7492893048375877e-17,-0.4203299075617483,0.5754721874742211,0.5810882229810461,0.575472187474221,100.0,147.85714285714295,[1.26842497]
-9.903481095156453e-18,0.41865726120036595,1.0783379737605075e-17,0.41865726120036595,4.055738921651093e-20,0.025780535299449923,1.0783379737605075e-17,0.025780535299449923,-1.510305115811016e-17,0.41945028114916977,-1.6426207386603724e-17,-0.4194502811491697,0.5744699924502488,0.5830681397130374,0.5744699924502487,100.0,147.85714285714295,[1.26842497]
-1.09154191149681e-17,0.41585539653589215,9.987163829951751e-18,0.41585539653589215,-4.275334694768608e-20,0.02746897090982585,9.987163829951751e-18,0.02746897090982585,-1.40904433287975e-17,0.4167616287410214,-1.5386004660043367e-17,-0.41676162874102146,0.5726267564349021,0.5866832157388572,0.5726267564349021,100.0,147.85714285714295,[1.29509345]
-1.1998645214330791e-17,0.4104396676738751,9.21239560405798e-18,0.4104396676738751,-1.641202849511868e-19,0.0301984088707306,9.21239560405798e-18,0.0301984088707306,-1.3101015995380718e-17,0.4115491036298887,-1.4477234447572703e-17,-0.4115491036298886,0.5695055690381473,0.5927282797952806,0.5695055690381472,100.0,147.85714285714295,[1.29509345]
-1.3127214873331804e-17,0.4006396555351402,8.478291809721862e-18,0.4006396555351402,-3.797014403632523e-19,0.03469086545977285,8.478291809721862e-18,0.03469086545977285,-1.216319790794719e-17,0.4021387692497003,-1.3693592822723371e-17,-0.40213876924970055,0.5640389321719914,0.6030921703923532,0.5640389321719916,100.0,147.85714285714295,[1.29308247]
-1.4412808228013755e-17,0.3818052962285414,7.835865011361668e-18,0.3818052962285414,-7.484993994821368e-19,0.04276594923645806,7.835865011361668e-18,0.04276594923645806,-1.1308902521709828e-17,0.3841929341389031,-1.3225230659001873e-17,-0.38419293413890304,0.5531269253232627,0.6229776953991751,0.5531269253232628,100.0,147.85714285714295,[1.32236073]
-1.6105374444071797e-17,0.3378103641427559,7.427572667661586e-18,0.3378103641427559,-1.637141599499386e-18,0.060140548767359615,7.427572667661586e-18,0.060140548767359615,-1.073412118382633e-17,0.34312203037447264,-1.3420993531567431e-17,-0.3431220303744725,0.5235170440634332,0.6722051838167946,0.5235170440634335,100.0,147.85714285714295,[0.77716699]
-1.9714765880008664e-17,0.1776127324153886,7.917017943500444e-18,0.1776127324153886,-6.307784719934956e-18,0.09850153696275898,7.917017943500444e-18,0.09850153696275898,-1.1625383271638688e-17,0.20309809329505352,-1.6934380855870832e-17,-0.20309809329505343,0.3411379089419213,0.8759279959936584,0.34113790894192153,100.0,147.85714285714295,[1.09352852]
-1.9108461102571077e-17,0.1843672399509951,7.711146906202774e-18,0.1843672399509951,-6.328887958517562e-18,0.10010301517987283,7.711146906202774e-18,0.10010301517987283,-1.1321976524881534e-17,0.2097901161047625,-1.3080094198967632e-17,-0.20979011610476223,0.20082982538853608,0.9588194629171961,0.20082982538853605,100.0,134.9999999999996,[1.13622873]
-1.4879826543645375e-17,0.3460164270836015,6.677573615578285e-18,0.3460164270836015,-1.7103564411910085e-18,0.06219756587481339,6.677573615578285e-18,0.06219756587481339,-9.22646478305477e-18,0.35156209268414185,-1.1899379756883744e-17,-0.35156209268414174,0.4036539591653018,0.8210523506454103,0.40365395916530183,100.0,134.9999999999996,[1.100675]
-1.25617769540574e-17,0.3887402097866021,6.5459396213388966e-18,0.3887402097866021,-8.705785399930457e-19,0.04465640078199112,6.5459396213388966e-18,0.04465640078199112,-8.62712093726697e-18,0.3912967477960084,-1.0179230721783434e-17,-0.39129674779600865,0.4396711842644627,0.783184843734204,0.4396711842644627,100.0,134.9999999999996,[1.37392668]
-1.060371181755913e-17,0.40744344923686526,6.653210354804031e-18,0.40744344923686526,-5.332595077715378e-19,0.03667465529491746,6.653210354804031e-18,0.03667465529491746,-8.33776747212921e-18,0.4090906924717733,-9.582956489787194e-18,-0.40909069247177343,0.4531620992178001,0.7676511080334825,0.4531620992178,100.0,134.9999999999996,[1.37563791]
-8.793818717006872e-18,0.41764084417529523,6.8634038890160825e-18,0.41764084417529523,-3.850503779449323e-19,0.032395887928619076,6.8634038890160825e-18,0.032395887928619076,-8.152743195725466e-18,0.41889541448688206,-9.212648740337268e-18,-0.41889541448688206,0.45983429625097605,0.7596741669839371,0.4598342962509761,100.0,134.9999999999996,[1.3682272]
-7.034356336860136e-18,0.4237586705325368,7.110355869159221e-18,0.4237586705325368,-2.9706899230134875e-19,0.0299493578079871,7.110355869159221e-18,0.0299493578079871,-8.017378087010883e-18,0.4248156951957094,-9.001731542403859e-18,-0.4248156951957095,0.4635060770802282,0.7551981415624611,0.4635060770802281,100.0,134.9999999999996,[1.39071316]
-5.326426895285146e-18,0.42749007558569296,7.380345798714242e-18,0.42749007558569296,-2.691849923461276e-19,0.028595337407963245,7.380345798714242e-18,0.028595337407963245,-7.912819976042343e-18,0.42844539680773414,-8.901128395725209e-18,-0.42844539680773414,0.46551409018490575,0.75272389604598,0.46551409018490575,100.0,134.9999999999996,[1.40032977]
-3.6320632157560265e-18,0.42957382749355894,7.673653471523341e-18,0.42957382749355894,-2.6205766814624687e-19,0.02801069596797493,7.673653471523341e-18,0.02801069596797493,-7.833087209617744e-18,0.43048608845824077,-8.80137257154258e-18,-0.4304860884582406,0.4664066299607431,0.7516180619552228,0.46640662996074317,100.0,134.9999999999996,[1.39778032]
-1.966441994561593e-18,0.4303155201728135,7.982286216143634e-18,0.4303155201728135,-2.817863134965487e-19,0.02806862405730733,7.982286216143634e-18,0.02806862405730733,-7.773584385844048e-18,0.4312299787330066,-8.806562840671919e-18,-0.4312299787330068,0.4663948657945129,0.7516326618242692,0.46639486579451295,100.0,134.9999999999996,[1.39778032]
-3.100794059634656e-19,0.42975316989754847,8.304179493163765e-18,0.42975316989754847,-3.241793198898914e-19,0.028769082001714217,8.304179493163765e-18,0.028769082001714217,-7.734565862759616e-18,0.4307150416646862,-8.817622942060288e-18,-0.43071504166468627,0.46548651556961274,0.7527580007185052,0.46548651556961274,100.0,134.9999999999996,[1.40032977]
1.2915453327795777e-18,0.4276693383615008,8.639903488519723e-18,0.4276693383615008,-4.006181497177276e-19,0.030238800802820955,8.639903488519723e-18,0.030238800802820955,-7.72186915734481e-18,0.4287370383446669,-8.905221518378221e-18,-0.42873703834466703,0.4634898574346837,0.7552180507047968,0.4634898574346837,100.0,134.9999999999996,[1.40032977]
2.8963580256034004e-18,0.4234592142296669,9.01168220590064e-18,0.4234592142296669,-5.234593045185568e-19,0.032800836223597855,9.01168220590064e-18,0.032800836223597855,-7.74459604807228e-18,0.42472767860474336,-9.056852543488362e-18,-0.42472767860474353,0.45989277092724756,0.7596033691985025,0.4598927709272476,100.0,134.9999999999996,[1.39071316]
4.4344780407692165e-18,0.41568601005355804,9.417088115777915e-18,0.41568601005355804,-7.366526738455172e-19,0.037194849776389545,9.417088115777915e-18,0.037194849776389545,-7.83935713526332e-18,0.41734675727042014,-9.444650120509988e-18,-0.41734675727042003,0.4534492645307912,0.7673118850851778,0.45344926453079104,100.0,134.9999999999996,[1.37680168]
5.859697001308282e-18,0.40054196417946786,9.922611999116608e-18,0.40054196417946786,-1.088358302699186e-18,0.04529154233744016,9.922611999116608e-18,0.04529154233744016,-8.062185375118327e-18,0.40309451605802127,-9.988415898120028e-18,-0.4030945160580212,0.44065400010414674,0.7820793466039295,0.44065400010414674,100.0,134.9999999999996,[1.3747907]
7.003307698977651e-18,0.3645424164230144,1.0669448532922966e-17,0.3645424164230144,-1.9730674915482926e-18,0.06294741411427827,1.0669448532922966e-17,0.06294741411427827,-8.663235539413459e-18,0.36993722483038227,-1.2238176110400399e-17,-0.3699372248303824,0.4076299735002546,0.8171141960634165,0.40762997350025454,100.0,134.9999999999996,[1.37781845]
6.624839895100446e-18,0.2217789682669867,1.2317707698349006e-17,0.2217789682669867,-6.651313797680509e-18,0.10096781574101125,1.2317707698349006e-17,0.10096781574101125,-1.1155764145064836e-17,0.24368096064543066,-1.6759917421719964e-17,-0.24368096064543057,0.24788796015491774,0.9365378360859041,0.24788796015491768,100.0,134.9999999999996,[1.09028481]
7.72517581184349e-18,0.2285556115397588,1.2305178180353164e-17,0.2285556115397588,-6.726143283003138e-18,0.0994734141700105,1.2305178180353164e-17,0.0994734141700105,-1.099736691597675e-17,0.2492641725016886,-1.9993636198175636e-17,-0.24926417250168872,0.10601706511884972,0.9886964973171349,0.10601706511884965,100.0,122.14285714285755,[1.11580048]
9.690091658174923e-18,0.37281741994094536,1.0765087950215217e-17,0.37281741994094536,-2.1995855126972605e-18,0.06122287421641524,1.0765087950215217e-17,0.06122287421641524,-7.581255794438731e-18,0.3778108904448655,-1.0870881324186086e-17,-0.3778108904448656,0.27421015846832875,0.9217470249398954,0.2742101584683287,100.0,122.14285714285755,[1.37239134]
1.0185013050614641e-17,0.40759222351607916,1.012210871799046e-17,0.40759222351607916,-1.461539698679142e-18,0.04395732637856889,1.012210871799046e-17,0.04395732637856889,-6.076552066562468e-18,0.4099556893288998,-7.93945838444053e-18,-0.40995568932889986,0.3098366361355796,0.8988896026856562,0.30983663613557966,100.0,122.14285714285755,[1.37335066]
1.0395596070572932e-17,0.4226513950435047,9.717717325747435e-18,0.4226513950435047,-1.2402158806385184e-18,0.03599035687810844,9.717717325747435e-18,0.03599035687810844,-4.979372309145407e-18,0.42418098439278773,-6.534726032940181e-18,-0.4241809843927877,0.3240471140699801,0.888812092472776,0.3240471140699802,100.0,122.14285714285755,[1.38204559]
1.0530770410758744e-17,0.4308681177504808,9.400281938305854e-18,0.4308681177504808,-1.183583328353942e-18,0.03160513166712044,9.400281938305854e-18,0.03160513166712044,-4.041863690658552e-18,0.4320257159493379,-5.348148674785429e-18,-0.43202571594933803,0.33139537702553884,0.8833765947613749,0.33139537702553895,100.0,122.14285714285755,[1.40025207]
1.0601905875486773e-17,0.4358263712680466,9.122585225144813e-18,0.4358263712680466,-1.2025160450092088e-18,0.02898200419744994,9.122585225144813e-18,0.02898200419744994,-3.1713762956292524e-18,0.4367889449837006,-4.332844762123103e-18,-0.4367889449837006,0.3356476153061957,0.8801598472314719,0.3356476153061957,100.0,122.14285714285755,[1.40221646]
1.067031970920435e-17,0.4388856654177079,8.873647662564726e-18,0.4388856654177079,-1.2610644962264744e-18,0.027398896752787404,8.873647662564726e-18,0.027398896752787404,-2.344298279321575e-18,0.4397400673720946,-3.387656540293896e-18,-0.43974006737209453,0.33816779737481734,0.8782283766978431,0.33816779737481734,100.0,122.14285714285755,[1.40221646]
1.0685017364520922e-17,0.4406379450199911,8.631340631140848e-18,0.4406379450199911,-1.363163017955331e-18,0.026535625403541385,8.631340631140848e-18,0.026535625403541385,-1.5503239018812997e-18,0.4414362219018708,-2.545932592923321e-18,-0.4414362219018709,0.33953263892966723,0.8771745403298666,0.33953263892966723,100.0,122.14285714285755,[1.40221646]
1.0705120128152645e-17,0.4413294279562539,8.416835463222303e-18,0.4413294279562539,-1.4845299559588317e-18,0.026258821905223148,8.416835463222303e-18,0.026258821905223148,-7.861984402425767e-19,0.44210992943841954,-1.7266654029865202e-18,-0.4421099294384196,0.3399785045328606,0.8768290785045848,0.33997850453286055,100.0,122.14285714285755,[1.40221646]
1.0726846543929233e-17,0.4409943569086909,8.208960693981823e-18,0.4409943569086909,-1.6419868551738551e-18,0.02655196426864534,8.208960693981823e-18,0.02655196426864534,-4.757873090040831e-20,0.4417929714604267,-1.0021095444190117e-18,-0.4417929714604265,0.33953982057278687,0.8771689805794545,0.3395398205727868,100.0,122.14285714285755,[1.40221646]
1.0725786718769399e-17,0.43946592225905823,8.01899405542334e-18,0.43946592225905823,-1.815593370174422e-18,0.02751011797731466,8.01899405542334e-18,0.02751011797731466,6.614654975314445e-19,0.44032613301748325,-2.986932120176191e-19,-0.44032613301748325,0.33806222847912126,0.8783096602858589,0.3380622284791213,100.0,122.14285714285755,[1.40221646]
1.0692169064699478e-17,0.43627285453392795,7.856406277653272e-18,0.43627285453392795,-2.046995860528773e-18,0.029395296328430784,7.856406277653272e-18,0.029395296328430784,1.3251990209049328e-18,0.437262034767962,3.184015587192675e-19,-0.43726203476796194,0.33510269951384974,0.8805750175635584,0.3351026995138498,100.0,122.14285714285755,[1.40221646]
1.0621618623459678e-17,0.43028660498012955,7.724495404090877e-18,0.43028660498012955,-2.348540494480099e-18,0.03281830964608994,7.724495404090877e-18,0.03281830964608994,1.9007529713299487e-18,0.43153632972596023,7.783260914148575e-19,-0.43153632972596034,0.3295810544928378,0.88473309932362,0.32958105449283776,100.0,122.14285714285755,[1.40736184]
1.0496813612637677e-17,0.4184804582710294,7.665952119521266e-18,0.4184804582710294,-2.8187139096125436e-18,0.03933043877256377,7.665952119521266e-18,0.03933043877256377,2.309173553874371e-18,0.42032460952075273,9.974677820155068e-19,-0.42032460952075285,0.3185293252673579,0.8927923262939952,0.31852932526735805,100.0,122.14285714285755,[1.36281596]
1.0172312105899196e-17,0.3898102868878824,7.821334675942205e-18,0.3898102868878824,-3.797340167391027e-18,0.05376784624262288,7.821334675942205e-18,0.05376784624262288,2.2262411752922346e-18,0.3935010051488858,3.470051434583381e-19,-0.39350100514888575,0.2908655017404094,0.9114793029984826,0.2908655017404094,100.0,122.14285714285755,[1.37279712]
8.710440152032446e-18,0.2626105319358212,8.695154161274022e-18,0.2626105319358212,-8.577914314921058e-18,0.08391422638468711,8.695154161274022e-18,0.08391422638468711,-1.0562535490449277e-19,0.27569165542931373,-3.9205404347146714e-18,-0.2756916554293138,0.17611523837000412,0.9684868845925345,0.17611523837000417,100.0,122.14285714285755,[1.11552581]
7.993574413921022e-18,0.268067319201174,8.57391546211486e-18,0.268067319201174,-8.578516825524423e-18,0.07961850457769715,8.57391546211486e-18,0.07961850457769715,-6.970173325180615e-19,0.27964118776548796,-5.64123813839338e-18,-0.27964118776548796,0.033849251715730784,0.9988535710085688,0.033849251715730784,100.0,109.28571428571402,[1.06498744]
7.50568178194132e-18,0.3965169797654348,7.856181859675677e-18,0.3965169797654348,-3.785576902985744e-18,0.048599061777353764,7.856181859675677e-18,0.048599061777353764,9.379908389345794e-19,0.3994841474300843,-9.293888747064608e-19,-0.3994841474300842,0.15061248490211285,0.9770525875218906,0.15061248490211285,100.0,109.28571428571402,[1.26486684]
5.890194530107653e-18,0.42425266898290465,7.830976567811936e-18,0.42425266898290465,-2.7964790427155253e-18,0.03502876370837913,7.830976567811936e-18,0.03502876370837913,3.0670598247971537e-19,0.4256963018703071,-9.345749566641289e-19,-0.42569630187030705,0.1778308565369079,0.9678596865903131,0.1778308565369079,100.0,109.28571428571402,[1.32049359]
4.153700680824829e-18,0.43603814476187014,7.99922367945737e-18,0.43603814476187014,-2.304161905649808e-18,0.02865429268761033,7.99922367945737e-18,0.02865429268761033,-8.446933702892708e-19,0.43697864041255036,-1.863074234181018e-18,-0.43697864041255025,0.1892743264850047,0.9635094491842285,0.18927432648500472,100.0,109.28571428571402,[1.31821314]
2.324959649630092e-18,0.4424272284161965,8.232294599569588e-18,0.4424272284161965,-1.993085999079809e-18,0.02503071454694252,8.232294599569588e-18,0.02503071454694252,-2.1719049991727274e-18,0.4431347302060267,-3.0836649465755913e-18,-0.4431347302060267,0.19546974383344137,0.9610323399820516,0.1954697438334414,100.0,109.28571428571402,[1.29998004]
4.8372963875187585e-19,0.4462671735474371,8.499412071746098e-18,0.4462671735474371,-1.7601519288913535e-18,0.02274988303563116,8.499412071746098e-18,0.02274988303563116,-3.590549864245346e-18,0.44684667097803604,-4.432222896627124e-18,-0.44684667097803604,0.19925964666982923,0.9594744323941257,0.19925964666982932,100.0,109.28571428571402,[1.30350055]
-1.3846361355187189e-18,0.44862453853743645,8.787570319059856e-18,0.44862453853743645,-1.5643913586622056e-18,0.02125038935525199,8.787570319059856e-18,0.02125038935525199,-5.0629162068447675e-18,0.44912754939513305,-5.8788751202104984e-18,-0.44912754939513283,0.2017018472500321,0.9584533007047601,0.2017018472500321,100.0,109.28571428571402,[1.31816338]
-3.2665676718351837e-18,0.4499602509907804,9.086170957434382e-18,0.4499602509907804,-1.4106879627288778e-18,0.02027841580208283,9.086170957434382e-18,0.02027841580208283,-6.58005009410814e-18,0.4504169641777807,-7.392970206489924e-18,-0.45041696417778077,0.20325727064553703,0.9577958884122723,0.20325727064553709,100.0,109.28571428571402,[1.31816338]
-5.149052436885081e-18,0.45046417450655063,9.393162496555601e-18,0.45046417450655063,-1.2648565506483589e-18,0.019720453892354304,9.393162496555601e-18,0.019720453892354304,-8.115635007491633e-18,0.4508956296257357,-8.932668359322596e-18,-0.45089562962573565,0.20412841196234802,0.9574252883956325,0.20412841196234802,100.0,109.28571428571402,[1.31816338]
-7.026655647248785e-18,0.4501599879362001,9.707231018181607e-18,0.4501599879362001,-1.171935452412936e-18,0.019546775382505686,9.707231018181607e-18,0.019546775382505686,-9.690016940501155e-18,0.45058416657332057,-1.0530868610006201e-17,-0.45058416657332057,0.20436911183698675,0.9573225852626283,0.2043691118369868,100.0,109.28571428571402,[1.31816338]
-8.934114132365e-18,0.4489127449820535,1.003725368409024e-17,0.4489127449820535,-1.0798320092883249e-18,0.019801955323841342,1.003725368409024e-17,0.019801955323841342,-1.130672405109379e-17,0.4493492739973769,-1.2188071898605742e-17,-0.44934927399737695,0.2039034958094224,0.9575211375178061,0.20390349580942244,100.0,109.28571428571402,[1.31816338]
-1.0838314714939888e-17,0.4463449956887444,1.037532890156329e-17,0.4463449956887444,-1.059902858265597e-18,0.020635073827275092,1.037532890156329e-17,0.020635073827275092,-1.2977425014279307e-17,0.44682173341081155,-1.3928468569730813e-17,-0.44682173341081166,0.20247037483851568,0.9581291638529232,0.20247037483851563,100.0,109.28571428571402,[1.31816338]
-1.2784857432300447e-17,0.4415499863948183,1.073562414838112e-17,0.4415499863948183,-1.0972257273333684e-18,0.022407115952775964,1.073562414838112e-17,0.022407115952775964,-1.4750954983685093e-17,0.4421181621813171,-1.5849934249878902e-17,-0.4421181621813171,0.19941641194384732,0.9594092918535256,0.19941641194384738,100.0,109.28571428571402,[1.31816338]
-1.4762332206775906e-17,0.4320660974548738,1.1152359721695161e-17,0.4320660974548738,-1.3087372203707454e-18,0.02604269667068422,1.1152359721695161e-17,0.02604269667068422,-1.672037402712066e-17,0.4328502450268058,-1.8054612258509734e-17,-0.4328502450268057,0.19296337376249004,0.9620448392733029,0.19296337376249006,100.0,109.28571428571402,[1.30713742]
-1.6864073600892172e-17,0.40860532622109635,1.1680332887808521e-17,0.40860532622109635,-2.029512123584216e-18,0.034399783020324246,1.1680332887808521e-17,0.034399783020324246,-1.9247345360728887e-17,0.41005079891166407,-2.1212040218133568e-17,-0.41005079891166424,0.17672789781075351,0.9682636522511745,0.17672789781075357,100.0,109.28571428571402,[1.28891302]
-1.983023595082285e-17,0.292013722027673,1.2634125322441786e-17,0.292013722027673,-6.5481627370897925e-18,0.05069875580587573,1.2634125322441786e-17,0.05069875580587573,-2.428832530641542e-17,0.2963821480668478,-2.867518967599939e-17,-0.2963821480668477,0.11593124121733249,0.9864683951448302,0.11593124121733256,100.0,109.28571428571402,[1.05174233]
-1.926445676784698e-17,0.2950675767370671,1.1761904517124504e-17,0.2950675767370671,-6.612387810580344e-18,0.044451564187795466,1.1761904517124504e-17,0.044451564187795466,-2.386637817535604e-17,0.29839707840430785,-2.7295972023147695e-17,-0.29839707840430796,0.02638637309231009,0.9993035167705894,0.026386373092310022,100.0,96.42857142857196,[1.12284068]
-1.5434257118809748e-17,0.41240961874967524,9.647523979347427e-18,0.41240961874967524,-2.2137737895463874e-18,0.026807587809291614,9.647523979347427e-18,0.026807587809291614,-1.7696077154630176e-17,0.413279978224696,-1.895158055371825e-17,-0.4132799782246961,0.0334257160497993,0.9988820966526113,0.033425716049799346,100.0,96.42857142857196,[1.45276312]
-1.2459240989493822e-17,0.4354076292972535,7.913788656238431e-18,0.4354076292972535,-1.6057054630428377e-18,0.019620725562254977,7.913788656238431e-18,0.019620725562254977,-1.4061218650015088e-17,0.43584948838084453,-1.4769496998029877e-17,-0.4358494883808444,0.0474587599955174,0.9977451238664993,0.047458759995517415,100.0,96.42857142857196,[1.4707028]
-9.580815205594804e-18,0.44493545312809246,6.2724431940034936e-18,0.44493545312809246,-1.517749380724945e-18,0.016101558062884082,6.2724431940034936e-18,0.016101558062884082,-1.0991236887252273e-17,0.445226703626763,-1.1440816165015901e-17,-0.445226703626763,0.05370743125334152,0.9971113396488555,0.05370743125334154,100.0,96.42857142857196,[1.45559323]
-6.77185036267128e-18,0.4500090907229075,4.670174412758633e-18,0.4500090907229075,-1.5895991013716295e-18,0.013957426986401384,4.670174412758633e-18,0.013957426986401384,-8.131526025938178e-18,0.45022548961752346,-8.423169814168688e-18,-0.45022548961752334,0.05734962556204384,0.9967055938920916,0.05734962556204384,100.0,96.42857142857196,[1.43651631]
-3.963960182459826e-18,0.45299056768134033,3.0771206125613088e-18,0.45299056768134033,-1.7360613081394666e-18,0.01247058825662515,3.0771206125613088e-18,0.01247058825662515,-5.3800678260998025e-18,0.45316218948598236,-5.5482524061335835e-18,-0.4531621894859822,0.05980431061911706,0.9964170255785196,0.05980431061911706,100.0,96.42857142857196,[1.43651631]
-1.1533759266920756e-18,0.4547522104018647,1.494248486435433e-18,0.4547522104018647,-1.944927477577899e-18,0.01135149693636746,1.494248486435433e-18,0.01135149693636746,-2.6793461062255597e-18,0.4548938660259977,-2.7516203835925306e-18,-0.4548938660259977,0.06161187607548292,0.9961967443496889,0.06161187607548293,100.0,96.42857142857196,[1.41195348]
1.6442000350638776e-18,0.4556656964197773,-7.861981752862867e-20,0.4556656964197773,-2.171701578981112e-18,0.010462974280294302,-7.861981752862867e-20,0.010462974280294302,-2.6376398665357894e-20,0.4557858057514635,-2.1355680169449967e-20,-0.4557858057514635,0.06301976826477038,0.9960205909596996,0.06301976826477036,100.0,96.42857142857196,[1.41195348]
4.423307483584571e-18,0.4558787304792353,-1.6526677068955853e-18,0.4558787304792353,-2.4182828190355266e-18,0.009733854360657518,-1.6526677068955853e-18,0.009733854360657518,2.5905083818528306e-18,0.45598263653792115,2.6622826016347384e-18,-0.45598263653792104,0.0641531134505009,0.9958758738262589,0.0641531134505009,100.0,96.42857142857196,[1.39724193]
7.221953868751956e-18,0.45539974222214613,-3.2234605420013307e-18,0.45539974222214613,-2.6963380842959538e-18,0.00912709179928173,-3.2234605420013307e-18,0.00912709179928173,5.181076113914612e-18,0.4554911953273188,5.3112351485850204e-18,-0.4554911953273188,0.06507509340588388,0.9957562274153403,0.06507509340588387,100.0,96.42857142857196,[1.39724193]
9.980449837564206e-18,0.4541005853623789,-4.786428555473879e-18,0.4541005853623789,-3.0104799325752064e-18,0.008627943677201287,-4.786428555473879e-18,0.008627943677201287,7.723349733093097e-18,0.4541825437404569,7.905363078696487e-18,-0.45418254374045686,0.06580836030167514,0.9956598412253101,0.06580836030167511,100.0,96.42857142857196,[1.39724193]
1.2752498850520409e-17,0.4516393383667626,-6.351144154395922e-18,0.4516393383667626,-3.3664059839325502e-18,0.008243030863950182,-6.351144154395922e-18,0.008243030863950182,1.0205935059094916e-17,0.4517145553534789,1.0437906964890018e-17,-0.45171455535347876,0.06633528235425329,0.9955899058497747,0.06633528235425326,100.0,96.42857142857196,[1.39724193]
1.5514242123622388e-17,0.4472006834720873,-7.917063814058143e-18,0.4472006834720873,-3.8010149786546045e-18,0.008012016651044179,-7.917063814058143e-18,0.008012016651044179,1.2594644251914158e-17,0.44727244908301556,1.2880030030714222e-17,-0.44727244908301556,0.06657133742822635,0.9955583930970773,0.06657133742822632,100.0,96.42857142857196,[1.39724193]
1.823528811058676e-17,0.4385602357761029,-9.4714532383721e-18,0.4385602357761029,-4.4003140468294015e-18,0.008049719547118247,-9.4714532383721e-18,0.008049719547118247,1.4755448112450207e-17,0.43863410536434394,1.5104730749110072e-17,-0.4386341053643437,0.06626242904720317,0.9955996087752993,0.06626242904720311,100.0,96.42857142857196,[1.39724193]
2.0860273664714135e-17,0.41715390158141763,-1.100430764470943e-17,0.41715390158141763,-5.511044265066587e-18,0.008669855331039249,-1.100430764470943e-17,0.008669855331039249,1.6325057652764998e-17,0.4172439861712332,1.6783586177767375e-17,-0.41724398617123326,0.06455325829223746,0.9958241580157169,0.06455325829223742,100.0,96.42857142857196,[1.38052538]
2.272341026164611e-17,0.3041106661976205,-1.2527513800226068e-17,0.3041106661976205,-1.0423716676495086e-17,0.007891650266722554,-1.2527513800226068e-17,0.007891650266722554,1.5297094016711508e-17,0.3042130428484172,1.5950784643901072e-17,-0.3042130428484171,0.06091633932199194,0.9962822889157551,0.06091633932199187,100.0,96.42857142857196,[1.09394653]
2.2685061548062693e-17,0.3041516691380319,-1.2955874297642496e-17,0.3041516691380319,-1.0422339897373391e-17,0.0009301984443495968,-1.2955874297642496e-17,0.0009301984443495968,1.5532338638226546e-17,0.30415309156508114,1.561165054460859e-17,-0.30415309156508114,0.0813194333639544,0.993365139067569,0.08131943336395445,100.0,83.57142857142804,[1.07655173]
2.075282435070957e-17,0.41728825028575417,-1.1669332863116001e-17,0.41728825028575417,-5.509896739374777e-18,0.0001575949108049309,-1.1669332863116001e-17,0.0001575949108049309,1.7045713325647988e-17,0.4172882800447457,1.705452803235596e-17,-0.4172882800447456,0.07943620453959464,0.9936698540343706,0.07943620453959466,100.0,83.57142857142804,[1.37779954]
1.806524976194306e-17,0.4387860681092933,-1.0391728470488874e-17,0.4387860681092933,-4.410517778511989e-18,0.0007787454958440471,-1.0391728470488874e-17,0.0007787454958440471,1.5943880935779258e-17,0.4387867591568377,1.5980773733210407e-17,-0.4387867591568376,0.08041777651674137,0.993511933718064,0.08041777651674137,100.0,83.57142857142804,[1.39126868]
1.5258290108221942e-17,0.4475172088552587,-9.14181578578953e-18,0.4475172088552587,-3.8212112056176104e-18,0.0008128611387586459,-9.14181578578953e-18,0.0008128611387586459,1.4256551315835953e-17,0.4475179470868539,1.4289764996465653e-17,-0.4475179470868539,0.08044700606974123,0.9935072009949553,0.08044700606974126,100.0,83.57142857142804,[1.39126868]
1.2435602649128894e-17,0.45204598517078537,-7.893565999885502e-18,0.45204598517078537,-3.39292983077327e-18,0.0005736480608584439,-7.893565999885502e-18,0.0005736480608584439,1.2350811337216408e-17,0.45204634915141567,1.2370845304739234e-17,-0.4520463491514158,0.08006245484578041,0.9935693265435156,0.08006245484578044,100.0,83.57142857142804,[1.39126868]
9.599345188689334e-18,0.4545968053146848,-6.6505565194842715e-18,0.4545968053146848,-3.0381747537393973e-18,0.0001759210077146996,-6.6505565194842715e-18,0.0001759210077146996,1.034441446404167e-17,0.4545968393538593,1.0349561654833013e-17,-0.45459683935385925,0.07944275172734842,0.9936688071968314,0.07944275172734842,100.0,83.57142857142804,[1.39126868]
6.764175108863765e-18,0.45598496006533445,-5.407835675841413e-18,0.45598496006533445,-2.7353764128630608e-18,-0.0003406546997399162,-5.407835675841413e-18,-0.0003406546997399162,8.279686403807431e-18,0.4559850873125229,8.271605477534899e-18,-0.4559850873125229,0.07864587856576778,0.9937955783606791,0.0786458785657678,100.0,83.57142857142804,[1.39126868]
3.90350139639196e-18,0.45655232752154584,-4.170135091502543e-18,0.45655232752154584,-2.4643217564568418e-18,-0.0009694504114631668,-4.170135091502543e-18,-0.0009694504114631668,6.17046264406274e-18,0.4565533567935309,6.1527432472953354e-18,-0.45655335679353093,0.07767862449492546,0.9939477162271426,0.0776786244949255,100.0,83.57142857142804,[1.3915819]
1.0482518690881842e-18,0.45642700501871797,-2.9325706284576374e-18,0.45642700501871797,-2.2160575802876838e-18,-0.0017251956161695612,-2.9325706284576374e-18,-0.0017251956161695612,4.02895078091114e-18,0.4564302654407033,4.0067395661156955e-18,-0.45643026544070336,0.07651438808912776,0.9941283100438758,0.07651438808912778,100.0,83.57142857142804,[1.3915819]
-1.8232765726706355e-18,0.45560051328078394,-1.7071989570835743e-18,0.45560051328078394,-1.990447961778838e-18,-0.002644916818885439,-1.7071989570835743e-18,-0.002644916818885439,1.8475571670824225e-18,0.45560819053951684,1.827599656346351e-18,-0.4556081905395168,0.07509038959271637,0.9943454464026212,0.07509038959271637,100.0,83.57142857142804,[1.3915819]
-4.689921340092942e-18,0.45392510071350817,-4.7411225533896615e-19,0.45392510071350817,-1.8006522200273784e-18,-0.0037997560530381126,-4.7411225533896615e-19,-0.0037997560530381126,-3.745337328839038e-19,0.45394100410056726,-3.8278141805811966e-19,-0.4539410041005672,0.07328637935338679,0.9946146053635766,0.07328637935338679,100.0,83.57142857142804,[1.40111053]
-7.560911390670566e-18,0.4510290504632413,7.404904332274195e-19,0.4510290504632413,-1.6522320525158212e-18,-0.005326864083910032,7.404904332274195e-19,-0.005326864083910032,-2.6545504367860935e-18,0.4510605057447854,-2.637767040646972e-18,-0.45106050574478534,0.070867147050011,0.9949651727261533,0.070867147050011,100.0,83.57142857142804,[1.40458853]
-1.0463367650243649e-17,0.4460400150145434,1.9421207293592974e-18,0.4460400150145434,-1.5772026576724187e-18,-0.0075157561771757855,1.9421207293592974e-18,-0.0075157561771757855,-5.036716269068522e-18,0.4461033306142076,-4.97269951042395e-18,-0.44610333061420754,0.06732148064228773,0.9954575010959836,0.06732148064228773,100.0,83.57142857142804,[1.40458853]
-1.3404354913327643e-17,0.43659599888755957,3.111192335473146e-18,0.43659599888755957,-1.6839547391999596e-18,-0.011084152606954726,3.111192335473146e-18,-0.011084152606954726,-7.624810899119832e-18,0.4367366765954517,-7.467604979414186e-18,-0.4367366765954517,0.06131217218961021,0.9962337251281866,0.061312172189610194,100.0,83.57142857142804,[1.41930009]
-1.6432703564336714e-17,0.4136812245505416,4.18810108201436e-18,0.4136812245505416,-2.289655813730876e-18,-0.0183247261427333,4.18810108201436e-18,-0.0183247261427333,-1.078863647039785e-17,0.41408688838677543,-1.043454738362555e-17,-0.41408688838677543,0.047998202513573215,0.9976935126134341,0.04799820251357319,100.0,83.57142857142804,[1.45980949]
-2.0350968325205156e-17,0.296422903546641,4.8710940131486335e-18,0.296422903546641,-6.695940650554491e-18,-0.03602709514183502,4.8710940131486335e-18,-0.03602709514183502,-1.647298062979845e-17,0.2986042352870771,-1.5430354792032436e-17,-0.29860423528707725,0.006184679351698989,0.9999617490097474,0.006184679351699003,100.0,83.57142857142804,[1.11196372]
-2.231854009338713e-17,0.2934372246234357,5.999943995904421e-18,0.2934372246234357,-6.587564651925795e-18,-0.042323753193396756,5.999943995904421e-18,-0.042323753193396756,-1.8260146309710655e-17,0.29647378447188255,-1.673453026450059e-17,-0.2964737844718824,0.13587068365579755,0.9813655356929001,0.13587068365579755,100.0,70.71428571428592,[1.03072938]
-2.210967399018777e-17,0.41010300109846587,8.126693156970266e-18,0.41010300109846587,-1.9722592423857745e-18,-0.026070340946453285,8.126693156970266e-18,-0.026070340946453285,-1.6420769933036988e-17,0.41093081435569256,-1.5398576473261378e-17,-0.41093081435569245,0.190729126447522,0.9629355121964974,0.19072912644752196,100.0,70.71428571428592,[1.30717247]
-2.2777707224234704e-17,0.4336348895012246,9.841704151546044e-18,0.4336348895012246,-1.1496689232392678e-18,-0.017762780215120413,9.841704151546044e-18,-0.017762780215120413,-1.7097165187595008e-17,0.43399854118845843,-1.6309833639871892e-17,-0.43399854118845843,0.20603031779841144,0.9566101694503207,0.2060303177984114,100.0,70.71428571428592,[1.331138]
-2.3578129577947407e-17,0.4431878453657959,1.1419836209644566e-17,0.4431878453657959,-8.310462666623839e-19,-0.014180905578376162,1.1419836209644566e-17,-0.014180905578376162,-1.8331926678048443e-17,0.4434146641271569,-1.760845530286569e-17,-0.443414664127157,0.21207804822782286,0.953963208367993,0.21207804822782284,100.0,70.71428571428592,[1.32947154]
-2.4421423979025698e-17,0.4480500888718712,1.2973701716014667e-17,0.4480500888718712,-6.887777218129354e-19,-0.012466779567792383,1.2973701716014667e-17,-0.012466779567792383,-1.9764884481904613e-17,0.4482234964065178,-1.9047592663967576e-17,-0.4482234964065178,0.21488857880049775,0.9527044648799566,0.21488857880049772,100.0,70.71428571428592,[1.32884911]
-2.5267431532513165e-17,0.45068327822613957,1.449499210507676e-17,0.45068327822613957,-6.196283694344345e-19,-0.011695769876623494,1.449499210507676e-17,-0.011695769876623494,-2.1292392997657596e-17,0.4508350122890489,-2.0541038384294177e-17,-0.450835012289049,0.21614928169727599,0.9521339065717087,0.21614928169727596,100.0,70.71428571428592,[1.32884911]
-2.6140027979610534e-17,0.45199416112732765,1.599712025909741e-17,0.45199416112732765,-5.925315546166798e-19,-0.011506857966303963,1.599712025909741e-17,-0.011506857966303963,-2.2881762978077484e-17,0.4521406080783426,-2.2070253249514715e-17,-0.45214060807834255,0.21648109913997385,0.9519831235007781,0.2164810991399738,100.0,70.71428571428592,[1.32884911]
-2.700448920878102e-17,0.45236016835496384,1.7491837850644214e-17,0.45236016835496384,-5.993496748261791e-19,-0.011750921370020272,1.7491837850644214e-17,-0.011750921370020272,-2.4511693527189362e-17,0.452512768954839,-2.360435810793506e-17,-0.4525127689548391,0.21613197779959292,0.952141762735399,0.21613197779959284,100.0,70.71428571428592,[1.32884911]
-2.789010454814178e-17,0.45191622385405816,1.897732992913096e-17,0.45191622385405816,-6.361465394193105e-19,-0.012383336271602036,1.897732992913096e-17,-0.012383336271602036,-2.6169705203736193e-17,0.4520858551201606,-2.5131730784036507e-17,-0.4520858551201605,0.2151730879319096,0.9525760255537052,0.21517308793190953,100.0,70.71428571428592,[1.32884911]
-2.878765351880227e-17,0.4506386276056582,2.0457140748609343e-17,0.4506386276056582,-6.86373508437853e-19,-0.013433777017527484,2.0457140748609343e-17,-0.013433777017527484,-2.786420984001157e-17,0.45083881715671714,-2.664910255998668e-17,-0.45083881715671703,0.213551364488779,0.9533056327589602,0.21355136448877896,100.0,70.71428571428592,[1.32947154]
-2.96814125546912e-17,0.4483374990811914,2.1920197322048497e-17,0.4483374990811914,-7.846227451861942e-19,-0.015015694248857434,2.1920197322048497e-17,-0.015015694248857434,-2.9592086250919785e-17,0.44858888099924243,-2.8123734050293586e-17,-0.4485888809992426,0.21107081328152255,0.9544098823678185,0.21107081328152252,100.0,70.71428571428592,[1.33096926]
-3.059524467910737e-17,0.444551902114977,2.3368076934242544e-17,0.444551902114977,-9.22347289662856e-19,-0.017382845813297108,2.3368076934242544e-17,-0.017382845813297108,-3.1379921210420426e-17,0.44489162388452874,-2.955496167093875e-17,-0.4448916238845288,0.207286488998377,0.9560672690545639,0.20728648899837698,100.0,70.71428571428592,[1.33096926]
-3.156876615652537e-17,0.4382152874331027,2.4777106734269787e-17,0.4382152874331027,-1.1407881183124424e-18,-0.02109658317451553,2.4777106734269787e-17,-0.02109658317451553,-3.3243995752618855e-17,0.43872280994007595,-3.086049179998095e-17,-0.438722809940076,0.2011782963149084,0.9586733469663491,0.20117829631490833,100.0,70.71428571428592,[1.33368633]
-3.255179214597676e-17,0.42648045713822647,2.6123886180035544e-17,0.42648045713822647,-1.5153022444308893e-18,-0.027565011814206054,2.6123886180035544e-17,-0.027565011814206054,-3.5304639246687094e-17,0.4273703431418095,-3.193233673839296e-17,-0.4273703431418096,0.19000786316847168,0.9632206517035974,0.1900078631684716,100.0,70.71428571428592,[1.33295649]
-3.3738830239395467e-17,0.39879381642289424,2.7286306323446273e-17,0.39879381642289424,-2.410741368154441e-18,-0.041233101666468916,2.7286306323446273e-17,-0.041233101666468916,-3.7863552120874967e-17,0.4009197883494581,-3.223804280898695e-17,-0.40091978834945824,0.16366184915410062,0.972846132881722,0.16366184915410054,100.0,70.71428571428592,[1.26590093]
-3.602767952617971e-17,0.2703925668425961,2.7740711858567935e-17,0.2703925668425961,-7.097198669712467e-18,-0.07235455361638603,2.7740711858567935e-17,-0.07235455361638603,-4.2710601019514514e-17,0.27990591568016965,-2.933226260251953e-17,-0.2799059156801697,0.053077982130777884,0.9971787480817318,0.053077982130777836,100.0,70.71428571428592,[1.03722698]
-3.516515141810076e-17,0.2649665119770653,2.7356950956647158e-17,0.2649665119770653,-7.178015637275576e-18,-0.07673899736646184,2.7356950956647158e-17,-0.07673899736646184,-4.1795714369064306e-17,0.2758552631111144,-2.6493117998807387e-17,-0.2758552631111144,0.19479713300605242,0.9613054425858852,0.19479713300605236,100.0,57.857142857142705,[0.88668004]
-3.066884741680749e-17,0.39219770815810306,2.6518154784742563e-17,0.39219770815810306,-2.634266972964619e-18,-0.046677078334548476,2.6518154784742563e-17,-0.046677078334548476,-3.5600606020822216e-17,0.39496555789880994,-2.9413767469088886e-17,-0.39496555789881,0.30280979453237294,0.9036661201298432,0.3028097945323727,100.0,57.857142857142705,[1.26366958]
-2.7310448014523053e-17,0.4208957049896704,2.494955486037066e-17,0.4208957049896704,-1.8899480538254455e-18,-0.032327030633442146,2.494955486037066e-17,-0.032327030633442146,-3.1662840477012837e-17,0.4221353235496019,-2.7847657658061997e-17,-0.422135323549602,0.32924856615988024,0.884980657056032,0.3292485661598802,100.0,57.857142857142705,[1.28910925]
-2.4159036705254743e-17,0.4327269320005873,2.3178366972089955e-17,0.4327269320005873,-1.665401837386348e-18,-0.02590552166371524,2.3178366972089955e-17,-0.02590552166371524,-2.820747767085522e-17,0.4335016652001584,-2.5423224518277633e-17,-0.43350166520015837,0.33975212776002617,0.8770045515076134,0.3397521277600261,100.0,57.857142857142705,[1.2965757]
-2.105892093372238e-17,0.43873573598960636,2.1339451751838964e-17,0.43873573598960636,-1.6015420723805765e-18,-0.022576430906881995,2.1339451751838964e-17,-0.022576430906881995,-2.491754509354635e-17,0.439316220127182,-2.2701571430204395e-17,-0.4393162201271822,0.3449379903710166,0.8729464849563282,0.3449379903710166,100.0,57.857142857142705,[1.29779658]
-1.8010329622160486e-17,0.4419489044188809,1.9454412808153867e-17,0.4419489044188809,-1.6266705269202304e-18,-0.02078844281427525,1.9454412808153867e-17,-0.02078844281427525,-2.172271274747966e-17,0.44243755883931396,-1.9893943873684802e-17,-0.4424375588393141,0.347656224812788,0.8707871718725767,0.3476562248127881,100.0,57.857142857142705,[1.29903609]
-1.4979662073701697e-17,0.44349502235431687,1.7548516902757678e-17,0.44349502235431687,-1.6799489975302236e-18,-0.0199306894440888,1.7548516902757678e-17,-0.0199306894440888,-1.8576649315967872e-17,0.4439426395772012,-1.700189573626349e-17,-0.4439426395772014,0.3489445943344987,0.8697559083843375,0.34894459433449876,100.0,57.857142857142705,[1.29903609]
-1.1954692145302174e-17,0.4438453855754074,1.562947850298883e-17,0.4438453855754074,-1.7712815503292007e-18,-0.019741089640783572,1.562947850298883e-17,-0.019741089640783572,-1.5457717408547824e-17,0.4442841848600819,-1.406346933131485e-17,-0.44428418486008203,0.34922852413257816,0.8695279615195607,0.3492285241325782,100.0,57.857142857142705,[1.29903609]
-8.95360643670466e-18,0.44316682817402453,1.3694568029148173e-17,0.44316682817402453,-1.888658246605928e-18,-0.02012450404889744,1.3694568029148173e-17,-0.02012450404889744,-1.2369168568809885e-17,0.4436235264918211,-1.1123984640524375e-17,-0.443623526491821,0.3486557085126228,0.8699875825798447,0.3486557085126227,100.0,57.857142857142705,[1.29903609]
-5.9638990110231186e-18,0.44142513357224167,1.1746651248467889e-17,0.44142513357224167,-2.0395402554856338e-18,-0.021097376822484838,1.1746651248467889e-17,-0.021097376822484838,-9.299075524405288e-18,0.4419290077128467,-8.17813109916821e-18,-0.4419290077128467,0.34719187468528,0.8711576231113641,0.34719187468528,100.0,57.857142857142705,[1.29779658]
-2.9804318358826776e-18,0.4383741139496276,9.780572641457974e-18,0.4383741139496276,-2.2100936791570103e-18,-0.02279299611796458,9.780572641457974e-18,-0.02279299611796458,-6.270898565072109e-18,0.4389662680128788,-5.244768182005707e-18,-0.43896626801287886,0.34460768122023644,0.8732073591581919,0.3446076812202364,100.0,57.857142857142705,[1.29779658]
-4.49705011820579e-20,0.4334218616476786,7.790567554117801e-18,0.4334218616476786,-2.4305680473320274e-18,-0.025531466096930237,7.790567554117801e-18,-0.025531466096930237,-3.2751416573782372e-18,0.4341731980617853,-2.3295134785652095e-18,-0.4341731980617852,0.34034460201659605,0.8765449810228393,0.34034460201659594,100.0,57.857142857142705,[1.2965757]
2.8736353741765688e-18,0.42520891825060436,5.760390191528572e-18,0.42520891825060436,-2.721550463740452e-18,-0.030034790909288442,5.760390191528572e-18,-0.030034790909288442,-3.60236691477749e-19,0.42626835775695787,4.60530016115267e-19,-0.42626835775695787,0.3330824660213868,0.8821066498208837,0.3330824660213868,100.0,57.857142857142705,[1.2965757]
5.6788484360342825e-18,0.4101513921955901,3.639728666180813e-18,0.4101513921955901,-3.1883462160885075e-18,-0.038122567850525806,3.639728666180813e-18,-0.038122567850525806,2.4010338996029454e-18,0.4119192817767805,3.091856966493868e-18,-0.4119192817767806,0.3191777568632117,0.8923290419164542,0.3191777568632117,100.0,57.857142857142705,[1.26211342]
8.206506006433503e-18,0.37537632157900874,1.2773585131900456e-18,0.37537632157900874,-4.163073774538397e-18,-0.05551168332340828,1.2773585131900456e-18,-0.05551168332340828,4.759801971831728e-18,0.3794587326542713,5.524615534991402e-18,-0.37945873265427116,0.28456765398865624,0.9154466126469554,0.28456765398865624,100.0,57.857142857142705,[1.2718959]
9.277607705967699e-18,0.23111312570357082,-1.9777402606779988e-18,0.23111312570357082,-8.948052952867132e-18,-0.09388905425720397,-1.9777402606779988e-18,-0.09388905425720397,5.2040467644288446e-18,0.249456271482171,4.300769355518726e-18,-0.24945627148217117,0.12319551737142803,0.9847059099036486,0.12319551737142803,100.0,57.857142857142705,[0.90860861]
9.903091079497634e-18,0.22431801981982796,-2.5968069227777215e-18,0.22431801981982796,-9.050245534078924e-18,-0.09549229497229149,-2.5968069227777215e-18,-0.09549229497229149,6.7709431523344624e-18,0.24379776950366855,6.39774844579779e-18,-0.24379776950366844,0.2642061186814868,0.9275722363797487,0.26420611868148663,100.0,45.00000000000011,[0.84560226]
1.0690702266678269e-17,0.36705979676483735,-4.463519899711556e-19,0.36705979676483735,-4.490199408372626e-18,-0.057573976112523954,-4.463519899711556e-19,-0.057573976112523954,8.854440716149352e-18,0.3715476512191258,9.055803754783643e-18,-0.37154765121912553,0.4164820039055887,0.8081370433568618,0.4164820039055887,100.0,45.00000000000011,[1.26270658]
9.97380261416173e-18,0.40303441587219135,8.092554665073359e-19,0.40303441587219135,-3.7414944028094815e-18,-0.040021783122818025,8.092554665073359e-19,-0.040021783122818025,9.052148980065985e-18,0.4050166459563959,9.248553255424568e-18,-0.4050166459563957,0.44814532485715997,0.7735189303548694,0.44814532485715997,100.0,45.00000000000011,[1.2743683]
8.968867919006263e-18,0.41815095536452895,1.8094720850075133e-18,0.41815095536452895,-3.487765900594367e-18,-0.0320307961565802,1.8094720850075133e-18,-0.0320307961565802,8.871957506391082e-18,0.4193759570775281,9.164723547241151e-18,-0.41937595707752817,0.4603508530849894,0.759048209356853,0.4603508530849895,100.0,45.00000000000011,[1.26805917]
7.82903867750718e-18,0.42589428279623054,2.7276675096067213e-18,0.42589428279623054,-3.4130058338197073e-18,-0.027744564790573883,2.7276675096067213e-18,-0.027744564790573883,8.554522913818371e-18,0.4267970255214228,8.928003077575861e-18,-0.42679702552142285,0.4664391902910195,0.7515776496951706,0.46643919029101943,100.0,45.00000000000011,[1.29714174]
6.667436387924477e-18,0.4300722601440429,3.594738558233298e-18,0.4300722601440429,-3.403429253675451e-18,-0.025292348508335664,3.594738558233298e-18,-0.025292348508335664,8.1806717083374e-18,0.4308153338014705,8.607705492734342e-18,-0.4308153338014704,0.4697835474702931,0.7474000515469972,0.46978354747029294,100.0,45.00000000000011,[1.27538694]
5.464865496963246e-18,0.43212174871254033,4.436034923929012e-18,0.43212174871254033,-3.4318198500570727e-18,-0.023934421274744426,4.436034923929012e-18,-0.023934421274744426,7.75797104158938e-18,0.43278408269267565,8.243806910247896e-18,-0.43278408269267565,0.47158311010210247,0.7451300158582101,0.4715831101021024,100.0,45.00000000000011,[1.27538694]
4.225056589186104e-18,0.4326476258374399,5.260783444535375e-18,0.4326476258374399,-3.512349605001866e-18,-0.023347653078491244,5.260783444535375e-18,-0.023347653078491244,7.31304796088997e-18,0.4332771411545353,7.85853956710965e-18,-0.4332771411545353,0.472330448438041,0.7441827026722929,0.4723304484380409,100.0,45.00000000000011,[1.2845791]
2.9614058546133454e-18,0.431867393816246,6.074196605144738e-18,0.431867393816246,-3.61020114235898e-18,-0.023405233942454234,6.074196605144738e-18,-0.023405233942454234,6.85170182951378e-18,0.43250115701294656,7.495660495021649e-18,-0.43250115701294645,0.47220932620714795,0.7443364188899952,0.47220932620714795,100.0,45.00000000000011,[1.27538694]
1.7132540031779935e-18,0.42974310075956906,6.870619708616809e-18,0.42974310075956906,-3.733064553488165e-18,-0.02410712218998586,6.870619708616809e-18,-0.02410712218998586,6.367709354122266e-18,0.4304187333176055,7.138952119238537e-18,-0.43041873331760566,0.471210878117454,0.7456008427352772,0.4712108781174541,100.0,45.00000000000011,[1.27538694]
4.1039821629267175e-19,0.4259692191057753,7.64812652272359e-18,0.4259692191057753,-3.8862686392930664e-18,-0.025580045385286763,7.64812652272359e-18,-0.025580045385286763,5.861935352045851e-18,0.4267365866052468,6.747085456856396e-18,-0.4267365866052469,0.46912918447612295,0.7482216359779604,0.46912918447612295,100.0,45.00000000000011,[1.27538694]
-9.181646896695728e-19,0.4198070510917805,8.396452110879514e-18,0.4198070510917805,-4.082938274553062e-18,-0.028147054619642446,8.396452110879514e-18,-0.028147054619642446,5.319839022091621e-18,0.4207495892215914,6.4029584909909804e-18,-0.4207495892215915,0.465431228580316,0.752826369705814,0.46543122858031616,100.0,45.00000000000011,[1.25904131]
-2.327206478968939e-18,0.40956352861761375,9.102224129130381e-18,0.40956352861761375,-4.367505569269014e-18,-0.032547806092889625,9.102224129130381e-18,-0.032547806092889625,4.724556426316303e-18,0.41085477197565967,6.079241363881559e-18,-0.4108547719756598,0.458818721651673,0.7609012822461594,0.4588187216516728,100.0,45.00000000000011,[1.27744686]
-3.851184187201936e-18,0.39081247861038665,9.716181374134546e-18,0.39081247861038665,-4.806103613414537e-18,-0.04065299664178519,9.716181374134546e-18,-0.04065299664178519,4.036450103742122e-18,0.39292118748363636,5.947518179543316e-18,-0.3929211874836366,0.4455848820613466,0.7764716516117971,0.4455848820613466,100.0,45.00000000000011,[1.27959652]
-5.763753149238869e-18,0.34803939317487703,1.0091746316898968e-17,0.34803939317487703,-5.7543334232182684e-18,-0.05831913190636431,1.0091746316898968e-17,-0.05831913190636431,3.0325158835375384e-18,0.35289168359122386,5.9887080008059095e-18,-0.35289168359122386,0.4104946003829786,0.8142409754567977,0.41049460038297847,100.0,45.00000000000011,[0.84870514]
-9.56026731539595e-18,0.18633998131253487,9.55746407784819e-18,0.18633998131253487,-1.050418151714884e-17,-0.09635161446802662,9.55746407784819e-18,-0.09635161446802662,5.266059254181026e-19,0.20977660080702779,4.128618496387197e-18,-0.2097766008070279,0.21448618792161545,0.9528858013328285,0.21448618792161558,100.0,45.00000000000011,[0.84349309]
-1.0122771638627936e-17,0.1795210821639623,9.694093557978455e-18,0.1795210821639623,-1.0400081250649347e-17,-0.09485496521491209,9.694093557978455e-18,-0.09485496521491209,2.7555454155672734e-19,0.2030401028546881,5.963781506984578e-18,-0.20304010285468796,0.3536192430183064,0.8659716288275962,0.35361924301830616,100.0,32.14285714285738,[0.78506688]
-6.819576409268905e-18,0.3396489839124843,1.0373170170190854e-17,0.3396489839124843,-5.4274070365140885e-18,-0.05658784410070791,1.0373170170190854e-17,-0.05658784410070791,1.655379070849802e-18,0.3443306788143472,5.2279951089925136e-18,-0.34433067881434737,0.5287579897726963,0.6639502816499702,0.5287579897726962,100.0,32.14285714285738,[0.68979738]
-5.431798951976439e-18,0.38357198968680484,1.0150346169636485e-17,0.38357198968680484,-4.241182888818131e-18,-0.03930752943713616,1.0150346169636485e-17,-0.03930752943713616,1.5739166697643548e-18,0.3855807997589422,3.551805360901751e-18,-0.3855807997589424,0.5572535993554752,0.6155784694177783,0.5572535993554754,100.0,32.14285714285738,[1.24516403]
-4.457641579462539e-18,0.4023326777474999,9.699767861884204e-18,0.4023326777474999,-3.58409128972132e-18,-0.031327559546447156,9.699767861884204e-18,-0.031327559546447156,1.2202572532285327e-18,0.4035504919717109,2.6983313066954343e-18,-0.40355049197171106,0.5677130067171471,0.5961575999753362,0.5677130067171471,100.0,32.14285714285738,[1.24107695]
-3.627959572737151e-18,0.41205744077155027,9.151682459951754e-18,0.41205744077155027,-3.0767148320032375e-18,-0.026931098988223705,9.151682459951754e-18,-0.026931098988223705,7.716714167767379e-19,0.41293657937740647,1.9371882718156097e-18,-0.4129365793774063,0.5729143212474536,0.5861214558597384,0.5729143212474535,100.0,32.14285714285738,[1.24308793]
-2.893509215573768e-18,0.417396444577898,8.566804167770522e-18,0.417396444577898,-2.642084773256131e-18,-0.024298509275038214,8.566804167770522e-18,-0.024298509275038214,2.8016690065232303e-19,0.4181031086936086,1.2765048670836268e-18,-0.41810310869360856,0.5758490106752809,0.5803411357198456,0.5758490106752808,100.0,32.14285714285738,[1.24308793]
-2.185172950348684e-18,0.42012019337965323,7.952104515241894e-18,0.42012019337965323,-2.26231126478201e-18,-0.022707721992372205,7.952104515241894e-18,-0.022707721992372205,-2.447093901049312e-19,0.42073342810316366,6.207541230015171e-19,-0.42073342810316366,0.5775473968233943,0.5769558118652078,0.5775473968233943,100.0,32.14285714285738,[1.23370024]
-1.5072918209165772e-18,0.4209803912052387,7.319715320970483e-18,0.4209803912052387,-1.9237437585222183e-18,-0.021838561829102984,7.319715320970483e-18,-0.021838561829102984,-7.80472204903996e-19,0.42154645362294246,-3.2171683239876884e-20,-0.4215464536229424,0.5784309097960899,0.5751828971596215,0.5784309097960897,100.0,32.14285714285738,[1.23370024]
-8.425694806689643e-19,0.4202539176152195,6.6800546662774554e-18,0.4202539176152195,-1.6047279068110362e-18,-0.021557667871980612,6.6800546662774554e-18,-0.021557667871980612,-1.3336500667294457e-18,0.4208064737085425,-6.50857723823285e-19,-0.4208064737085425,0.5786655617488693,0.5747106535394406,0.5786655617488693,100.0,32.14285714285738,[1.23370024]
-2.231567856545558e-19,0.41790659343786496,6.024881350719942e-18,0.41790659343786496,-1.2873569037479155e-18,-0.021848523964636064,6.024881350719942e-18,-0.021848523964636064,-1.90195375323604e-18,0.41847733372104434,-1.2657755403575637e-18,-0.41847733372104434,0.5782664283239197,0.5755135756409175,0.5782664283239197,100.0,32.14285714285738,[1.24308793]
3.807909406275612e-19,0.41358225942343557,5.3519729209377745e-18,0.41358225942343557,-1.0351015585049693e-18,-0.022806199892885026,5.3519729209377745e-18,-0.022806199892885026,-2.482602283204376e-18,0.4142105842000518,-1.8775025955099183e-18,-0.41421058420005186,0.5771026545674678,0.5778451801151965,0.5771026545674678,100.0,32.14285714285738,[1.24308793]
9.122974975847342e-19,0.4064086708568755,4.658580190466344e-18,0.4064086708568755,-8.143187812084407e-19,-0.024692711877534915,4.658580190466344e-18,-0.024692711877534915,-3.0808523894272277e-18,0.40715812378917265,-2.511683737381234e-18,-0.40715812378917254,0.5748069335987258,0.5824036213603586,0.5748069335987257,100.0,32.14285714285738,[1.24107695]
1.3632234279894415e-18,0.39438451377105394,3.924765728398861e-18,0.39438451377105394,-6.728617974751348e-19,-0.028118872331745596,3.924765728398861e-18,-0.028118872331745596,-3.7165779133017944e-18,0.395385654372588,-3.154217001859305e-18,-0.39538565437258794,0.570453733208251,0.5909019178658493,0.5704537332082509,100.0,32.14285714285738,[1.24107695]
1.670216623087472e-18,0.37230255955101743,3.1164921899021113e-18,0.37230255955101743,-6.990437182236633e-19,-0.034635965215548875,3.1164921899021113e-18,-0.034635965215548875,-4.417486923806765e-18,0.37391021105962274,-3.741809393797846e-18,-0.3739102110596228,0.5613017724674443,0.6081781321700167,0.5613017724674444,100.0,32.14285714285738,[1.23832864]
1.4603542842378682e-18,0.32220775640340155,2.105904387344092e-18,0.32220775640340155,-1.2320085946007673e-18,-0.04908016536508863,2.105904387344092e-18,-0.04908016536508863,-5.3226623963174174e-18,0.3259243791415092,-4.881050567646514e-18,-0.32592437914150907,0.5352453966896585,0.6534712929005065,0.5352453966896588,100.0,32.14285714285738,[0.68979738]
-9.904362869689434e-19,0.14495296050769632,3.624983583688338e-19,0.14495296050769632,-5.563454672631604e-18,-0.07923522558924868,3.624983583688338e-19,-0.07923522558924868,-7.360884229304218e-18,0.1651955863034026,-8.575525610662646e-18,-0.16519558630340256,0.34491423530023485,0.872965257369678,0.34491423530023474,100.0,32.14285714285738,[0.42343577]
-1.2163062250326732e-18,0.13946148104914366,3.4963632022909366e-19,0.13946148104914366,-5.4916578770038386e-18,-0.07493389175201717,3.4963632022909366e-19,-0.07493389175201717,-7.456861995778746e-18,0.15831801170278662,-5.206748274256183e-18,-0.15831801170278678,0.47739361255291096,0.7376928069239674,0.477393612552911,100.0,19.285714285714306,[0.44704403]
1.2488640539427603e-18,0.31540830618521776,1.6715498831385426e-18,0.31540830618521776,-1.0308283434605203e-18,-0.04389454458281727,1.6715498831385426e-18,-0.04389454458281727,-6.0922819915847175e-18,0.31844800306291937,-5.7256802861733835e-18,-0.31844800306291915,0.6288642210429247,0.4572303390897763,0.6288642210429247,100.0,19.285714285714306,[0.72047199]
1.4490947017397964e-18,0.3663777672605735,2.285644375500906e-18,0.3663777672605735,-3.620023601940317e-19,-0.030306243641018242,2.285644375500906e-18,-0.030306243641018242,-5.837211750717253e-18,0.36762907494711505,-5.3560416062963935e-18,-0.3676290749471152,0.6459020170482994,0.40696580783387226,0.6459020170482996,100.0,19.285714285714306,[0.91502114]
1.115376955411403e-18,0.3884200371613173,2.7139875513998796e-18,0.3884200371613173,-2.2729434307854605e-19,-0.023915630030028747,2.7139875513998796e-18,-0.023915630030028747,-5.759683420625108e-18,0.3891556020772825,-5.405929397560993e-18,-0.3891556020772826,0.6518123616659208,0.3876613088238109,0.6518123616659208,100.0,19.285714285714306,[0.91573234]
6.346063485057824e-19,0.39998084892807195,3.077711067653481e-18,0.39998084892807195,-2.430984558619842e-19,-0.02027777445599499,3.077711067653481e-18,-0.02027777445599499,-5.7291604560219016e-18,0.40049452885914594,-5.39969518717947e-18,-0.4004945288591459,0.6547455636290336,0.37764599007032773,0.6547455636290337,100.0,19.285714285714306,[0.91659636]
4.042597089669157e-20,0.40644707165824495,3.408588482553521e-18,0.40644707165824495,-3.2245816383032167e-19,-0.01798454454239145,3.408588482553521e-18,-0.01798454454239145,-5.744218451892817e-18,0.40684476880250015,-5.430421144230584e-18,-0.4068447688025002,0.6564501511069217,0.37168050557353566,0.6564501511069218,100.0,19.285714285714306,[0.91659636]
-5.993353671865213e-19,0.409882137157458,3.7184686413869375e-18,0.409882137157458,-4.498406694410377e-19,-0.016474546121223226,3.7184686413869375e-18,-0.016474546121223226,-5.7611078256399246e-18,0.410213087346888,-5.452667607879067e-18,-0.410213087346888,0.6575085492124797,0.3679198491859342,0.6575085492124798,100.0,19.285714285714306,[0.91744357]
-1.3020418411625694e-18,0.41116874181235014,4.0164406047244644e-18,0.41116874181235014,-6.195483526348671e-19,-0.015493974924001116,4.0164406047244644e-18,-0.015493974924001116,-5.7982780136456075e-18,0.4114605661573131,-5.486048200202961e-18,-0.411460566157313,0.6581586501943164,0.36558772182444865,0.6581586501943164,100.0,19.285714285714306,[0.91860734]
-1.991453868333665e-18,0.41064009372735416,4.304941970433719e-18,0.41064009372735416,-8.148274972851609e-19,-0.014929334077547833,4.304941970433719e-18,-0.014929334077547833,-5.838093525250235e-18,0.4109113914123205,-5.525711678237452e-18,-0.4109113914123205,0.6585005198670387,0.3643544025666201,0.6585005198670388,100.0,19.285714285714306,[0.91860734]
-2.7432684009157614e-18,0.40827255101708526,4.585002888570058e-18,0.40827255101708526,-1.0324901493111394e-18,-0.014750904892135295,4.585002888570058e-18,-0.014750904892135295,-5.889846907455228e-18,0.4085389395261305,-5.5548134404370846e-18,-0.4085389395261304,0.6585587060718845,0.3641440117781027,0.6585587060718845,100.0,19.285714285714306,[0.91659636]
-3.529268653853449e-18,0.40367806389873495,4.8555084230653385e-18,0.40367806389873495,-1.2837280624006453e-18,-0.015003269868344651,4.8555084230653385e-18,-0.015003269868344651,-5.946348306376275e-18,0.4039567766231599,-5.576587708359059e-18,-0.4039567766231599,0.658291855132678,0.3651077470171714,0.658291855132678,100.0,19.285714285714306,[0.91659636]
-4.3619351282289285e-18,0.3958905403474115,5.111863172026521e-18,0.3958905403474115,-1.5805469359642736e-18,-0.015835514600068233,5.111863172026521e-18,-0.015835514600068233,-6.018314674029613e-18,0.3962071219188449,-5.600375619982476e-18,-0.39620712191884494,0.657558834350876,0.36774006952497584,0.657558834350876,100.0,19.285714285714306,[0.91659636]
-5.294988241743843e-18,0.38268684304275785,5.340314844179605e-18,0.38268684304275785,-1.9412605487639475e-18,-0.01760862819789462,5.340314844179605e-18,-0.01760862819789462,-6.109069622116481e-18,0.38309174309170907,-5.612292510319223e-18,-0.3830917430917091,0.6559862106164108,0.3733151255470955,0.6559862106164109,100.0,19.285714285714306,[0.91873695]
-6.44753538516093e-18,0.3582946190698282,5.525818161555594e-18,0.3582946190698282,-2.4932514064103837e-18,-0.021247230110317452,5.525818161555594e-18,-0.021247230110317452,-6.240793171581876e-18,0.3589240572067497,-5.582043111012042e-18,-0.3589240572067495,0.6524308300466063,0.38557492658287906,0.6524308300466065,100.0,19.285714285714306,[0.76886947]
-8.149224576194818e-18,0.3030026628979066,5.592731282846846e-18,0.3030026628979066,-3.540528236351521e-18,-0.029609300434868313,5.592731282846846e-18,-0.029609300434868313,-6.498406992832941e-18,0.30444593016735294,-5.4540067883926845e-18,-0.304445930167353,0.6415487807337179,0.42051197828142756,0.6415487807337179,100.0,19.285714285714306,[0.71217792]
-1.235678133234175e-17,0.11515219346783209,5.244116634071832e-18,0.11515219346783209,-8.390152510129464e-18,-0.04591527861265578,5.244116634071832e-18,-0.04591527861265578,-7.628841944115259e-18,0.12396870762628297,-5.2702833324734675e-18,-0.12396870762628305,0.5334606787599416,0.6563835833062593,0.5334606787599417,100.0,19.285714285714306,[0.40640133]
-1.3097471940046235e-17,0.11207449282988596,5.226854201868463e-18,0.11207449282988596,-8.433698606296705e-18,-0.03966067341431676,5.226854201868463e-18,-0.03966067341431676,-7.88889760253458e-18,0.11888507458362159,-5.087271949085443e-18,-0.11888507458362162,0.635995447919246,0.43705786853916234,0.635995447919246,100.0,6.428571428571418,[0.40969871]
-1.0109748507063901e-17,0.29913810151572306,4.978295526783016e-18,0.29913810151572306,-3.64986827844123e-18,-0.02199489285824109,4.978295526783016e-18,-0.02199489285824109,-7.546904741358206e-18,0.29994562688973564,-6.8211168647810526e-18,-0.29994562688973575,0.6949633455839809,0.18453155987375378,0.6949633455839809,100.0,6.428571428571418,[0.33605816]
-9.645799445095159e-18,0.35485452843551685,4.339882286303112e-18,0.35485452843551685,-2.6731334111386153e-18,-0.014788303052875703,4.339882286303112e-18,-0.014788303052875703,-8.063217644824005e-18,0.35516254061820307,-7.706584149113374e-18,-0.3551625406182031,0.6987547392068318,0.15324369113273417,0.6987547392068317,100.0,6.428571428571418,[0.27711783]
-9.760837107244133e-18,0.3791638400686318,3.615377328439607e-18,0.3791638400686318,-2.2144749963677623e-18,-0.011251446880811035,3.615377328439607e-18,-0.011251446880811035,-8.694025579956944e-18,0.3793307431154279,-8.480476636808152e-18,-0.3793307431154278,0.700003165213429,0.14139001868010873,0.7000031652134289,100.0,6.428571428571418,[0.3784286]
-1.0090213809717849e-17,0.39204957122051876,2.8544143850778272e-18,0.39204957122051876,-1.9219971666588126e-18,-0.009091673851727454,2.8544143850778272e-18,-0.009091673851727454,-9.35522082207263e-18,0.392154975523222,-9.223318108458501e-18,-0.3921549755232221,0.7006362921915829,0.13497248655952904,0.7006362921915829,100.0,6.428571428571418,[0.37759]
-1.0489589844348251e-17,0.39938380046940775,2.0812761702798796e-18,0.39938380046940775,-1.7041310282021461e-18,-0.00759125620326297,2.0812761702798796e-18,-0.00759125620326297,-1.0031609717679692e-17,0.39945593905727717,-9.952180607459547e-18,-0.39945593905727717,0.7010291854360255,0.13082875193857596,0.7010291854360253,100.0,6.428571428571418,[0.37759]
-1.0956794689208002e-17,0.40342417367176225,1.288569343730765e-18,0.40342417367176225,-1.530217958774097e-18,-0.006460665548094858,1.288569343730765e-18,-0.006460665548094858,-1.0725362788705466e-17,0.4034759027526531,-1.0684333607756035e-17,-0.4034759027526531,0.7013028304432026,0.12786195690941524,0.7013028304432025,100.0,6.428571428571418,[0.37759]
-1.1491285713815266e-17,0.4051426199883235,4.985078407805951e-19,0.4051426199883235,-1.3875061420515482e-18,-0.00556273797854099,4.985078407805951e-19,-0.00556273797854099,-1.1421286381658579e-17,0.40518080727598754,-1.140769961468624e-17,-0.40518080727598754,0.701507479585496,0.12559662484004097,0.7015074795854958,100.0,6.428571428571418,[0.37759]
-1.2048567218659592e-17,0.4049144897397849,-2.9368179109052067e-19,0.4049144897397849,-1.2681274360478952e-18,-0.00482632006864605,-2.9368179109052067e-19,-0.00482632006864605,-1.2121822333707288e-17,0.4049432520324735,-1.2128838461008854e-17,-0.40494325203247344,0.7016671351856871,0.1238000920864816,0.701667135185687,100.0,6.428571428571418,[0.37759]
-1.2635693400004832e-17,0.4027313743155957,-1.0909585837288376e-18,0.4027313743155957,-1.1731671017268077e-18,-0.004214376381783999,-1.0909585837288376e-18,-0.004214376381783999,-1.2834296156356364e-17,0.4027534243509493,-1.2856940809522944e-17,-0.4027534243509492,0.7017937360357188,0.12235646334401949,0.7017937360357187,100.0,6.428571428571418,[0.37759]
-1.3262974237005845e-17,0.3981984087124026,-1.890371983889379e-18,0.3981984087124026,-1.1205319449888334e-18,-0.0037121713423098435,-1.890371983889379e-18,-0.0037121713423098435,-1.3545684718041768e-17,0.39821571153981883,-1.3580866429779536e-17,-0.39821571153981883,0.701892079468641,0.12122300754548973,0.7018920794686409,100.0,6.428571428571418,[0.37759]
-1.39564559927907e-17,0.3903139580281594,-2.6976026544288527e-18,0.3903139580281594,-1.1026251390882855e-18,-0.003326330714390096,-2.6976026544288527e-18,-0.003326330714390096,-1.4268197204604785e-17,0.3903281315862709,-1.4314102190280666e-17,-0.39032813158627105,0.7019604425694574,0.1204287097638366,0.7019604425694577,100.0,6.428571428571418,[0.37672598]
-1.473892914759646e-17,0.37676343536516266,-3.5024762738128566e-18,0.37676343536516266,-1.174794993172312e-18,-0.00309652078373684,-3.5024762738128566e-18,-0.00309652078373684,-1.500970175803202e-17,0.3767761599001762,-1.5067242931146083e-17,-0.3767761599001763,0.7019862492228081,0.1201274814694272,0.7019862492228078,100.0,6.428571428571418,[0.3784286]
-1.5748221843809164e-17,0.35153724018725174,-4.310893948531344e-18,0.35153724018725174,-1.3967308602427396e-18,-0.0031375630270170825,-4.310893948531344e-18,-0.0031375630270170825,-1.5767756541155216e-17,0.3515512416991555,-1.5844683349808878e-17,-0.3515512416991556,0.7019260641500737,0.12082880837603598,0.7019260641500737,100.0,6.428571428571418,[0.27225689]
-1.7342470199439766e-17,0.2942002459426649,-5.146171832100653e-18,0.2942002459426649,-2.1317238478879574e-18,-0.0037631843344129606,-5.146171832100653e-18,-0.0037631843344129606,-1.6632438213958948e-17,0.2942243128449097,-1.676433225953566e-17,-0.29422431284490963,0.7015905561194422,0.12466508383674683,0.7015905561194422,100.0,6.428571428571418,[0.27303047]
-2.1553282738477706e-17,0.10281072436165031,-5.989911359746074e-18,0.10281072436165031,-6.670013882713192e-18,-0.0029926672415774816,-5.989911359746074e-18,-0.0029926672415774816,-1.8262500181390645e-17,0.10285427118494422,-1.8614396314194856e-17,-0.10285427118494422,0.7000595774141434,0.14083030973999197,0.7000595774141432,100.0,6.428571428571418,[0.15584591]
-2.1318866370325078e-17,0.10275331143165607,-5.7141194173535436e-18,0.10275331143165607,-6.6743549265678705e-18,0.003975297296160763,-5.7141194173535436e-18,0.003975297296160763,-1.8016145942637653e-17,0.10283018038865711,-1.758061741851e-17,-0.10283018038865718,0.6990747258818683,0.1502965577329737,0.6990747258818684,100.0,6.428571428571418,[0.15584591]
-1.6613174831853813e-17,0.2940281354428829,-4.942922802248411e-18,0.2940281354428829,-2.1130030962646573e-18,0.004768479792240141,-4.942922802248411e-18,0.004768479792240141,-1.5896088650109143e-17,0.2940667999478134,-1.573579442908175e-17,-0.29406679994781343,0.7012844494817781,0.12806342893300474,0.7012844494817783,100.0,6.428571428571418,[0.27303047]
-1.453598534739025e-17,0.3512506827869522,-4.153531108799256e-18,0.3512506827869522,-1.350064638804948e-18,0.0041655081180861225,-4.153531108799256e-18,0.0041655081180861225,-1.4541140336967682e-17,0.35127538145475273,-1.444266117135576e-17,-0.3512753814547528,0.7016724102003439,0.12374028255697919,0.7016724102003439,100.0,6.428571428571418,[0.27225689]
-1.3041581000417252e-17,0.37636277672999674,-3.350488867291445e-18,0.37636277672999674,-1.1053382914974594e-18,0.004147205745071695,-3.350488867291445e-18,0.004147205745071695,-1.3291462337302171e-17,0.3763856254207982,-1.3217613047428909e-17,-0.37638562542079823,0.7017456427153563,0.1229068991555092,0.7017456427153564,100.0,6.428571428571418,[0.3784286]
-1.1777251977742199e-17,0.3897996380664132,-2.5360683428676598e-18,0.3897996380664132,-1.0136337400673805e-18,0.004399855962283608,-2.5360683428676598e-18,0.004399855962283608,-1.2062132980705461e-17,0.3898244689205588,-1.2004801496465844e-17,-0.38982446892055883,0.7017223019953426,0.12317313735029457,0.7017223019953426,100.0,6.428571428571418,[0.37672598]
-1.060625539794273e-17,0.39757096067811615,-1.7199012265804696e-18,0.39757096067811615,-1.004951652358024e-18,0.0048086257353787834,-1.7199012265804696e-18,0.0048086257353787834,-1.084664070139554e-17,0.39760003980882985,-1.0805006294446218e-17,-0.3976000398088299,0.7016517496566447,0.12397436996225371,0.7016517496566449,100.0,6.428571428571418,[0.37759]
-9.473242951871697e-18,0.4019914237727752,-9.019875184298733e-19,0.4019914237727752,-1.0440210470501286e-18,0.005333831908436411,-9.019875184298733e-19,0.005333831908436411,-9.646884706058828e-18,0.40202680824752274,-9.622929688921411e-18,-0.4020268082475227,0.7015484097878033,0.12513855300589363,0.7015484097878032,100.0,6.428571428571418,[0.37759]
-8.409687207475516e-18,0.40406275339861225,-7.793530295352116e-20,0.40406275339861225,-1.114020379206816e-18,0.0059688304056314265,-7.793530295352116e-20,0.0059688304056314265,-8.452012385058629e-18,0.40410683688905713,-8.449835022712855e-18,-0.40410683688905724,0.7014146027337326,0.12662981538231735,0.7014146027337328,100.0,6.428571428571418,[0.37759]
-7.387371379698779e-18,0.40417990442555796,7.4272547201136355e-19,0.40417990442555796,-1.2165775402735906e-18,0.006728338326791667,7.4272547201136355e-19,0.006728338326791667,-7.25605480309476e-18,0.4042359034995444,-7.280904712922567e-18,-0.40423590349954436,0.7012455364305124,0.12848889163101407,0.7012455364305122,100.0,6.428571428571418,[0.37759]
-6.375908161558738e-18,0.4023513739429562,1.5707795872912474e-18,0.4023513739429562,-1.337041507240913e-18,0.007649373051459677,1.5707795872912474e-18,0.007649373051459677,-6.071492461249422e-18,0.40242408106606264,-6.131123942916478e-18,-0.4024240810660626,0.7010287921896923,0.130832966190186,0.7010287921896922,100.0,6.428571428571418,[0.37759]
-5.410025903892818e-18,0.39820189865792993,2.405277439542919e-18,0.39820189865792993,-1.4873501507091489e-18,0.008803070787742642,2.405277439542919e-18,0.008803070787742642,-4.886387488922249e-18,0.39829919175172124,-4.9933164161772e-18,-0.3982991917517212,0.7007391957855409,0.13389980948331007,0.7007391957855409,100.0,6.428571428571418,[0.37759]
-4.511429825974412e-18,0.3907596349751336,3.247270375324934e-18,0.3907596349751336,-1.6892086899516895e-18,0.01032657962205219,3.247270375324934e-18,0.01032657962205219,-3.720817213941129e-18,0.39089606108605174,-3.8918252956379476e-18,-0.3908960610860518,0.7003238950436527,0.1381770026515773,0.7003238950436528,100.0,6.428571428571418,[0.37672598]
-3.6985693641859024e-18,0.37776702130005585,4.105983112828483e-18,0.37776702130005585,-1.958896039423578e-18,0.012509414733452587,4.105983112828483e-18,0.012509414733452587,-2.5617585047420254e-18,0.37797408355453466,-2.835760170760664e-18,-0.37797408355453466,0.6996554748191427,0.14479099803233428,0.6996554748191428,100.0,6.428571428571418,[0.3784286]
-3.1233810534410295e-18,0.35335206277045866,4.996778877570514e-18,0.35335206277045866,-2.3973414687460852e-18,0.016069297017701385,4.996778877570514e-18,0.016069297017701385,-1.4433970816805312e-18,0.3537172636029819,-1.899356086808159e-18,-0.3537172636029819,0.6983384556126805,0.15699300247142425,0.6983384556126806,100.0,6.428571428571418,[0.29446695]
-3.0821411368215854e-18,0.29753131130284066,5.984807241776315e-18,0.29753131130284066,-3.355626899666318e-18,0.023298892393335848,5.984807241776315e-18,0.023298892393335848,-4.357322769133333e-19,0.2984421545163219,-1.417480700023633e-18,-0.29844215451632183,0.6943353887477925,0.18920025334259927,0.6943353887477924,100.0,6.428571428571418,[0.39502927]
-5.597776050607654e-18,0.11036480654148889,7.34826807060156e-18,0.11036480654148889,-8.104728876684366e-18,0.040987767862598945,7.34826807060156e-18,0.040987767862598945,-2.8759415537243666e-19,0.11773014752941818,-5.271087504893286e-18,-0.11773014752941818,0.6311379996718279,0.45092089188735474,0.6311379996718276,100.0,6.428571428571418,[0.40969871]
-4.536390828138812e-18,0.1133411095254496,8.15068289561475e-18,0.1133411095254496,-8.149224576194818e-18,0.047283891024222154,8.15068289561475e-18,0.047283891024222154,3.727871410204981e-19,0.1228086864144816,-4.615581747848181e-18,-0.12280868641448169,0.5260542921532658,0.6682318186185483,0.5260542921532657,100.0,19.28571428571425,[0.40640133]
-1.8883540767850558e-19,0.3010930071708665,7.81910175680858e-18,0.3010930071708665,-3.47717612759731e-18,0.031042641299042602,7.81910175680858e-18,0.031042641299042602,1.8205252665557075e-18,0.3026890228369978,2.2648754297637487e-19,-0.3026890228369976,0.6399558626828018,0.4253386740420174,0.6399558626828017,100.0,19.28571428571425,[0.72047199]
1.6409145770683935e-18,0.35628803444448964,7.900699815514486e-18,0.35628803444448964,-2.6078820956979823e-18,0.022744373049223915,7.900699815514486e-18,0.022744373049223915,2.3946283163369113e-18,0.35701326305015635,1.377044752575737e-18,-0.35701326305015646,0.6511921283273167,0.3897404572392752,0.6511921283273167,100.0,19.28571428571425,[0.77091998]
2.9193519922711495e-18,0.3805851223999628,8.105712394432692e-18,0.3805851223999628,-2.250831238650693e-18,0.019168965577124508,8.105712394432692e-18,0.019168965577124508,2.8401279419232707e-18,0.38106755914600193,2.0263065239386957e-18,-0.381067559146002,0.6548333649705012,0.37734139481750595,0.6548333649705012,100.0,19.28571428571425,[0.91743496]
3.989419302449348e-18,0.39369555974899356,8.36196963947917e-18,0.39369555974899356,-2.065251613863196e-18,0.017458482817447482,8.36196963947917e-18,0.017458482817447482,3.248728694744865e-18,0.3940824690193165,2.516622172461363e-18,-0.39408246901931654,0.6564247172621602,0.3717703338549028,0.6564247172621602,100.0,19.28571428571425,[0.91659636]
4.963983647824624e-18,0.40139176434954865,8.633284880396562e-18,0.40139176434954865,-1.9426171249685344e-18,0.01668828760414362,8.633284880396562e-18,0.01668828760414362,3.6350815978112325e-18,0.401738531175194,2.91301736424647e-18,-0.401738531175194,0.6571488059273389,0.36920305217663857,0.6571488059273389,100.0,19.28571428571425,[0.91659636]
5.871261813452386e-18,0.40589693098929086,8.921353837440604e-18,0.40589693098929086,-1.869904640402673e-18,0.01649735847609749,8.921353837440604e-18,0.01649735847609749,4.011124521722739e-18,0.4062320536629453,3.289652120867457e-18,-0.40623205366294535,0.6573913861400982,0.3683383374800949,0.6573913861400983,100.0,19.28571428571425,[0.91659636]
6.741641106315384e-18,0.4081772042201271,9.217562251712168e-18,0.4081772042201271,-1.8340910286015772e-18,0.016736573873727154,9.217562251712168e-18,0.016736573873727154,4.3757722055157156e-18,0.40852018671050994,3.628529995492503e-18,-0.40852018671050994,0.6572979963860355,0.3686715176058568,0.6572979963860355,100.0,19.28571428571425,[0.91659636]
7.592485701832328e-18,0.40862068230449045,9.523639757872102e-18,0.40862068230449045,-1.816726853182864e-18,0.017361315273524688,9.523639757872102e-18,0.017361315273524688,4.734993584490344e-18,0.40898933638300894,3.931581035897404e-18,-0.4089893363830089,0.6569109791811498,0.37004855203408893,0.6569109791811497,100.0,19.28571428571425,[0.91659636]
8.410772468439185e-18,0.4072510520333871,9.843181282862562e-18,0.4072510520333871,-1.824323679928551e-18,0.018401266846310806,9.843181282862562e-18,0.018401266846310806,5.084447614791946e-18,0.4076665622832582,4.208074785860436e-18,-0.4076665622832581,0.6562043835863225,0.37254746533051086,0.6562043835863227,100.0,19.28571428571425,[0.91659636]
9.18564879649926e-18,0.40373514709815056,1.0171167494726576e-17,0.40373514709815056,-1.867734118475334e-18,0.019969893537976846,1.0171167494726576e-17,0.019969893537976846,5.425219557384192e-18,0.40422872937271975,4.423587837527097e-18,-0.40422872937271975,0.6550737674885011,0.37650593394638815,0.6550737674885011,100.0,19.28571428571425,[0.91659636]
9.92145572986723e-18,0.39719031052266257,1.0519366692038935e-17,0.39719031052266257,-1.958896039423578e-18,0.022320971734064318,1.0519366692038935e-17,0.022320971734064318,5.743201019739377e-18,0.397817003850064,4.5533485365552224e-18,-0.39781700385006413,0.6532711303149061,0.3827187748127459,0.6532711303149064,100.0,19.28571428571425,[0.91659636]
1.0553077610722921e-17,0.3855531491851674,1.089866539884145e-17,0.3855531491851674,-2.1281967497560313e-18,0.0260158750130117,1.089866539884145e-17,0.0260158750130117,6.041647784748509e-18,0.386429885748104,4.582775466726656e-18,-0.3864298857481039,0.6501890983805012,0.39307540331888174,0.6501890983805013,100.0,19.28571428571425,[0.91873695]
1.0989352518118089e-17,0.363436836930114,1.1344843312530103e-17,0.363436836930114,-2.4646276484935987e-18,0.032462732559041196,1.1344843312530103e-17,0.032462732559041196,6.272808370010129e-18,0.3648837670313194,4.228058669983414e-18,-0.36488376703131936,0.6440019974975612,0.41294412992353136,0.6440019974975612,100.0,19.28571428571425,[0.91735694]
1.0945942079571306e-17,0.3123957089752923,1.1979856633897262e-17,0.3123957089752923,-3.3057048953375176e-18,0.046106531305161985,1.1979856633897262e-17,0.046106531305161985,6.334668244939294e-18,0.3157798144517304,3.038079462896828e-18,-0.31577981445173037,0.6261745262623151,0.46455454504323906,0.6261745262623147,100.0,19.28571428571425,[0.72047199]
8.614801529609065e-18,0.13637978089143138,1.3317779915671158e-17,0.13637978089143138,-7.946280775988608e-18,0.07720094528671492,1.3317779915671158e-17,0.07720094528671492,5.292817719816504e-18,0.15671448748969322,-6.300436362934149e-18,-0.1567144874896931,0.46577535662037506,0.7524005810273707,0.4657753566203751,100.0,19.28571428571425,[0.44587203]
8.571391091062282e-18,0.14180599814047984,1.298402825493765e-17,0.14180599814047984,-7.94193973213393e-18,0.0815693641129654,1.298402825493765e-17,0.0815693641129654,4.985688867098015e-18,0.16359248842905755,-5.1104821995825534e-18,-0.16359248842905733,0.33140907361340727,0.883366318043317,0.3314090736134071,100.0,32.142857142857125,[0.42343577]
1.0312149676788276e-17,0.3190035781566681,1.0589806911462113e-17,0.3190035781566681,-3.2861701979914653e-18,0.051502221921916294,1.0589806911462113e-17,0.051502221921916294,5.910331208144491e-18,0.32313427818733764,2.730597150327717e-18,-0.32313427818733764,0.5311102203933886,0.6601847223219972,0.5311102203933885,100.0,32.142857142857125,[0.68979738]
9.832464330846325e-18,0.36904299432285514,8.923185215316797e-18,0.36904299432285514,-2.4353256024745203e-18,0.03714397501374202,8.923185215316797e-18,0.03714397501374202,5.6954495373379155e-18,0.3709075444616898,3.989818383193133e-18,-0.37090754446168983,0.5580403093831515,0.6141514684563677,0.5580403093831517,100.0,32.142857142857125,[1.24027513]
8.844876853907014e-18,0.39107166636585955,7.453877528128655e-18,0.39107166636585955,-2.0945536598822746e-18,0.030711381752959205,7.453877528128655e-18,0.030711381752959205,5.285220893070817e-18,0.39227571579610443,4.14627648749107e-18,-0.39227571579610443,0.567433618471348,0.5966893473634547,0.5674336184713479,100.0,32.142857142857125,[1.24107695]
7.698841276271946e-18,0.4030447206378517,6.065252210708322e-18,0.4030447206378517,-1.9144003399131256e-18,0.0273683696627884,6.065252210708322e-18,0.0273683696627884,4.801194503274188e-18,0.4039728635589807,3.971205263433455e-18,-0.4039728635589807,0.5718617821039219,0.588173617512596,0.5718617821039218,100.0,32.142857142857125,[1.24107695]
6.459473255761295e-18,0.4101694118500715,4.712847477950462e-18,0.4101694118500715,-1.8080447654735075e-18,0.025563665099209532,4.712847477950462e-18,0.025563665099209532,4.28786606745848e-18,0.4109652629976628,3.7156731722951714e-18,-0.4109652629976626,0.5741636233304294,0.5836713692551192,0.5741636233304293,100.0,32.142857142857125,[1.24308793]
5.165842187067164e-18,0.4144470656210275,3.3779425782317735e-18,0.4144470656210275,-1.755952239217368e-18,0.02468644381523024,3.3779425782317735e-18,0.02468644381523024,3.750661890442042e-18,0.4151816358054904,3.372864147484363e-18,-0.4151816358054902,0.5752962880840028,0.581436464141644,0.5752962880840025,100.0,32.142857142857125,[1.24308793]
3.859187986808999e-18,0.41674993202303057,2.065149870647852e-18,0.41674993202303057,-1.7450996295806723e-18,0.024474671768629604,2.065149870647852e-18,0.024474671768629604,3.203690364752578e-18,0.4174679812864485,2.962187957944917e-18,-0.4174679812864488,0.5756391303586557,0.5807574219929194,0.5756391303586557,100.0,32.142857142857125,[1.24308793]
2.5156349137860686e-18,0.4174341722168999,7.678560462013371e-19,0.4174341722168999,-1.7364175418713157e-18,0.02483326043191425,7.678560462013371e-19,0.02483326043191425,2.6426104465354086e-18,0.4181721881690455,2.5421517991167763e-18,-0.41817218816904556,0.5753268187507712,0.5813760428949875,0.5753268187507713,100.0,32.142857142857125,[1.24308793]
1.1351829679983726e-18,0.4165339652967908,-5.180425381266474e-19,0.4165339652967908,-1.7668048488540637e-18,0.025778708399273306,-5.180425381266474e-19,0.025778708399273306,2.065251613863196e-18,0.41733090713797244,2.131342862830158e-18,-0.41733090713797244,0.5743428390198819,0.5833186149379802,0.574342839019882,100.0,32.142857142857125,[1.24308793]
-2.6914471899005393e-19,0.413772430867165,-1.790307531598533e-18,0.413772430867165,-1.8254089408922206e-18,0.02744436159059331,-1.790307531598533e-18,0.02744436159059331,1.4683580838449313e-18,0.41468158571226454,1.7057017750175043e-18,-0.41468158571226454,0.5725139566016539,0.5869033472324374,0.572513956601654,100.0,32.142857142857125,[1.24308793]
-1.7147123225979244e-18,0.4083978650667244,-3.0330330782155372e-18,0.4083978650667244,-1.9295939934044996e-18,0.030150384782115628,-3.0330330782155372e-18,0.030150384782115628,8.486740735896056e-19,0.4095092940258719,1.2841284617505879e-18,-0.4095092940258719,0.5694012311643863,0.5929287275018497,0.5694012311643862,100.0,32.142857142857125,[1.24192416]
-3.2427597594446824e-18,0.39863976865676914,-4.2373675182427304e-18,0.39863976865676914,-2.1097473133736486e-18,0.03461884472365119,-4.2373675182427304e-18,0.03461884472365119,1.8340910286015772e-19,0.400140137407787,9.425534648854785e-19,-0.4001401374077871,0.5639315185653497,0.6032930338874778,0.5639315185653497,100.0,32.142857142857125,[1.24107695]
-4.89669746807711e-18,0.3798479970820074,-5.3493869475477806e-18,0.3798479970820074,-2.4657129094572683e-18,0.04266940111293867,-5.3493869475477806e-18,0.04266940111293867,-5.78444093635882e-19,0.3822370713033335,5.895404349958224e-19,-0.3822370713033334,0.5529863825324466,0.6232271828694232,0.5529863825324465,100.0,32.142857142857125,[1.25114891]
-6.976057474468011e-18,0.33589624385631667,-6.2244464283166034e-18,0.33589624385631667,-3.3230690707562308e-18,0.06001899408926731,-6.2244464283166034e-18,0.06001899408926731,-1.609442009121976e-18,0.3412163042532842,1.83503428651552e-19,-0.34121630425328414,0.5232162930057355,0.6726733393458322,0.5232162930057355,100.0,32.142857142857125,[0.68979738]
-1.0967647298844698e-17,0.17574230129262475,-6.211389382347454e-18,0.17574230129262475,-7.974497561044017e-18,0.09835454834938942,-6.211389382347454e-18,0.09835454834938942,-4.1120537913440095e-18,0.2013925858730657,-7.570625509734597e-19,-0.2013925858730655,0.338740790259805,0.8777866221516056,0.338740790259805,100.0,32.142857142857125,[0.79635768]
-1.027742132595085e-17,0.18253873871779772,-5.752866625197059e-18,0.18253873871779772,-8.015737477663461e-18,0.0999266319143008,-5.752866625197059e-18,0.0999266319143008,-4.5993359640316474e-18,0.2081002712598439,5.0433423482587785e-18,-0.20810027125984393,0.19849110792446653,0.9597929777560553,0.1984911079244666,100.0,45.0,[0.82746505]
-5.53266039278748e-18,0.3442281482002678,-4.994031810756225e-18,0.3442281482002678,-3.4207425574864923e-18,0.0619878398340269,-4.994031810756225e-18,0.0619878398340269,-2.4602866046389204e-18,0.34976493577926665,-4.717660505728132e-19,-0.34976493577926626,0.40347141679227666,0.8212317770661739,0.40347141679227677,100.0,45.0,[0.844936]
-2.6502072732810956e-18,0.3869925918064503,-3.3386018682987516e-18,0.3869925918064503,-2.6350136197897216e-18,0.044413027878172355,-3.3386018682987516e-18,0.044413027878172355,-1.8264942018558902e-18,0.3895327754610401,-1.0520090758603503e-18,-0.38953277546104026,0.43973137244075317,0.7831172582587766,0.4397313724407531,100.0,45.0,[1.2787325]
-1.6713018840511414e-19,0.4057368433775976,-1.4302382924960376e-18,0.4057368433775976,-2.3506752473082936e-18,0.036397406544117404,-1.4302382924960376e-18,0.036397406544117404,-1.4911485640819924e-18,0.4073661219065165,-1.26575624816243e-18,-0.40736612190651644,0.453326156707549,0.767457354704172,0.4533261567075491,100.0,45.0,[1.2743683]
2.20742080010391e-18,0.41597551570680247,5.604016301148754e-19,0.41597551570680247,-2.237808107086658e-18,0.03208460811691152,5.604016301148754e-19,0.03208460811691152,-1.2643290226750517e-18,0.4172110398174478,-1.3595524233193332e-18,-0.4172110398174478,0.4600680122916494,0.7593911035375785,0.46006801229164956,100.0,45.0,[1.27744686]
4.497321433446708e-18,0.4221348004479822,2.6019131603977996e-18,0.4221348004479822,-2.2009092343218926e-18,0.02960396383494132,2.6019131603977996e-18,0.02960396383494132,-1.0939430513789289e-18,0.42317157799644145,-1.4194302461643713e-18,-0.42317157799644145,0.4637963145723623,0.7548416768953534,0.4637963145723623,100.0,45.0,[1.29517077]
6.759005281734097e-18,0.4259077625425492,4.664366835839035e-18,0.4259077625425492,-2.2182734097406058e-18,0.028215816333037765,4.664366835839035e-18,0.028215816333037765,-9.528591261018845e-19,0.4268413692290617,-1.5456310672343784e-18,-0.42684136922906163,0.4658545010852646,0.7523025771836745,0.4658545010852646,100.0,45.0,[1.29714174]
8.977278691474702e-18,0.4280330899777026,6.745863449752161e-18,0.4280330899777026,-2.2573428044327104e-18,0.027597102792068916,6.745863449752161e-18,0.027597102792068916,-8.345656810619012e-19,0.4289218182820457,-1.648857909880147e-18,-0.4289218182820456,0.4667936790782692,0.7511373525162677,0.4667936790782691,100.0,45.0,[1.29714174]
1.1186870013505951e-17,0.42881629887128364,8.845945157668127e-18,0.42881629887128364,-2.326799506107563e-18,0.02762107926683928,8.845945157668127e-18,0.02762107926683928,-7.423184991499875e-19,0.429704947839248,-1.823901679724678e-18,-0.4297049478392481,0.46682639055221054,0.751096692955035,0.4668263905522107,100.0,45.0,[1.29714174]
1.3379097160118489e-17,0.42829533024556443,1.0961254433480582e-17,0.42829533024556443,-2.417961427055807e-18,0.02828776890633961,1.0961254433480582e-17,0.02828776890633961,-6.576681439837608e-19,0.4292284796933394,-2.047994792735814e-18,-0.4292284796933395,0.46596111425901704,0.7521705125814162,0.4659611142590171,100.0,45.0,[1.29714174]
1.5549619087457632e-17,0.4262526732400578,1.3090553401402841e-17,0.4262526732400578,-2.53734013305946e-18,0.02972396269615217,1.3090553401402841e-17,0.02972396269615217,-6.0557561772762135e-19,0.4272877899058873,-2.3491261805637517e-18,-0.42728778990588717,0.46400660153575124,0.7545831613960687,0.4640066015357513,100.0,45.0,[1.30684243]
1.7681071620104672e-17,0.4220834467903661,1.525034141952319e-17,0.4220834467903661,-2.7131524091739308e-18,0.03225277339571705,1.525034141952319e-17,0.03225277339571705,-5.925524861635865e-19,0.4233139230478384,-2.784429733321831e-18,-0.4233139230478382,0.4604510413783325,0.7589266611387548,0.4604510413783324,100.0,45.0,[1.29703738]
1.976477267035025e-17,0.41435079663955554,1.7451369354262984e-17,0.41435079663955554,-2.956250865035915e-18,0.03661391640816874,1.7451369354262984e-17,0.03661391640816874,-6.4464501241972595e-19,0.41596533695799554,-3.522095108623046e-18,-0.4159653369579955,0.4540485067744131,0.7666028352359856,0.454048506774413,100.0,45.0,[1.27637928]
2.1735606580374194e-17,0.39924689733226204,1.9745780603486033e-17,0.39924689733226204,-3.370820553157692e-18,0.04467814330187789,1.9745780603486033e-17,0.04467814330187789,-8.334804200982316e-19,0.40173899676075875,-5.014908954439098e-18,-0.4017389967607589,0.44129242728399454,0.7813590642231014,0.44129242728399454,100.0,45.0,[1.2743683]
2.3411249508280014e-17,0.36328702794628903,2.228447731275008e-17,0.36328702794628903,-4.28895132842215e-18,0.06230200171271478,2.228447731275008e-17,0.06230200171271478,-1.3934750773517308e-18,0.368590564300633,-8.129405450026488e-18,-0.3685905643006328,0.40829182212608467,0.8164530457839712,0.4082918221260848,100.0,45.0,[1.27188857]
2.3589232306321824e-17,0.22056273232981885,2.5724500209544268e-17,0.22056273232981885,-9.014177564239468e-18,0.10029088639871787,2.5724500209544268e-17,0.10029088639871787,-3.843994333317625e-18,0.2422935838759167,-1.604457203558958e-17,-0.24229358387591662,0.24819445073026483,0.9363754745044343,0.24819445073026497,100.0,45.0,[0.83873755]
2.40537239987724e-17,0.22737570491584885,2.59163455206767e-17,0.22737570491584885,-8.936038774855258e-18,0.09876331227491977,2.59163455206767e-17,0.09876331227491977,-3.748491368514703e-18,0.24789897748375758,-1.6078378088922272e-17,-0.24789897748375725,0.10652535413685976,0.9885872231887449,0.10652535413685964,100.0,57.8571428571429,[0.90857338]
2.4218683665250176e-17,0.37167113092521104,2.2985657638495968e-17,0.37167113092521104,-4.067558091833557e-18,0.06047814229341039,2.2985657638495968e-17,0.06047814229341039,-5.122431748520381e-19,0.376559471077926,-7.040066125331162e-18,-0.3765594710779261,0.2751603487943988,0.9211805278568852,0.2751603487943989,100.0,57.8571428571429,[1.2718959]
2.2903347377282654e-17,0.4064790906147274,2.0957067496561735e-17,0.4064790906147274,-2.986638172018663e-18,0.043178793241590956,2.0957067496561735e-17,0.043178793241590956,8.204572885341968e-19,0.4087660202276798,-3.298804002518962e-18,-0.4087660202276798,0.3108542485930569,0.898186657807436,0.31085424859305694,100.0,57.8571428571429,[1.26215884]
2.1318866370325078e-17,0.42157091330183855,1.9166183420076252e-17,0.42157091330183855,-2.417961427055807e-18,0.035178887578803615,1.9166183420076252e-17,0.035178887578803615,1.740758585725994e-18,0.4230361557519976,-1.2423775797295947e-18,-0.4230361557519975,0.32511166587708806,0.8880342388789126,0.325111665877088,100.0,57.8571428571429,[1.27664266]
1.963888239856458e-17,0.42981974197629924,1.746208630627922e-17,0.42981974197629924,-2.0294380020621002e-18,0.03076162256530433,1.746208630627922e-17,0.03076162256530433,2.504782304149373e-18,0.43091912003927463,1.3045821410839415e-19,-0.4309191200392747,0.3325031200399934,0.882543681823931,0.3325031200399934,100.0,57.8571428571429,[1.2965757]
1.79154879882573e-17,0.4348095191841578,1.5802802839540592e-17,0.4348095191841578,-1.7060302348885679e-18,0.028107378157476208,1.5802802839540592e-17,0.028107378157476208,3.1993493208978996e-18,0.43571704428452845,1.216311858395323e-18,-0.4357170442845284,0.3367972090377342,0.8792811154396446,0.33679720903773425,100.0,57.8571428571429,[1.2965757]
1.616170627096727e-17,0.4378997207314217,1.4163126138258885e-17,0.4378997207314217,-1.4325444720438354e-18,0.026494098491154274,1.4163126138258885e-17,0.026494098491154274,3.85701746488166e-18,0.43870047033427745,2.191157246959088e-18,-0.4387004703342774,0.33935851236578396,0.877309295613448,0.339358512365784,100.0,57.8571428571429,[1.29779658]
1.438621933440385e-17,0.4396822603927806,1.2539285344515412e-17,0.4396822603927806,-1.1872754942545121e-18,0.02560161701098582,1.2539285344515412e-17,0.02560161701098582,4.477786736100655e-18,0.4404269892929837,3.0505480182721584e-18,-0.4404269892929836,0.3407640556432168,0.876218989045075,0.3407640556432168,100.0,57.8571428571429,[1.29779658]
1.2602050310131075e-17,0.4404033278745613,1.0939064874109146e-17,0.4404033278745613,-9.810759111572934e-19,0.025296578560363246,1.0939064874109146e-17,0.025296578560363246,5.070339222264242e-18,0.44112924193466124,3.83700518599256e-18,-0.4411292419346613,0.3412505335146207,0.8758402518450346,0.3412505335146208,100.0,57.8571428571429,[1.29779658]
1.0817881285858297e-17,0.44009714044344445,9.341879478004356e-18,0.44009714044344445,-7.705352842053963e-19,0.025562470159689335,9.341879478004356e-18,0.025562470159689335,5.63250440144508e-18,0.440838896772009,4.556046479320936e-18,-0.44083889677200894,0.3408528732039287,0.8761498945142052,0.3408528732039287,100.0,57.8571428571429,[1.29779658]
9.016348086166807e-18,0.4385968657226597,7.764667016949209e-18,0.4385968657226597,-6.207692712189954e-19,0.026494362441870364,7.764667016949209e-18,0.026494362441870364,6.172964361352527e-18,0.43939636077571476,5.2496077298670554e-18,-0.43939636077571476,0.3394175797630638,0.877263593850542,0.3394175797630638,100.0,57.8571428571429,[1.29779658]
7.188768623347247e-18,0.4354312140274362,6.2132249995242856e-18,0.4354312140274362,-5.0356108714268155e-19,0.02835427022154038,6.2132249995242856e-18,0.02835427022154038,6.654820229221818e-18,0.43635341959150853,5.863470701628793e-18,-0.4363534195915084,0.3365032593149984,0.8795061756126366,0.33650325931499847,100.0,57.8571428571429,[1.29779658]
5.317778721980904e-18,0.4294716188241744,4.701804099784996e-18,0.4294716188241744,-4.623211705232378e-19,0.03175300194358117,4.701804099784996e-18,0.03175300194358117,7.058537307706898e-18,0.4306438487983847,6.317585002991281e-18,-0.4306438487983847,0.3310332287456331,0.8836481216708847,0.3310332287456331,100.0,57.8571428571429,[1.2965757]
3.3816731627943877e-18,0.41769134934093016,3.2564611791110108e-18,0.41769134934093016,-5.925524861635865e-19,0.038241833410367417,3.2564611791110108e-18,0.038241833410367417,7.288612632004848e-18,0.41943831624785205,6.591827619574915e-18,-0.4194383162478519,0.32004854623062573,0.891705027523859,0.32004854623062573,100.0,57.8571428571429,[1.24766445]
1.2675848055660605e-18,0.3890462648397922,2.0214257238537585e-18,0.3890462648397922,-1.2350269766559733e-18,0.05265691919559243,2.0214257238537585e-18,0.05265691919559243,7.03032052265149e-18,0.3925936160012854,6.459396700354141e-18,-0.39259361600128573,0.2924998624854428,0.9104326778471838,0.29249986248544285,100.0,57.8571428571429,[1.26889779]
-2.0055622608613696e-18,0.2618707953409328,1.5145155892060028e-18,0.2618707953409328,-5.6672327522825066e-18,0.08278194298170347,1.5145155892060028e-18,0.08278194298170347,4.5233676965747774e-18,0.2746437028885219,3.5945640765162815e-18,-0.27464370288852197,0.17824233848028187,0.9677082915559634,0.1782423384802818,100.0,57.8571428571429,[0.90515868]
-2.5438516988414775e-18,0.26734921302293535,4.072272194144497e-19,0.26734921302293535,-5.656380142645811e-18,0.07846534061749223,4.072272194144497e-19,0.07846534061749223,4.54290239392083e-18,0.2786259345111325,4.358668716564399e-18,-0.2786259345111325,0.03613299161599543,0.9986935535156701,0.03613299161599549,100.0,70.71428571428567,[1.04077462]
-8.378214639529099e-19,0.39581809705301263,-9.074138232482211e-19,0.39581809705301263,-1.1807639284724947e-18,0.04742560696690638,-9.074138232482211e-19,0.04742560696690638,7.579462570268293e-18,0.3986491617335317,7.576712963966708e-18,-0.3986491617335317,0.15248313982329345,0.9764721112962006,0.15248313982329348,100.0,70.71428571428567,[1.26732198]
-2.6480367513537564e-19,0.4235725264505248,-1.5082075098546734e-18,0.4235725264505248,-4.992200432880033e-19,0.033836101136444766,-1.5082075098546734e-18,0.033836101136444766,8.332633679054976e-18,0.4249218362284955,8.506725988665942e-18,-0.42492183622849544,0.1796544767016839,0.9671858859609606,0.1796544767016839,100.0,70.71428571428567,[1.3140214]
1.606186226230967e-19,0.4353762541358728,-1.9317899511356747e-18,0.4353762541358728,-3.255782891008717e-19,0.02744347531673794,-1.9317899511356747e-18,0.02744347531673794,8.580073178771639e-18,0.4362403317012821,8.787463601011769e-18,-0.4362403317012819,0.19109280715802174,0.9627912951958665,0.19109280715802168,100.0,70.71428571428567,[1.33010987]
5.296073502707513e-19,0.44178309735970145,-2.2867126792620182e-18,0.44178309735970145,-3.3426037681022827e-19,0.023802763222605067,-2.2867126792620182e-18,0.023802763222605067,8.645188836591813e-18,0.44242386537093903,8.863203380622164e-18,-0.44242386537093903,0.1972962446735192,0.9602855740223604,0.19729624467351914,100.0,70.71428571428567,[1.31764473]
8.595266832263014e-19,0.445640306502693,-2.6057454881757578e-18,0.445640306502693,-4.015465565577418e-19,0.021505784803530128,-2.6057454881757578e-18,0.021505784803530128,8.616972051536404e-18,0.4461589196237479,8.848408925027136e-18,-0.44615891962374776,0.20109976417692307,0.9587063000189223,0.20109976417692307,100.0,70.71428571428567,[1.33368633]
1.1677407969084598e-18,0.44801443749794856,-2.908261981798651e-18,0.44801443749794856,-5.296073502707513e-19,0.0199910960715936,-2.908261981798651e-18,0.0199910960715936,8.534492218297517e-18,0.44846023249419453,8.766410523945517e-18,-0.4484602324941946,0.2035584220170703,0.9576679683751778,0.20355842201707028,100.0,70.71428571428567,[1.33368633]
1.4889780421546532e-18,0.4493664162057837,-3.1962800672350215e-18,0.4493664162057837,-6.945670167485263e-19,0.019004843021385647,-3.1962800672350215e-18,0.019004843021385647,8.417284034221203e-18,0.44976811811409817,8.683502616090849e-18,-0.4497681181140979,0.20513204326896972,0.956996180582031,0.20513204326896964,100.0,70.71428571428567,[1.33368633]
1.788510068127455e-18,0.44988610513213767,-3.47398817351653e-18,0.44988610513213767,-8.660382490083188e-19,0.018433480014836544,-3.47398817351653e-18,0.018433480014836544,8.267518021234802e-18,0.4502635903295115,8.53894549679046e-18,-0.45026359032951146,0.20602279918318017,0.9566134080355836,0.2060227991831802,100.0,70.71428571428567,[1.33235887]
2.0663368748268657e-18,0.4495971826377223,-3.746609119030838e-18,0.4495971826377223,-1.0700673101781983e-18,0.018247241043395035,-3.746609119030838e-18,0.018247241043395035,8.087364701265653e-18,0.4499673193038282,8.38149337658651e-18,-0.44996731930382805,0.20628473748179443,0.9565005040062103,0.20628473748179443,100.0,70.71428571428567,[1.33235887]
2.3485047253809545e-18,0.44836470249435745,-4.003934667838428e-18,0.44836470249435745,-1.2979721125488085e-18,0.018490663005984672,-4.003934667838428e-18,0.018490663005984672,7.86597146467706e-18,0.4487458201044938,8.182858128550148e-18,-0.44874582010449376,0.2058427809367432,0.9566909109385622,0.20584278093674319,100.0,70.71428571428567,[1.33235887]
2.6198199662983476e-18,0.4458112153470656,-4.255511724979081e-18,0.4458112153470656,-1.5844810069575758e-18,0.019312787676995093,-4.255511724979081e-18,0.019312787676995093,7.58597413605031e-18,0.4462293395744886,7.937598263490738e-18,-0.44622933957448874,0.20443754788584814,0.9572933604850934,0.20443754788584814,100.0,70.71428571428567,[1.33368633]
2.8716005098696883e-18,0.44102996863419847,-4.473496563853649e-18,0.44102996863419847,-1.9426171249685344e-18,0.021074561779831334,-4.473496563853649e-18,0.021074561779831334,7.210473842620638e-18,0.4415332041734732,7.626269967486993e-18,-0.4415332041734732,0.20141985277962807,0.9585718991356182,0.20141985277962807,100.0,70.71428571428567,[1.33368633]
3.0647769614028722e-18,0.43155934429311427,-4.652344179225883e-18,0.43155934429311427,-2.463542387529929e-18,0.02470056211109559,-4.652344179225883e-18,0.02470056211109559,6.62443292223907e-18,0.4322656421869623,7.150941935103045e-18,-0.4322656421869623,0.19502283517791277,0.961213913506425,0.1950228351779128,100.0,70.71428571428567,[1.31216568]
3.1515978384964384e-18,0.4081113417186526,-4.710609127212893e-18,0.4081113417186526,-3.5032223907253794e-18,0.03304871784182831,-4.710609127212893e-18,0.03304871784182831,5.497932041950053e-18,0.40944729207846486,6.247880808255167e-18,-0.4094472920784648,0.17890895149370228,0.9674622339661886,0.17890895149370226,100.0,70.71428571428567,[1.29720549]
2.3680394227270068e-18,0.2915320127390551,-4.353863499811636e-18,0.2915320127390551,-8.339145244836994e-18,0.04933937233285556,-4.353863499811636e-18,0.04933937233285556,1.8514552040202904e-18,0.2956776760492492,3.2568160680483432e-18,-0.29567767604924944,0.11889547913684755,0.9857625120086677,0.11889547913684749,100.0,70.71428571428567,[1.02570406]
2.357186813090311e-18,0.2945966596845299,-4.649071439132317e-18,0.2945966596845299,-8.458523950840647e-18,0.04308482948672094,-4.649071439132317e-18,0.04308482948672094,1.3023131564034868e-18,0.29773057355465277,2.65631549348228e-18,-0.2977305735546528,0.023345096116561714,0.9994548578973526,0.0233450961165617,100.0,83.57142857142856,[1.11418914]
2.8716005098696883e-18,0.4119482694367095,-5.029285834872929e-18,0.4119482694367095,-3.8808932060823906e-18,0.025434456201602364,-5.029285834872929e-18,0.025434456201602364,4.1196506180896965e-18,0.41273270800140244,4.73090296560406e-18,-0.4127327080014025,0.03571924162987709,0.9987233208225252,0.03571924162987708,100.0,83.57142857142856,[1.46335713]
2.5329990892047818e-18,0.4349556976145615,-5.038663167887136e-18,0.4349556976145615,-3.0929937464582815e-18,0.018241724672818482,-5.038663167887136e-18,0.018241724672818482,4.412671078280481e-18,0.4353380518705076,4.824978156020075e-18,-0.4353380518705078,0.04965811283847852,0.9975310239078491,0.049658112838478506,100.0,83.57142857142856,[1.4780494]
2.0902126160275963e-18,0.4444927843612451,-4.939853548585533e-18,0.4444927843612451,-2.8151669397588706e-18,0.014717171951015545,-4.939853548585533e-18,0.014717171951015545,4.139185315435749e-18,0.4447363606671354,4.4672411621829046e-18,-0.4447363606671352,0.055875102534964416,0.996873084115232,0.05587510253496439,100.0,83.57142857142856,[1.45308771]
1.601845182376289e-18,0.44957552536974105,-4.827071194376684e-18,0.44957552536974105,-2.702299799537235e-18,0.012568096808491195,-4.827071194376684e-18,0.012568096808491195,3.646476837929763e-18,0.44975116461090625,3.914921110300349e-18,-0.44975116461090614,0.05950438210171825,0.9964529376851601,0.059504382101718226,100.0,83.57142857142856,[1.44386291]
1.0917725294515897e-18,0.4525659412396807,-4.6824940853728284e-18,0.4525659412396807,-2.6784240583365045e-18,0.011076712644956908,-4.6824940853728284e-18,0.011076712644956908,3.0582653956208548e-18,0.45270147418931284,3.2862198627324664e-18,-0.45270147418931284,0.061954416851128125,0.9961542553567059,0.061954416851128104,100.0,83.57142857142856,[1.41930009]
5.730177888175342e-19,0.4543363531150059,-4.53271111518387e-18,0.4543363531150059,-2.6957882337552176e-18,0.009953431835153185,-4.53271111518387e-18,0.009953431835153185,2.415790905128468e-18,0.4544453680775505,2.613394219911787e-18,-0.4544453680775504,0.06376191306476565,0.9959261201939844,0.06376191306476567,100.0,83.57142857142856,[1.40458853]
4.992200432880033e-20,0.4552584329157717,-4.377773155417481e-18,0.4552584329157717,-2.7413691942293397e-18,0.009061031783041087,-4.377773155417481e-18,0.009061031783041087,1.7255649322346202e-18,0.45534859507623104,1.8983629650498564e-18,-0.455348595076231,0.0651728425195126,0.9957434414525932,0.06517284251951257,100.0,83.57142857142856,[1.40458853]
-4.601506485958987e-19,0.455479879231519,-4.227735827190163e-18,0.455479879231519,-2.8151669397588706e-18,0.008328299682693425,-4.227735827190163e-18,0.008328299682693425,1.004951652358024e-18,0.45555601297794773,1.1585240045530433e-18,-0.4555560129779476,0.0663118376596007,0.9955930294916762,0.06631183765960069,100.0,83.57142857142856,[1.40458853]
-9.91928520793989e-19,0.4550091146075792,-4.069169026076504e-18,0.4550091146075792,-2.9084993826344538e-18,0.00771813661798577,-4.069169026076504e-18,0.00771813661798577,2.4526897778932334e-19,0.45507456972327837,3.8346967994609e-19,-0.4550745697232785,0.0672422173272939,0.9954682156743219,0.0672422173272939,100.0,83.57142857142856,[1.40458853]
-1.5389000464834535e-18,0.45371798389061574,-3.899647872110805e-18,0.45371798389061574,-3.0365601763474633e-18,0.007215731882364575,-3.899647872110805e-18,0.007215731882364575,-5.578241353261602e-19,0.4537753581810754,-4.34070746007639e-19,-0.45377535818107545,0.06798743627568021,0.9953669760532148,0.0679874362756802,100.0,83.57142857142856,[1.40458853]
-2.085871572172918e-18,0.45126455295920165,-3.736231311065748e-18,0.45126455295920165,-3.208031408607256e-18,0.0068276068114898674,-3.736231311065748e-18,0.0068276068114898674,-1.4195213404798006e-18,0.45131620065342254,-1.3065468975298842e-18,-0.45131620065342254,0.0685317815449582,0.9952923137634231,0.0685317815449582,100.0,83.57142857142856,[1.40458853]
-2.6480367513537564e-18,0.4468334825498347,-3.5685754493813565e-18,0.4468334825498347,-3.4663235179606143e-18,0.0065932471502491465,-3.5685754493813565e-18,0.0065932471502491465,-2.3832330762183808e-18,0.4468821231998409,-2.2778836427013725e-18,-0.4468821231998409,0.0687952491656032,0.9952559607379831,0.06879524916560319,100.0,83.57142857142856,[1.40458853]
-3.234077671735326e-18,0.4382003405811954,-3.39496760959934e-18,0.4382003405811954,-3.88306372800973e-18,0.006627066879305658,-3.39496760959934e-18,0.006627066879305658,-3.559655960836197e-18,0.4382504495159114,-3.4567264981191272e-18,-0.43825044951591147,0.06853640458258828,0.995291677094601,0.06853640458258829,100.0,83.57142857142856,[1.40458853]
-3.917792078847156e-18,0.4168008880118141,-3.197365328198691e-18,0.4168008880118141,-4.812047112910884e-18,0.007241506710211207,-3.197365328198691e-18,0.007241506710211207,-5.332972375472278e-18,0.4168637903043042,-5.2213239471986445e-18,-0.4168637903043041,0.06695269639039046,0.995507244017899,0.06695269639039043,100.0,83.57142857142856,[1.39111939]
-5.385064901728418e-18,0.30376353823741575,-2.9905383286068505e-18,0.30376353823741575,-9.54161439258288e-18,0.0064507325196436925,-2.9905383286068505e-18,0.0064507325196436925,-9.708744580987994e-18,0.3038320245012923,-9.580435919516256e-18,-0.3038320245012923,0.06423463344104889,0.9958653642603443,0.06423463344104889,100.0,83.57142857142856,[1.08792296]
