stress_11,stress_12,stress_13,stress_21,stress_22,stress_23,stress_31,stress_32,stress_33,e1,e2,e3,anev1,anev2,anev3,temp,miss,velo
-1.0370753768826433e-17,0.2932031354264061,-4.455114956281496e-18,0.2932031354264061,-2.6979587556825568e-18,-0.0437698502132412,-4.455114956281496e-18,-0.0437698502132412,-1.7064643392740355e-17,0.29645215197661334,-1.8301055047314263e-17,-0.2964521519766133,0.13244047155870006,0.982302928320291,0.13244047155870015,300.0,109.28571428571416,[1.09205178]
-9.41355359886987e-18,0.409877771855916,-4.853609216378917e-18,0.409877771855916,1.7602932830720463e-18,-0.027505284047732642,-4.853609216378917e-18,-0.027505284047732642,-1.3076309351254678e-17,0.41079962087630595,-1.371287074198488e-17,-0.410799620876306,0.18833064086738902,0.963879214124341,0.1883306408673891,300.0,109.28571428571416,[1.38798672]
-9.300686458648235e-18,0.4334180054548953,-5.6753722095100284e-18,0.4334180054548953,2.4266435147651637e-18,-0.01919310471406084,-5.6753722095100284e-18,-0.01919310471406084,-1.1609036528373415e-17,0.4338427626699153,-1.212017356431142e-17,-0.43384276266991545,0.2037871254818403,0.9575706840623815,0.2037871254818403,300.0,109.28571428571416,[1.41829536]
-9.346267419122357e-18,0.4429793316963998,-6.61507254642742e-18,0.4429793316963998,2.5742390058242255e-18,-0.015608339216046515,-6.61507254642742e-18,-0.015608339216046515,-1.0688735231181618e-17,0.4432542256575475,-1.1149934533742305e-17,-0.4432542256575475,0.2098956029405233,0.9549280976767143,0.20989560294052334,300.0,109.28571428571416,[1.42133959]
-9.424406208506566e-18,0.4478501056632119,-7.600260579204867e-18,0.4478501056632119,2.5764095277515647e-18,-0.013891837888508353,-7.600260579204867e-18,-0.013891837888508353,-9.978974560941717e-18,0.4480655089409033,-1.04510284539029e-17,-0.44806550894090325,0.2127373837687912,0.9536695502606866,0.2127373837687912,300.0,109.28571428571416,[1.41984187]
-9.506886041745453e-18,0.45049202738925354,-8.609392181993274e-18,0.45049202738925354,2.476565519093964e-18,-0.013118582995255836,-8.609392181993274e-18,-0.013118582995255836,-9.360375811650061e-18,0.45068299719546034,-9.860754665205398e-18,-0.4506829971954604,0.21401600805718085,0.9530972125604698,0.21401600805718088,300.0,109.28571428571416,[1.41921944]
-9.611071094257732e-18,0.45181186222609077,-9.63496379266102e-18,0.45181186222609077,2.339822637671598e-18,-0.012927386055864848,-9.63496379266102e-18,-0.012927386055864848,-8.807977981142249e-18,0.45199676565042524,-9.359799804210145e-18,-0.4519967656504251,0.21435822289228923,0.9529433900064156,0.21435822289228926,300.0,109.28571428571416,[1.41921944]
-9.74347293182542e-18,0.45218705038941104,-1.0665817571925377e-17,0.45218705038941104,2.1705219273391446e-18,-0.013169028657859624,-1.0665817571925377e-17,-0.013169028657859624,-8.284882196653515e-18,0.45237877034147744,-8.908433192688724e-18,-0.4523787703414775,0.2140143913959051,0.9530979385933435,0.21401439139590514,300.0,109.28571428571416,[1.41921944]
-9.854169550119717e-18,0.4517525220201568,-1.1710215916732406e-17,0.4517525220201568,1.9795159977333e-18,-0.013798821094675406,-1.1710215916732406e-17,-0.013798821094675406,-7.797600023965877e-18,0.4519632159979118,-8.51465678248035e-18,-0.4519632159979117,0.21305660040211044,0.9535270158994923,0.2130566004021105,300.0,109.28571428571416,[1.41984187]
-9.982230343832726e-18,0.45048458194525354,-1.276057895753898e-17,0.45048458194525354,1.7602932830720463e-18,-0.01484638526437451,-1.276057895753898e-17,-0.01484638526437451,-7.348301985006674e-18,0.4507291578385052,-8.19445462982873e-18,-0.45072915783850526,0.211431754063278,0.9542500860610132,0.21143175406327808,300.0,109.28571428571416,[1.42133959]
-1.012548479103711e-17,0.4481933539669511,-1.382433394906521e-17,0.4481933539669511,1.517194827210062e-18,-0.016425125597423186,-1.382433394906521e-17,-0.016425125597423186,-6.92939125303022e-18,0.44849422213785095,-7.949441352179212e-18,-0.44849422213785106,0.2089428575472419,0.9553458873936632,0.20894285754724196,300.0,109.28571428571416,[1.42133959]
-1.027742132595085e-17,0.44441790613992604,-1.491003580000127e-17,0.44441790613992604,1.2068101916005644e-18,-0.01878875652409745,-1.491003580000127e-17,-0.01878875652409745,-6.5679993521282524e-18,0.44481489708587557,-7.83050368704669e-18,-0.44481489708587557,0.20514238112350805,0.9569917486237564,0.2051423811235081,300.0,109.28571428571416,[1.42405666]
-1.0470597777484034e-17,0.43809169352011385,-1.6027956335796275e-17,0.43809169352011385,8.378214639529099e-19,-0.0224985871178801,-1.6027956335796275e-17,-0.0224985871178801,-6.290172545428842e-18,0.43866903053853984,-7.934017474934531e-18,-0.43866903053853973,0.19900403865359215,0.9595805256460341,0.1990040386535922,300.0,109.28571428571416,[1.40939384]
-1.0718037277200696e-17,0.42636752277041545,-1.721285888151792e-17,0.42636752277041545,3.060435917548194e-19,-0.02896268055436171,-1.721285888151792e-17,-0.02896268055436171,-6.197925363516928e-18,0.4273500922408637,-8.565556943973694e-18,-0.42735009224086373,0.187772300220037,0.9640970524486384,0.18777230022003705,300.0,109.28571428571416,[1.4180237]
-1.1119583833758438e-17,0.39869180394212816,-1.8576453248313303e-17,0.39869180394212816,-7.531711087866832e-19,-0.04262596403658658,-1.8576453248313303e-17,-0.04262596403658658,-6.6157508345297136e-18,0.4009639975617223,-1.0746633616622689e-17,-0.4009639975617222,0.16126589189456042,0.9736460466837545,0.1612658918945605,300.0,109.28571428571416,[1.3584712]
-1.266716596795125e-17,0.2703017437873703,-2.0656560431441886e-17,0.2703017437873703,-5.599946572534993e-18,-0.07374209502988309,-2.0656560431441886e-17,-0.07374209502988309,-9.314794851175939e-18,0.28018017287789926,-1.950524909592351e-17,-0.28018017287789926,0.049645013642818696,0.9975323279176515,0.0496450136428188,300.0,109.28571428571416,[1.09221741]
-9.71959719062469e-18,0.2961862277096537,-4.310588718885312e-18,0.2961862277096537,-2.8173374616862097e-18,-0.03743423857880641,-4.310588718885312e-18,-0.03743423857880641,-1.6689143099310683e-17,0.29854246549335306,-1.7503589422320443e-17,-0.29854246549335306,0.00956062843363804,0.9999085902060788,0.009560628433638026,300.0,96.42857142857144,[1.09407737]
-7.694500232417268e-18,0.41343680844469766,-4.986570641630997e-18,0.41343680844469766,1.3934750773517308e-18,-0.019742414550620896,-4.986570641630997e-18,-0.019742414550620896,-1.1682834273902946e-17,0.41390790945477984,-1.2142225542438329e-17,-0.4139079094547798,0.045565502423683825,0.9979216251679058,0.045565502423683846,300.0,96.42857142857144,[1.44499029]
-6.552805698636878e-18,0.43634459895040517,-6.052856495638909e-18,0.43634459895040517,1.8123858093281858e-18,-0.012505284834248863,-6.052856495638909e-18,-0.012505284834248863,-9.194330884208617e-18,0.43652375786659736,-9.537428965897424e-18,-0.4365237578665972,0.05900892362678916,0.9965118633838814,0.05900892362678916,300.0,96.42857142857144,[1.45372632]
-5.491420476168036e-18,0.445781824807212,-7.211949119243127e-18,0.445781824807212,1.7299059760892985e-18,-0.008938284176975312,-7.211949119243127e-18,-0.008938284176975312,-7.286442110077508e-18,0.4458714256963281,-7.575426729889736e-18,-0.44587142569632815,0.0650688505494268,0.9957570433475994,0.06506885054942682,300.0,96.42857142857144,[1.43837211]
-4.492980389592029e-18,0.4507641278844406,-8.408178016447913e-18,0.4507641278844406,1.4651023009539226e-18,-0.0067500023940492045,-8.408178016447913e-18,-0.0067500023940492045,-5.5890939628982974e-18,0.4508146642687436,-5.840688703996134e-18,-0.45081466426874356,0.06864109848154645,0.9952772474032013,0.06864109848154648,300.0,96.42857142857144,[1.43837211]
-3.481517171451988e-18,0.4536534668093202,-9.610358891750324e-18,0.4536534668093202,1.1308419241436943e-18,-0.005223105693549617,-9.610358891750324e-18,-0.005223105693549617,-3.9850782585946695e-18,0.4536835337338144,-4.206262363633144e-18,-0.4536835337338144,0.07107609815218337,0.9949353629974776,0.07107609815218341,300.0,96.42857142857144,[1.43837211]
-2.504782304149373e-18,0.4553221785973669,-1.0838060356901528e-17,0.4553221785973669,7.444890210773266e-19,-0.004068232139626729,-1.0838060356901528e-17,-0.004068232139626729,-2.4505192559658943e-18,0.45534035274220364,-2.644207135241642e-18,-0.4553403527422037,0.07288976845851301,0.9946728926175322,0.07288976845851305,300.0,96.42857142857144,[1.43837211]
-1.5345590026287752e-18,0.45614197925556715,-1.2060471174854842e-17,0.45614197925556715,3.2991933295555e-19,-0.0031482990660993593,-1.2060471174854842e-17,-0.0031482990660993593,-9.420065164651888e-19,0.4561528439308428,-1.1085115839826174e-18,-0.4561528439308428,0.07431929539284132,0.9944613037542603,0.07431929539284136,300.0,96.42857142857144,[1.42986496]
-5.578241353261602e-19,0.45626062417847074,-1.3278303548117677e-17,0.45626062417847074,-1.063555744396181e-19,-0.0023921916765539016,-1.3278303548117677e-17,-0.0023921916765539016,5.144136967793773e-19,0.45626689531100656,3.7515284837353875e-19,-0.45626689531100656,0.07548572650889133,0.9942855777827868,0.07548572650889138,300.0,96.42857142857144,[1.42986496]
4.058876004124201e-19,0.4556865994917011,-1.4508701208475496e-17,0.4556865994917011,-5.70847266890195e-19,-0.0017628836886733452,-1.4508701208475496e-17,-0.0017628836886733452,1.9469581688232127e-18,0.45569000945292815,1.8346784827506492e-18,-0.45569000945292815,0.07645193287078608,0.9941379199691769,0.07645193287078611,300.0,96.42857142857144,[1.42986496]
1.3739403800056785e-18,0.4542918177434626,-1.5748866217506343e-17,0.4542918177434626,-1.0722378321055374e-18,-0.0012456188210378924,-1.5748866217506343e-17,-0.0012456188210378924,3.3317511584655874e-18,0.4542935254160097,3.2453726082931896e-18,-0.45429352541600976,0.07724393078563148,0.9940154678442229,0.07724393078563155,300.0,96.42857142857144,[1.42986496]
2.3311405499622413e-18,0.4517344152882593,-1.69775003287982e-17,0.4517344152882593,-1.604015704303628e-18,-0.000846958067132525,-1.69775003287982e-17,-0.000846958067132525,4.657940056069804e-18,0.45173520926953753,4.594269411707946e-18,-0.4517352092695376,0.07785328314441672,0.9939203854470795,0.07785328314441678,300.0,96.42857142857144,[1.42986496]
3.2601239348633956e-18,0.4471991253493591,-1.8220158046604975e-17,0.4471991253493591,-2.2269554974499624e-18,-0.0006064138564977607,-1.8220158046604975e-17,-0.0006064138564977607,5.884284945016421e-18,0.44719953650579414,5.834866167645408e-18,-0.447199536505794,0.07821794195248637,0.9938631229266106,0.07821794195248641,300.0,96.42857142857144,[1.42979074]
4.171743144345836e-18,0.4384615898586827,-1.9465444130808137e-17,0.4384615898586827,-3.0083433912920544e-18,-0.000638414886247719,-1.9465444130808137e-17,-0.000638414886247719,6.891407119301785e-18,0.43846205463525656,6.834716929823504e-18,-0.4384620546352565,0.0781476598356734,0.993874180429503,0.07814765983567347,300.0,96.42857142857144,[1.42986496]
4.9900299109526935e-18,0.41695764497687215,-2.072651737059218e-17,0.41695764497687215,-4.304144981913524e-18,-0.0012554052197332275,-2.072651737059218e-17,-0.0012554052197332275,7.310317851278239e-18,0.41695953490347853,7.185486491835305e-18,-0.41695953490347853,0.0770548712690564,0.9940448146977169,0.07705487126905648,300.0,96.42857142857144,[1.40982302]
5.022587739862781e-18,0.30381578022993516,-2.200748140897598e-17,0.30381578022993516,-9.404871511160514e-18,-0.0004715431109460067,-2.200748140897598e-17,-0.0004715431109460067,5.120261226593042e-18,0.303816146163481,5.0519469047082445e-18,-0.3038161461634811,0.07808016832886372,0.9938847894134777,0.07808016832886383,300.0,96.42857142857144,[1.08398668]
-1.2986232691270104e-17,0.26488854516043253,-2.0138742576249123e-17,0.26488854516043253,-5.654209620718472e-18,-0.07812051045406856,-2.0138742576249123e-17,-0.07812051045406856,-9.322391677921626e-18,0.2761679842248457,-2.1381768247830586e-17,-0.2761679842248459,0.19147526282710234,0.9626393132687776,0.19147526282710245,300.0,122.14285714285735,[1.0920642]
-1.159709865777305e-17,0.39213452379807634,-1.6641938486691696e-17,0.39213452379807634,-9.08363426591432e-19,-0.04805186029045783,-1.6641938486691696e-17,-0.04805186029045783,-7.118226660708725e-18,0.39506767272420273,-1.1189293476463023e-17,-0.39506767272420273,0.30058787879489984,0.905148526068051,0.3005878787948999,300.0,122.14285714285735,[1.39142998]
-1.1371364377329779e-17,0.4208479303981683,-1.3874090620669076e-17,0.4208479303981683,4.666622143779161e-20,-0.03369450567567345,-1.3874090620669076e-17,-0.03369450567567345,-7.171404447928534e-18,0.42219462364311255,-9.422135161379164e-18,-0.4221946236431126,0.3272205011478056,0.8864837772103659,0.3272205011478057,300.0,122.14285714285735,[1.41628295]
-1.1336636026492352e-17,0.4326952053787285,-1.1311225658460183e-17,0.4326952053787285,4.710032582325944e-19,-0.027265076944701348,-1.1311225658460183e-17,-0.027265076944701348,-7.710779146872311e-18,0.43355337062297244,-9.151902377597614e-18,-0.4335533706229726,0.33780657341388964,0.8785063676016999,0.3378065734138897,300.0,122.14285714285735,[1.42204654]
-1.1364852811547761e-17,0.43872070607686864,-8.82669449346491e-18,0.43872070607686864,7.271248456586134e-19,-0.02392741607991428,-8.82669449346491e-18,-0.02392741607991428,-8.42379560000322e-18,0.4393727110106492,-9.394481434992065e-18,-0.4393727110106492,0.34303981154736946,0.8744411789177648,0.34303981154736946,300.0,122.14285714285735,[1.42401093]
-1.141911585973124e-17,0.4419512300946445,-6.3796811391277456e-18,0.4419512300946445,9.289833849011539e-19,-0.022130169714049408,-6.3796811391277456e-18,-0.022130169714049408,-9.212780320591e-18,0.4425049538635044,-9.852078898273021e-18,-0.44250495386350436,0.3457898501448508,0.8722721817607181,0.3457898501448508,300.0,122.14285714285735,[1.42000915]
-1.1531982999952875e-17,0.44351537220335563,-3.94934943280636e-18,0.44351537220335563,1.0678967882508592e-18,-0.021262431901345833,-3.94934943280636e-18,-0.021262431901345833,-1.0059283872253266e-17,0.4440247474984253,-1.0440803913610897e-17,-0.44402474749842524,0.3471015840742373,0.8712295797700571,0.3471015840742374,300.0,122.14285714285735,[1.42000915]
-1.1625315442828459e-17,0.4438844373835724,-1.5398411712253857e-18,0.4438844373835724,1.185104972327173e-18,-0.021062083456936952,-1.5398411712253857e-18,-0.021062083456936952,-1.0934004208970941e-17,0.4443838488411542,-1.1085010061363213e-17,-0.44438384884115406,0.3474034682915524,0.8709888979992804,0.34740346829155233,300.0,122.14285714285735,[1.42124866]
-1.1736012061122755e-17,0.44322526836583986,8.543377792437562e-19,0.44322526836583986,1.2697553274933996e-18,-0.021433947148042413,8.543377792437562e-19,-0.021433947148042413,-1.1834770808816686e-17,0.44374322823939066,-1.1758895968626622e-17,-0.4437432282393906,0.3468444248547069,0.8714343864539745,0.3468444248547068,300.0,122.14285714285735,[1.42000915]
-1.1864072854835764e-17,0.4415036565646546,3.2386137234194135e-18,0.4415036565646546,1.334870985313574e-18,-0.022394429602881155,3.2386137234194135e-18,-0.022394429602881155,-1.2762668932754172e-17,0.44207124905064665,-1.2435340158550251e-17,-0.44207124905064693,0.3453903062902527,0.8725887190661191,0.34539030629025275,300.0,122.14285714285735,[1.4219573]
-1.1998645214330791e-17,0.4384734214155443,5.602947997387642e-18,0.4384734214155443,1.3663435532599915e-18,-0.024076782021601382,5.602947997387642e-18,-0.024076782021601382,-1.3726380668492752e-17,0.4391339576033369,-1.3087044782608671e-17,-0.4391339576033368,0.3428108234127349,0.8746207627893162,0.34281082341273483,300.0,122.14285714285735,[1.42401093]
-1.2167945924663245e-17,0.43354266168036704,7.94538204425307e-18,0.43354266168036704,1.350064638804948e-18,-0.026801072414916832,7.94538204425307e-18,-0.026801072414916832,-1.4730247059887105e-17,0.4343702763535817,-1.3736581457949663e-17,-0.43437027635358166,0.3385448162305401,0.8779378194421626,0.33854481623054,300.0,122.14285714285735,[1.42204654]
-1.2389339161251839e-17,0.4253519244102524,1.0238216273638286e-17,0.4253519244102524,1.2632437617113822e-18,-0.03128926984189904,1.0238216273638286e-17,-0.03128926984189904,-1.5801399631028973e-17,0.4265012051644685,-1.4296470955744408e-17,-0.4265012051644685,0.3312657181710337,0.8834738524309921,0.3312657181710336,300.0,122.14285714285735,[1.42295645]
-1.2706235362643354e-17,0.410317322437377,1.2454878749135947e-17,0.410317322437377,9.91928520793989e-19,-0.03936093783665588,1.2454878749135947e-17,-0.03936093783665588,-1.702774451997559e-17,0.4122009079557678,-1.462601943909452e-17,-0.4122009079557681,0.31731238583460714,0.8936586034901127,0.317312385834607,300.0,122.14285714285735,[1.39296152]
-1.3279253151460888e-17,0.37556589703421756,1.4421676844951242e-17,0.37556589703421756,2.4092793393464505e-19,-0.05673293065746416,1.4421676844951242e-17,-0.05673293065746416,-1.8664318053189305e-17,0.3798267610847097,-1.4017978796797896e-17,-0.3798267610847097,0.2825546293068913,0.9166928400039406,0.28255462930689124,300.0,122.14285714285735,[1.39089534]
-1.532388480701436e-17,0.23132706931630126,1.5504784243896033e-17,0.23132706931630126,-4.328020723114254e-18,-0.09509213500567612,1.5504784243896033e-17,-0.09509213500567612,-2.2215291926316145e-17,0.2501094303268202,-1.0824213002050024e-17,-0.2501094303268203,0.12031560303032217,0.9854178359127157,0.12031560303032202,300.0,122.14285714285735,[1.09986365]
-1.52761333246129e-17,0.22455923767157057,1.6089807732124162e-17,0.22455923767157057,-4.331276506005263e-18,-0.09667701824104753,1.6089807732124162e-17,-0.09667701824104753,-2.1992813428763883e-17,0.24448578093544984,-1.2000115264917453e-17,-0.24448578093544995,0.2615330407789405,0.929086076293172,0.2615330407789405,300.0,135.00000000000023,[1.0869681]
-1.2473989516418066e-17,0.36733141563018473,1.6331515697376444e-17,0.36733141563018473,2.5612158742601907e-19,-0.05874028019646498,1.6331515697376444e-17,-0.05874028019646498,-1.860137291729647e-17,0.3719983728814342,-1.3251482534417175e-17,-0.3719983728814342,0.414774845711593,0.8098911375795196,0.41477484571159284,300.0,135.00000000000023,[1.37879313]
-1.118904053543329e-17,0.40333744806990157,1.566794644690273e-17,0.40333744806990157,1.0234010887404067e-18,-0.041168761648974594,1.566794644690273e-17,-0.041168761648974594,-1.7092860177795764e-17,0.40543305729953827,-1.3819330405519519e-17,-0.4054330572995383,0.44664424853910545,0.7752533976022782,0.4466442485391052,300.0,135.00000000000023,[1.39457921]
-1.0179747839220588e-17,0.41848640460077985,1.4757649899219762e-17,0.41848640460077985,1.3001426344761476e-18,-0.033157531459963814,1.4757649899219762e-17,-0.033157531459963814,-1.596418877557941e-17,0.4197979189183839,-1.3639426048865086e-17,-0.4197979189183839,0.4589456685893341,0.7607481492361174,0.4589456685893341,300.0,135.00000000000023,[1.39026855]
-9.31153906828493e-18,0.4262631414423116,1.3763381284472862e-17,0.4262631414423116,1.4043276869884266e-18,-0.028850130442675707,1.3763381284472862e-17,-0.028850130442675707,-1.496791921093074e-17,0.42723833603602074,-1.3063855363339148e-17,-0.42723833603602057,0.4650952144029179,0.7532415834770461,0.4650952144029177,300.0,135.00000000000023,[1.42115609]
-8.471547082404681e-18,0.4304755063707565,1.2719970696714797e-17,0.4304755063707565,1.4455676036078703e-18,-0.02637581207346168,1.2719970696714797e-17,-0.02637581207346168,-1.4047617913738944e-17,0.43128279011304615,-1.2452546352345387e-17,-0.4312827901130462,0.4684857633565386,0.7490274888577071,0.4684857633565386,300.0,135.00000000000023,[1.39605677]
-7.683647622780572e-18,0.43256034346190547,1.165326091264295e-17,0.43256034346190547,1.4206066014434702e-18,-0.02499484729767687,1.165326091264295e-17,-0.02499484729767687,-1.3154448140638888e-17,0.4332818864518984,-1.1776099196150137e-17,-0.43328188645189847,0.4703237187016321,0.7467202951931442,0.4703237187016321,300.0,135.00000000000023,[1.39759694]
-6.902259728938481e-18,0.43312250964702764,1.0568203435404066e-17,0.43312250964702764,1.380451945787696e-18,-0.024384106299006746,1.0568203435404066e-17,-0.024384106299006746,-1.2289495152594237e-17,0.43380835976608456,-1.1096053061432167e-17,-0.4338083597660846,0.47110480255431186,0.7457348925861826,0.4711048025543118,300.0,135.00000000000023,[1.39759694]
-6.1295539228057444e-18,0.4323794834739576,9.4660870123925e-18,0.4323794834739576,1.3001426344761476e-18,-0.024416782736823815,9.4660870123925e-18,-0.024416782736823815,-1.1448417905750318e-17,0.43306835142783606,-1.0386137051132315e-17,-0.43306835142783595,0.4710142167998116,0.7458493246929435,0.4710142167998116,300.0,135.00000000000023,[1.39759694]
-5.4111111648564875e-18,0.43029328580330084,8.351473131096178e-18,0.43029328580330084,1.2057249306368948e-18,-0.025092842230861206,8.351473131096178e-18,-0.025092842230861206,-1.0620363790470435e-17,0.4310243178042557,-9.641294393225307e-18,-0.43102431780425576,0.47004359943846363,0.7470729745171258,0.4700435994384636,300.0,135.00000000000023,[1.39850685]
-4.692668406907231e-18,0.426558358163475,7.208116791465169e-18,0.426558358163475,1.0744083540328766e-18,-0.02653902351245744,7.208116791465169e-18,-0.02653902351245744,-9.82052646024596e-18,0.427383145067882,-8.932636697639524e-18,-0.427383145067882,0.46798679272609545,0.7496510679428697,0.4679867927260955,300.0,135.00000000000023,[1.39605677]
-4.0382560458144786e-18,0.42043596807456635,6.049549841140228e-18,0.42043596807456635,9.00766599845745e-19,-0.029078392908656166,6.049549841140228e-18,-0.029078392908656166,-9.047820654113224e-18,0.4214403352610519,-8.194518674016511e-18,-0.42144033526105196,0.46430958598622724,0.7542103265817808,0.46430958598622707,300.0,135.00000000000023,[1.39026855]
-3.429424645195849e-18,0.4102330087563049,4.8437909960982186e-18,0.4102330087563049,6.500713172380738e-19,-0.033450626109852784,4.8437909960982186e-18,-0.033450626109852784,-8.330463157127637e-18,0.4115945406105282,-7.49043749649617e-18,-0.41159454061052836,0.4577106174532384,0.7622348596995222,0.4577106174532384,300.0,135.00000000000023,[1.39765777]
-2.9453982553992192e-18,0.3915232643760285,3.5507703866961526e-18,0.3915232643760285,2.311605852616189e-19,-0.041526443861315245,3.5507703866961526e-18,-0.041526443861315245,-7.718375973617998e-18,0.393719331615084,-6.9161909578971954e-18,-0.3937193316150841,0.4444750262566302,0.777742825147449,0.4444750262566302,300.0,135.00000000000023,[1.39457921]
-2.8607479002329926e-18,0.34879218006314994,2.004782229543732e-18,0.34879218006314994,-7.075901483125611e-19,-0.059162380277518974,2.004782229543732e-18,-0.059162380277518974,-7.417758686681527e-18,0.3537741823724658,-6.266093749257319e-18,-0.3537741823724658,0.4093427590494722,0.8153999087733156,0.4093427590494722,300.0,135.00000000000023,[1.08814697]
-4.6373200977600825e-18,0.18713541353985938,-4.361392497747094e-19,0.18713541353985938,-5.436072167020888e-18,-0.09716387109856087,-4.361392497747094e-19,-0.09716387109856087,-8.609375224790717e-18,0.21085654091725953,-1.0667570595021385e-17,-0.2108565409172595,0.21334776253539248,0.953396803247359,0.21334776253539262,300.0,135.00000000000023,[1.1054676]
-4.049108655451174e-18,0.18036203054570357,-1.0806825189790913e-18,0.18036203054570357,-5.520722522187114e-18,-0.09563808362856788,-1.0806825189790913e-18,-0.09563808362856788,-7.285899479595674e-18,0.2041497124727691,-1.1467370871017589e-17,-0.20414971247276922,0.35272041805359877,0.866704455611132,0.35272041805359894,300.0,147.8571428571427,[1.0472894]
-4.536390828138812e-19,0.34053838548148735,-6.209727576496834e-20,0.34053838548148735,-9.626264747749106e-19,-0.05734388174584832,-6.209727576496834e-20,-0.05734388174584832,-4.048023394487505e-18,0.3453327565696884,-4.198294010117628e-18,-0.34533275656968865,0.527942040017354,0.6652476266508802,0.5279420400173542,300.0,147.8571428571427,[0.78318519]
1.2317711937649646e-18,0.3845104778949049,6.538697306109173e-20,0.3845104778949049,-1.9860275635153176e-19,-0.04003602756571726,6.538697306109173e-20,-0.04003602756571726,-2.2725364579240844e-18,0.38658917614725197,-2.3707357939195985e-18,-0.3865891761472519,0.5565446061512308,0.6168599539019719,0.5565446061512308,300.0,147.8571428571427,[1.30654147]
2.5004412602946946e-18,0.4033208189290579,-4.388524021838833e-20,0.4033208189290579,5.2635156737974263e-20,-0.03202809947871651,-4.388524021838833e-20,-0.03202809947871651,-7.748763280600747e-19,0.4045905116754773,-7.694931588454784e-19,-0.4045905116754774,0.5670645633813725,0.5973906275747781,0.5670645633813725,300.0,147.8571428571427,[1.30085671]
3.610663226128667e-18,0.41309573031307656,-2.479482157933826e-19,0.41309573031307656,1.291460546766791e-19,-0.027603305193274003,-2.479482157933826e-19,-0.027603305193274003,6.26738206519178e-19,0.4140169378908153,6.076217163944956e-19,-0.4140169378908152,0.5723100225955624,0.5873010097669964,0.5723100225955623,300.0,147.8571428571427,[1.30286769]
4.664451621851822e-18,0.41848530315054056,-4.868751998262619e-19,0.41848530315054056,1.4379707768621833e-19,-0.024942052411586098,-4.868751998262619e-19,-0.024942052411586098,1.9849423025516478e-18,0.41922792718460705,1.951294918962265e-18,-0.419227927184607,0.5752815328130999,0.581465661934065,0.5752815328130999,300.0,147.8571428571427,[1.27579298]
5.6520390987911326e-18,0.4212599632375533,-7.533745952173712e-19,0.4212599632375533,1.0472768299411374e-19,-0.023322321889403218,-7.533745952173712e-19,-0.023322321889403218,3.3192706573833873e-18,0.42190506909163544,3.2557601514109453e-18,-0.4219050690916356,0.5770129524791787,0.5780243120687244,0.5770129524791788,300.0,147.8571428571427,[1.27579298]
6.6385413147667746e-18,0.4221713325785307,-1.0361189906584095e-18,0.4221713325785307,1.7364175418713157e-20,-0.02242399038124662,-1.0361189906584095e-18,-0.02242399038124662,4.6297232710143955e-18,0.42276644781220607,4.528498643707368e-18,-0.42276644781220596,0.5779273766343345,0.5761943202367689,0.5779273766343344,300.0,147.8571428571427,[1.28608885]
7.583803614122971e-18,0.42149620524363096,-1.3315134592072212e-18,0.42149620524363096,-7.162722360219177e-20,-0.02211375182117602,-1.3315134592072212e-18,-0.02211375182117602,5.930408535972378e-18,0.42207590437549225,5.779451158504442e-18,-0.42207590437549214,0.5781917403668885,0.5756636368080034,0.5781917403668885,300.0,147.8571428571427,[1.27579298]
8.503019650351099e-18,0.41920031325540386,-1.6447808192514664e-18,0.41920031325540386,-1.8666488575116644e-19,-0.02237514754415017,-1.6447808192514664e-18,-0.02237514754415017,7.21861329984816e-18,0.4197970341260777,7.058840251270768e-18,-0.41979703412607766,0.577821750536336,0.5764061495284806,0.5778217505363359,300.0,147.8571428571427,[1.27579298]
9.3875073357418e-18,0.4149274054277992,-1.975039296258163e-18,0.4149274054277992,-3.5813611801095886e-19,-0.023303307305903832,-1.975039296258163e-18,-0.023303307305903832,8.492167040714403e-18,0.41558127473027323,8.270290079867971e-18,-0.4155812747302732,0.5766871620226501,0.5786742039494445,0.5766871620226502,300.0,147.8571428571427,[1.28701332]
1.022532879969471e-17,0.407805142205838,-2.3233063223807516e-18,0.407805142205838,-5.55653613398821e-19,-0.025160309581182233,-2.3233063223807516e-18,-0.025160309581182233,9.739131887970742e-18,0.4085805614413696,9.458423711835547e-18,-0.40858056144136967,0.5744216058939217,0.5831634739629157,0.5744216058939218,300.0,147.8571428571427,[1.28500234]
1.098609673522708e-17,0.39583211213333136,-2.7125419498818666e-18,0.39583211213333136,-8.269688543162142e-19,-0.028557031099502896,-2.7125419498818666e-18,-0.028557031099502896,1.0966562037881028e-17,0.3968608887521572,1.0573270959912482e-17,-0.3968608887521573,0.5701017778353068,0.5915808700575472,0.5701017778353069,300.0,147.8571428571427,[1.30085671]
1.1555858741153606e-17,0.3738009867425605,-3.1724891120470776e-18,0.3738009867425605,-1.2681274360478952e-18,-0.035044821950981506,-3.1724891120470776e-18,-0.035044821950981506,1.2107171310697749e-17,0.37544016465382063,1.1511364293215897e-17,-0.3754401646538205,0.5609943092556383,0.6087452422529299,0.5609943092556383,300.0,147.8571428571427,[1.30321804]
1.1639423835356163e-17,0.3237566123565264,-3.8379236548020984e-18,0.3237566123565264,-2.2291260193773015e-18,-0.04945992463790949,-3.8379236548020984e-18,-0.04945992463790949,1.3060030436799635e-17,0.3275127908796262,1.1822225489874255e-17,-0.32751279087962626,0.5350447359850653,0.6537998630998202,0.5350447359850653,300.0,147.8571428571427,[0.78318519]
9.487351344399401e-18,0.146551741594308,-5.234586686234609e-18,0.146551741594308,-6.972259061095167e-18,-0.07958616086967951,-5.234586686234609e-18,-0.07958616086967951,1.2878249225384981e-17,0.16676741278289137,6.900642078619541e-18,-0.16676741278289156,0.34661157456948044,0.8716196606025651,0.34661157456948016,300.0,147.8571428571427,[0.50014683]
9.861766376865404e-18,0.14111151375697817,-4.996948449596087e-18,0.14111151375697817,-7.067219395416255e-18,-0.07526009020991302,-4.996948449596087e-18,-0.07526009020991302,1.3891340334970526e-17,0.15992667223821705,7.994375379599818e-18,-0.1599266722382169,0.4790014102924875,0.7356053954910989,0.4790014102924874,300.0,160.7142857142859,[0.51940651]
1.3229331147132088e-17,0.31711096553386975,-3.508852181974415e-18,0.31711096553386975,-2.524317001495425e-18,-0.0442001092436722,-3.508852181974415e-18,-0.0442001092436722,1.5626672615878172e-17,0.3201765358657247,1.455275534625156e-17,-0.3201765358657245,0.6287955865510184,0.4574190864709527,0.6287955865510184,300.0,160.7142857142859,[0.77510616]
1.431459211080166e-17,0.368132450712347,-2.731330530315396e-18,0.368132450712347,-1.7564948696992028e-18,-0.030591565727083915,-2.731330530315396e-18,-0.030591565727083915,1.6261007649143037e-17,0.3694013334587642,1.580197146391739e-17,-0.3694013334587641,0.645793142755296,0.40731122442240164,0.645793142755296,300.0,160.7142857142859,[0.89504942]
1.489195094347387e-17,0.3902260503156574,-2.1330465096874297e-18,0.3902260503156574,-1.5090553699825403e-18,-0.024181146938143112,-2.1330465096874297e-18,-0.024181146938143112,1.6713018840511414e-17,0.3909745493151722,1.643671503475768e-17,-0.3909745493151723,0.6517043211019833,0.3880244266976063,0.6517043211019834,300.0,160.7142857142859,[0.89860109]
1.527504806364923e-17,0.4018374055190166,-1.6092046082861732e-18,0.4018374055190166,-1.421149231925305e-18,-0.020523969542209267,-1.6092046082861732e-18,-0.020523969542209267,1.7107511200805303e-17,0.40236119817897975,1.6934754106163065e-17,-0.4023611981789796,0.6546447194493992,0.3779954795947107,0.654644719449399,300.0,160.7142857142859,[0.89946511]
1.5595200047931754e-17,0.4083532938661103,-1.1160552435136964e-18,0.4083532938661103,-1.405955578433931e-18,-0.018211946704012435,-1.1160552435136964e-18,-0.018211946704012435,1.747215888459828e-17,0.408759204928833,1.73720440387159e-17,-0.40875920492883294,0.6563582213691413,0.37200506781800013,0.6563582213691413,300.0,160.7142857142859,[0.89946511]
1.5839383764757408e-17,0.41183705625332895,-6.41728373579864e-19,0.41183705625332895,-1.4496373322216312e-18,-0.016683729168799365,-6.41728373579864e-19,-0.016683729168799365,1.782595395875456e-17,0.41217485090964184,1.777396562657754e-17,-0.4121748509096418,0.6574261447826386,0.36821424240851164,0.6574261447826385,300.0,160.7142857142859,[0.90147609]
1.6046668608818296e-17,0.41317129914818773,-1.8205252665557075e-19,0.41317129914818773,-1.5215358710647404e-18,-0.01568555673766161,-1.8205252665557075e-19,-0.01568555673766161,1.8167539847069558e-17,0.4134689336939013,1.8152998857917462e-17,-0.4134689336939013,0.6580860751291606,0.36584892434199406,0.6580860751291606,300.0,160.7142857142859,[0.90147609]
1.6223566145896436e-17,0.4126891420741343,2.728753035526681e-19,0.4126891420741343,-1.626806184540689e-18,-0.01510397554435437,2.728753035526681e-19,-0.01510397554435437,1.85004436476752e-17,0.41296544415135944,1.8518867445990956e-17,-0.41296544415135944,0.6584380636759489,0.36458007708229806,0.6584380636759489,300.0,160.7142857142859,[0.90147609]
1.6378758463701185e-17,0.4103668562698486,7.165435512628351e-19,0.4103668562698486,-1.740758585725994e-18,-0.014909308621044844,7.165435512628351e-19,-0.014909308621044844,1.882195220816231e-17,0.4106376069094938,1.886850555522896e-17,-0.41063760690949375,0.6585068470217391,0.3643315315080157,0.658506847021739,300.0,160.7142857142859,[0.90031232]
1.64959666477775e-17,0.4058163071446444,1.1516653688841043e-18,0.4058163071446444,-1.898121425458082e-18,-0.015146178683075343,1.1516653688841043e-18,-0.015146178683075343,1.9141832877203916e-17,0.40609885726657236,1.9227401580881016e-17,-0.4060988572665723,0.658251545376207,0.36525307119813544,0.6582515453762071,300.0,160.7142857142859,[0.89946511]
1.6551857587406482e-17,0.3980713203096533,1.573323167674848e-18,0.3980713203096533,-2.081801843559157e-18,-0.01596370981022467,1.573323167674848e-18,-0.01596370981022467,1.9443806740344975e-17,0.3983912851506365,1.956031962273171e-17,-0.3983912851506363,0.6575321144945931,0.36783561113157365,0.6575321144945931,300.0,160.7142857142859,[0.89946511]
1.651550134512355e-17,0.384908678889152,1.9746662378019015e-18,0.384908678889152,-2.3718378360998503e-18,-0.01772292765268666,1.9746662378019015e-18,-0.01772292765268666,1.9721633547044385e-17,0.38531648452768646,1.9893276292216628e-17,-0.3853164845276863,0.6559779529733272,0.37334414475902444,0.6559779529733272,300.0,160.7142857142859,[0.9016057]
1.6259379757697532e-17,0.3605559535961189,2.317184772257553e-18,0.3605559535961189,-2.8135390483133662e-18,-0.021348486038948365,2.317184772257553e-18,-0.021348486038948365,1.9966088579110957e-17,0.3611874216106672,2.0212788523483823e-17,-0.361187421610667,0.6524555758084161,0.38549117135547606,0.652455575808416,300.0,160.7142857142859,[0.89801079]
1.5460627688436727e-17,0.30530186606707005,2.5493458324700547e-18,0.30530186606707005,-3.760971869596903e-18,-0.029698397082214126,2.5493458324700547e-18,-0.029698397082214126,2.0080583610778096e-17,0.306742928546508,2.0544134465330415e-17,-0.3067429285465081,0.6416795231224975,0.4201128172414747,0.6416795231224975,300.0,160.7142857142859,[0.77510616]
1.2148411227317192e-17,0.11748756630478967,2.3598321366892556e-18,0.11748756630478967,-8.522283032456234e-18,-0.045993129678885594,2.3598321366892556e-18,-0.045993129678885594,1.931954436000481e-17,0.12616931565908232,2.0356089153779364e-17,-0.12616931565908232,0.5363660592438088,0.6516309545920411,0.5363660592438086,300.0,160.7142857142859,[0.46956532]
1.13795038345573e-17,0.11444646443394696,2.657719314013996e-18,0.11444646443394696,-8.512515683783208e-18,-0.03973127211033356,2.657719314013996e-18,-0.03973127211033356,1.8988268450844672e-17,0.12114688277019789,1.9335638884909694e-17,-0.1211468827701979,0.6378329035482746,0.43166928811574584,0.6378329035482746,300.0,173.57142857142813,[0.4636052]
1.344041440456582e-17,0.3015472866329534,2.87897689298213e-18,0.3015472866329534,-3.737638758878007e-18,-0.022061968869392483,2.87897689298213e-18,-0.022061968869392483,1.8794549368829653e-17,0.3023532644872395,1.92070779928528e-17,-0.3023532644872395,0.6950106717397123,0.1841747331634496,0.6950106717397123,300.0,173.57142857142813,[0.39946165]
1.2993829518015791e-17,0.35729937618519797,2.710456213967314e-18,0.35729937618519797,-2.781523849885114e-18,-0.014852449582729205,2.710456213967314e-18,-0.014852449582729205,1.7746458593165764e-17,0.3576079410205248,1.7968631760242462e-17,-0.3576079410205247,0.6987661613098166,0.15313949071577307,0.6987661613098166,300.0,173.57142857142813,[0.32849066]
1.196337423301153e-17,0.38164274796498526,2.456793420912109e-18,0.38164274796498526,-2.320966228427839e-18,-0.011313265784058781,2.456793420912109e-18,-0.011313265784058781,1.6580617002943726e-17,0.38181039411855466,1.672037778111013e-17,-0.38181039411855466,0.7000062379663008,0.14135958975794033,0.7000062379663008,300.0,173.57142857142813,[0.34678585]
1.07196651686462e-17,0.3945608881399473,2.160178033779169e-18,0.3945608881399473,-2.0109885656797175e-18,-0.009151774075192038,2.160178033779169e-18,-0.009151774075192038,1.53946980848938e-17,0.3946670108059545,1.5492419587846895e-17,-0.39466701080595445,0.7006358419075295,0.13497716128684253,0.7006358419075296,300.0,173.57142857142813,[0.34594725]
9.390763118632809e-18,0.4019258298060298,1.8561353919261154e-18,0.4019258298060298,-1.8066881892689205e-18,-0.00765025218214036,1.8561353919261154e-18,-0.00765025218214036,1.417595002269287e-17,0.4019986306241801,1.4245392388897894e-17,-0.40199863062418006,0.7010267282308528,0.13085508248399041,0.7010267282308528,300.0,173.57142857142813,[0.34594725]
7.993489627908235e-18,0.40599517665375034,1.5373569410507359e-18,0.40599517665375034,-1.6452556209230718e-18,-0.006519175564824138,1.5373569410507359e-18,-0.006519175564824138,1.2958015906214695e-17,0.4060475133727024,1.3006204938283908e-17,-0.4060475133727024,0.7012989700883181,0.12790429666797118,0.7012989700883182,300.0,173.57142857142813,[0.34594725]
6.545751502373026e-18,0.4077408191502917,1.2160009953866411e-18,0.4077408191502917,-1.4914198793229097e-18,-0.005621382491422969,1.2160009953866411e-18,-0.005621382491422969,1.1727058658172481e-17,0.40777956734302634,1.1759675214650276e-17,-0.4077795673430263,0.701502476224399,0.12565250376364398,0.7015024762243991,300.0,173.57142857142813,[0.34594725]
5.072509744191581e-18,0.407538072538284,8.908466363497028e-19,0.407538072538284,-1.380451945787696e-18,-0.004885720018052312,8.908466363497028e-19,-0.004885720018052312,1.0498543247298525e-17,0.4075673574126298,1.0519171378365113e-17,-0.4075673574126299,0.7016610923208166,0.12386857166495553,0.7016610923208167,300.0,173.57142857142813,[0.34594725]
3.56562489613638e-18,0.4053784968732031,5.620973503706091e-19,0.4053784968732031,-1.3014992106807346e-18,-0.004275151482254261,5.620973503706091e-19,-0.004275151482254261,9.259175226787874e-18,0.40540103927761945,9.270410537259757e-18,-0.40540103927761933,0.7017866754950318,0.12243742971518749,0.7017866754950317,300.0,173.57142857142813,[0.34594725]
2.0137017180888914e-18,0.40086719966866446,2.290070205368371e-19,0.40086719966866446,-1.2415385424379907e-18,-0.0037749383694226017,2.290070205368371e-19,-0.0037749383694226017,8.013431298115663e-18,0.40088497343987556,8.017180343197377e-18,-0.4008849734398755,0.701883975555933,0.12131681546923713,0.7018839755559327,300.0,173.57142857142813,[0.34594725]
3.9232183836655044e-19,0.3930025224878367,-1.0564337193220994e-19,0.3930025224878367,-1.2358409223787255e-18,-0.00339170179516042,-1.0564337193220994e-19,-0.00339170179516042,6.755478183602171e-18,0.3930171577970483,6.75318727977752e-18,-0.39301715779704827,0.7019512391985911,0.12053595138017698,0.7019512391985911,300.0,173.57142857142813,[0.34594725]
-1.3164215489311912e-18,0.3794698589183185,-4.417181694160733e-19,0.3794698589183185,-1.3013635530602759e-18,-0.0031651017000438623,-4.417181694160733e-19,-0.0031651017000438623,5.4925057371317055e-18,0.37948305851020575,5.484652919620923e-18,-0.37948305851020575,0.7019758722135075,0.1202486992036544,0.7019758722135073,300.0,173.57142857142813,[0.34678585]
-3.238418715590004e-18,0.3542595929799833,-7.891882070184672e-19,0.3542595929799833,-1.5397139922062057e-18,-0.0032099515415552607,-7.891882070184672e-19,-0.0032099515415552607,4.194940597444273e-18,0.354274135391285,4.179996907629258e-18,-0.354274135391285,0.7019144602817878,0.12096355192640845,0.7019144602817877,300.0,173.57142857142813,[0.31495638]
-5.764363608530933e-18,0.2969365867912843,-1.1472564962191966e-18,0.2969365867912843,-2.2688737021716996e-18,-0.003839968548249367,-1.1472564962191966e-18,-0.003839968548249367,2.7995663134061205e-18,0.29696141489040184,2.7685149616336697e-18,-0.29696141489040184,0.7015781471028805,0.12480467545479929,0.7015781471028804,300.0,173.57142857142813,[0.33767675]
-1.0896020075242506e-17,0.10555910487120655,-1.5283187520876752e-18,0.10555910487120655,-6.819915553320052e-18,-0.0030744239934327308,-1.5283187520876752e-18,-0.0030744239934327308,6.385404194990846e-19,0.10560386689937908,5.396073739522395e-19,-0.1056038668993791,0.7000579226366898,0.14084676037170768,0.7000579226366898,300.0,173.57142857142813,[0.20889595]
-1.1870584420617782e-17,0.10551470519658113,-1.1501731350590586e-18,0.10551470519658113,-6.766398622049096e-18,0.003887045198294312,-1.1501731350590586e-18,0.003887045198294312,-1.9399039725593605e-20,0.10558627814775466,4.880486076843277e-20,-0.10558627814775472,0.6992697457631573,0.14847102518895264,0.6992697457631575,300.0,173.57142857142813,[0.20889595]
-8.678289295983735e-18,0.296803661619762,-6.384386762837406e-19,0.296803661619762,-2.103439234022319e-18,0.004672589311421056,-6.384386762837406e-19,0.004672589311421056,8.19914658052362e-19,0.2968404397008121,8.377492585971023e-19,-0.2968404397008121,0.7013273489886682,0.12759270794623742,0.7013273489886682,300.0,173.57142857142813,[0.33767675]
-8.0865507555429e-18,0.3540385687154446,-1.110103265416071e-19,0.3540385687154446,-1.2510345758700995e-18,0.0040619322829538096,-1.110103265416071e-19,0.0040619322829538096,8.930341154795993e-19,0.3540618694973408,8.944210868223078e-19,-0.3540618694973407,0.7017061221667721,0.12335735173609681,0.7017061221667719,300.0,173.57142857142813,[0.31495638]
-8.098488626143266e-18,0.3791612337990156,4.361816427811027e-19,0.3791612337990156,-9.174524871621647e-19,0.004035913456219888,4.361816427811027e-19,0.004035913456219888,8.695653471402448e-19,0.3791827129675321,8.592992063256555e-19,-0.37918271296753214,0.7017781672650663,0.12253492522611498,0.7017781672650664,300.0,173.57142857142813,[0.34678585]
-8.333990255259563e-18,0.39260686458012206,9.827377170079124e-19,0.39260686458012206,-7.393340314998961e-19,0.004280832263863674,9.827377170079124e-19,0.004280832263863674,8.153022989567663e-19,0.39263020214994365,7.927684125090119e-19,-0.39263020214994376,0.7017556799944364,0.12279222773079843,0.7017556799944364,300.0,173.57142857142813,[0.34594725]
-8.653599609060252e-18,0.40038514478621096,1.5389848324962402e-18,0.40038514478621096,-6.271451793805541e-19,0.004681872020667634,1.5389848324962402e-18,0.004681872020667634,7.459812549023723e-19,0.40041251740060896,7.086994392820899e-19,-0.400412517400609,0.7016868928824723,0.12357592287288044,0.7016868928824723,300.0,173.57142857142813,[0.34594725]
-9.038053305440198e-18,0.4048107464367008,2.095715228257452e-18,0.4048107464367008,-5.73763905730057e-19,0.005199366058886918,2.095715228257452e-18,0.005199366058886918,6.647901690578424e-19,0.40484413523978985,6.095982576233981e-19,-0.4048441352397898,0.7015859095937825,0.12471737216173859,0.7015859095937823,300.0,173.57142857142813,[0.34594725]
-9.459677189825827e-18,0.4068853913929843,2.66183143563415e-18,0.4068853913929843,-5.509055966827666e-19,0.005826686862304499,2.66183143563415e-18,0.005826686862304499,5.851591458485875e-19,0.40692710896278883,5.07025423611943e-19,-0.40692710896278883,0.7014549790884397,0.1261817127165156,0.7014549790884398,300.0,173.57142857142813,[0.34594725]
-9.923354936553652e-18,0.4070040333572228,3.2261332223372135e-18,0.4070040333572228,-5.401208158563003e-19,0.006578568093950515,3.2261332223372135e-18,0.006578568093950515,5.003731330619022e-19,0.40705719589170025,3.9347802573367846e-19,-0.4070571958917002,0.7012893705331333,0.12800952134307506,0.7012893705331333,300.0,173.57142857142813,[0.34594725]
-1.042935786086459e-17,0.4051751712795997,3.790477402046669e-18,0.4051751712795997,-5.646748451593243e-19,0.007492043632101819,3.790477402046669e-18,0.007492043632101819,4.0344576324416355e-19,0.4052444325826553,2.5942045462930093e-19,-0.40524443258265536,0.7010768607958138,0.13031680825348038,0.7010768607958138,300.0,173.57142857142813,[0.34594725]
-1.0959236526376259e-17,0.4010235467432944,4.367581876680522e-18,0.4010235467432944,-6.305366198920215e-19,0.008638266051658015,4.367581876680522e-18,0.008638266051658015,3.0285563767404e-19,0.4011165724361816,1.107501693719287e-19,-0.40111657243618143,0.700792695719194,0.13333864876040513,0.7007926957191939,300.0,173.57142857142813,[0.34594725]
-1.1561827676453789e-17,0.39357732402586737,4.949315667612527e-18,0.39357732402586737,-7.258360982642558e-19,0.010154399606730742,4.949315667612527e-18,0.010154399606730742,1.9453302773777086e-19,0.39370829533899304,-6.744663663343508e-20,-0.39370829533899304,0.7003849452902213,0.13755674037148272,0.7003849452902214,300.0,173.57142857142813,[0.34594725]
-1.2271859661934606e-17,0.3805789523717841,5.542521006074571e-18,0.3805789523717841,-8.991387084002407e-19,0.012329975378722205,5.542521006074571e-18,0.012329975378722205,7.013498977714611e-20,0.3807786329105725,-3.0080281739212326e-19,-0.3807786329105727,0.699728539175491,0.1440831111777747,0.699728539175491,300.0,173.57142857142813,[0.34678585]
-1.3182529268073838e-17,0.3561564506704884,6.17772085666986e-18,0.3561564506704884,-1.257953114513493e-18,0.015882729835630882,6.17772085666986e-18,0.015882729835630882,-9.747000029957348e-20,0.35651041844696735,-6.65233557520313e-19,-0.3565104184469673,0.6984358896327099,0.1561237206382501,0.6984358896327099,300.0,173.57142857142813,[0.32849066]
-1.464858117237097e-17,0.3003263874532075,6.903870663181428e-18,0.3003263874532075,-2.127382804033279e-18,0.0231053440743926,6.903870663181428e-18,0.0231053440743926,-3.698705021806361e-19,0.30121387073886585,-1.5166136484779715e-18,-0.3012138707388658,0.694517361525969,0.1878597058392605,0.694517361525969,300.0,173.57142857142813,[0.3970231]
-1.8663097134605176e-17,0.11314882176178957,8.014567430687005e-18,0.11314882176178957,-6.774741565707306e-18,0.04078739982047963,8.014567430687005e-18,0.04078739982047963,-1.498881048448138e-18,0.12027579910437876,-8.685639641516221e-18,-0.1202757991043788,0.6341762150783568,0.44231330124446894,0.6341762150783568,300.0,173.57142857142813,[0.4636052]
-1.8351220265170633e-17,0.11611537509787963,7.871838656761899e-18,0.11611537509787963,-6.6908034130484874e-18,0.04707832103561547,7.871838656761899e-18,0.04707832103561547,-1.5997424892591791e-18,0.12529624354167124,-1.0903454540063215e-17,-0.12529624354167113,0.5307714092656595,0.6607294621948472,0.5307714092656595,300.0,160.7142857142859,[0.46956532]
-1.4008955491908215e-17,0.3038587751428925,5.9182035894317345e-18,0.3038587751428925,-1.861086895072858e-18,0.030833873566926864,5.9182035894317345e-18,0.030833873566926864,-3.841823811390286e-19,0.3054191922431858,-1.655791036512861e-18,-0.3054191922431858,0.6404388530501254,0.4238822371929253,0.6404388530501256,300.0,160.7142857142859,[0.77510616]
-1.2187344964388838e-17,0.3590435001514128,4.37759086548999e-18,0.3590435001514128,-8.417894493513268e-19,0.02253310636840778,4.37759086548999e-18,0.02253310636840778,-4.5411388448548666e-20,0.3597498796158069,-6.460368055941784e-19,-0.35974987961580684,0.6514877417350008,0.38875113470967215,0.6514877417350009,300.0,160.7142857142859,[0.94672618]
-1.0915283457347641e-17,0.38332849086292575,2.9603417901528725e-18,0.38332849086292575,-3.173879602656779e-19,0.018955909455738097,2.9603417901528725e-18,0.018955909455738097,1.6702844518977011e-19,0.3837968973435591,-1.544541586984712e-19,-0.383796897343559,0.6550769631599288,0.37649481360880743,0.6550769631599288,300.0,160.7142857142859,[0.9016057]
-9.833820907050912e-18,0.3964250494077083,1.5888898796224834e-18,0.3964250494077083,1.6431529278059618e-20,0.017244355620840902,1.5888898796224834e-18,0.017244355620840902,3.426033204684381e-19,0.3967999339701077,1.8186998273905089e-19,-0.39679993397010765,0.6566463146931721,0.3709868391193286,0.6566463146931721,300.0,160.7142857142859,[0.89946511]
-8.875399818510221e-18,0.40410561077370655,2.3796890208838973e-19,0.40410561077370655,2.901716501611519e-19,0.016473814658412425,2.3796890208838973e-19,0.016473814658412425,4.8758740233367e-19,0.4044412580686968,4.499600453747514e-19,-0.4044412580686968,0.6573596827763102,0.3684514824511603,0.6573596827763102,300.0,160.7142857142859,[0.89946511]
-7.955234178938882e-18,0.40859339054381694,-1.0958931296730227e-18,0.40859339054381694,5.113274859139419e-19,0.016283270142614076,-1.0958931296730227e-18,0.016283270142614076,6.297226741692693e-19,0.40891772238755986,7.065499022661129e-19,-0.40891772238755975,0.6575971764036537,0.36760292051598864,0.6575971764036536,300.0,160.7142857142859,[0.89946511]
-7.088381984207812e-18,0.41085455767993373,-2.4187626548766413e-18,0.41085455767993373,7.09743713037343e-19,0.016523603604155453,-2.4187626548766413e-18,0.016523603604155453,7.636845743722322e-19,0.41118669365926863,9.465852384439474e-19,-0.4111866936592685,0.6575022444132469,0.3679423829665253,0.6575022444132469,300.0,160.7142857142859,[0.90147609]
-6.227498724776924e-18,0.4112772383848861,-3.730177589752779e-18,0.4112772383848861,8.691075026711967e-19,0.017150197657513334,-3.730177589752779e-18,0.017150197657513334,8.868616937487286e-19,0.4116346633766287,1.1848495319024615e-18,-0.4116346633766286,0.6571165401217919,0.36931789206147453,0.6571165401217919,300.0,160.7142857142859,[0.90147609]
-5.44204110232107e-18,0.40988515083195853,-5.0370437550429105e-18,0.40988515083195853,1.0115649613553854e-18,0.018192735661129982,-5.0370437550429105e-18,0.018192735661129982,9.967782807253875e-19,0.4102886940964536,1.4387093992384369e-18,-0.4102886940964535,0.6564142683407241,0.3718072304802903,0.6564142683407241,300.0,160.7142857142859,[0.90031232]
-4.66044972204829e-18,0.4063451634243385,-6.329008778585783e-18,0.4063451634243385,1.1199214856967693e-18,0.019764679810981758,-6.329008778585783e-18,0.019764679810981758,1.0960796589011534e-18,0.4068255577104062,1.6969842036179914e-18,-0.40682555771040624,0.6552920565422917,0.37574544743103383,0.6552920565422918,300.0,160.7142857142859,[0.89946511]
-3.948315043450363e-18,0.39977465710977445,-7.604423572432693e-18,0.39977465710977445,1.182137461879639e-18,0.022119801826831275,-7.604423572432693e-18,0.022119801826831275,1.1843588554146501e-18,0.4003861412437948,2.006717123073776e-18,-0.4003861412437947,0.6535046532240952,0.38192058916600724,0.6535046532240952,300.0,160.7142857142859,[0.89946511]
-3.300482076949858e-18,0.3881102797612318,-8.841994129472267e-18,0.3881102797612318,1.180373912813676e-18,0.025819468737362287,-8.841994129472267e-18,0.025819468737362287,1.2399106509924864e-18,0.38896816607817813,2.4080802991892356e-18,-0.38896816607817813,0.6504518531324792,0.39220501464546176,0.6504518531324793,300.0,160.7142857142859,[0.89860109]
-2.872143140351523e-18,0.3659652491418715,-1.0016541123557178e-17,0.3659652491418715,9.92979867352544e-19,0.032271801333100716,-1.0016541123557178e-17,0.032271801333100716,1.2408602543356972e-18,0.3673854008269179,3.0339543094619933e-18,-0.3673854008269181,0.6443315212693997,0.411914774434375,0.6443315212693997,300.0,160.7142857142859,[0.89738521]
-2.929594142615781e-18,0.3148939471579081,-1.1004544051959144e-17,0.3148939471579081,2.940209351416674e-19,0.04592177635722205,-1.1004544051959144e-17,0.04592177635722205,1.0663706400206988e-18,0.3182247751204957,4.267904688417109e-18,-0.31822477512049563,0.626738800151031,0.46303018559321973,0.6267388001510311,300.0,160.7142857142859,[0.77510616]
-5.275996174879626e-18,0.13884643866740562,-1.1286487219579348e-17,0.13884643866740562,-4.190413024361464e-18,0.07702305591513126,-1.1286487219579348e-17,0.07702305591513126,-2.1673000588532508e-19,0.15877935846049715,8.169192974744188e-18,-0.1587793584604971,0.47034831254927834,0.7466893127426515,0.4703483125492782,300.0,160.7142857142859,[0.51940651]
-4.933664169652105e-18,0.14424219820611722,-1.1089946882988852e-17,0.14424219820611722,-4.159059156832948e-18,0.08140229501444068,-1.1089946882988852e-17,0.08140229501444068,-1.5020859597314748e-18,0.16562652377246487,2.114547885655566e-18,-0.1656265237724648,0.3365252027720208,0.879489383562133,0.33652520277202097,300.0,147.85714285714295,[0.50414862]
-2.4096863122078266e-18,0.3214103180864961,-1.0799228363045226e-17,0.3214103180864961,4.109832397808999e-19,0.051350201418200486,-1.0799228363045226e-17,0.051350201418200486,-2.2883744851126372e-18,0.3254864601763835,1.1779392763448358e-18,-0.32548646017638344,0.5318749118805126,0.6589523171096631,0.5318749118805125,300.0,147.85714285714295,[0.78318519]
-2.1359970629324063e-18,0.3714187926859891,-9.785202487668707e-18,0.3714187926859891,1.1766348496497831e-18,0.03700802015233216,-9.785202487668707e-18,0.03700802015233216,-4.2180023929222515e-18,0.3732579712690852,-2.1705104013078327e-18,-0.37325797126908516,0.5584742245496204,0.6133621124812003,0.5584742245496203,300.0,147.85714285714295,[1.30457099]
-2.358950362156274e-18,0.3934151035512212,-8.569205731582705e-18,0.3934151035512212,1.4290597669183027e-18,0.030592475877176117,-8.569205731582705e-18,0.030592475877176117,-6.347640504895657e-18,0.39460276644052295,-5.024403013645548e-18,-0.39460276644052295,0.5677563711873787,0.5960750002745288,0.5677563711873785,300.0,147.85714285714295,[1.30085671]
-2.736756835133744e-18,0.4053544421463231,-7.268009630897683e-18,0.4053544421463231,1.5162791382719659e-18,0.027267459617764948,-7.268009630897683e-18,0.027267459617764948,-8.545887458416047e-18,0.4062705233237616,-7.556285118973185e-18,-0.40627052332376173,0.5721249210095052,0.587661594388926,0.5721249210095051,300.0,147.85714285714295,[1.30085671]
-3.2144751455790442e-18,0.4124441312825974,-5.935095082829162e-18,0.4124441312825974,1.513744036489644e-18,0.025481658654779027,-5.935095082829162e-18,0.025481658654779027,-1.0779998895345206e-17,0.4132305365740232,-1.0031031439757336e-17,-0.4132305365740232,0.5743866066238082,0.5832324170194699,0.5743866066238082,300.0,147.85714285714295,[1.28701332]
-3.74150500106108e-18,0.4166855673451125,-4.580772066532003e-18,0.4166855673451125,1.4796558200487572e-18,0.024624207317245784,-4.580772066532003e-18,0.024624207317245784,-1.3030372289526852e-17,0.4174125221165757,-1.2431737384904213e-17,-0.41741252211657576,0.5754885166895849,0.5810558788247849,0.5754885166895848,300.0,147.85714285714295,[1.28701332]
-4.292647998579649e-18,0.4189510735303765,-3.2088241578268116e-18,0.4189510735303765,1.4119329923353922e-18,0.024433028024007722,-3.2088241578268116e-18,0.024433028024007722,-1.5292157881029583e-17,0.41966293006492383,-1.4876769767708767e-17,-0.41966293006492356,0.5758060388227223,0.580426404732393,0.5758060388227221,300.0,147.85714285714295,[1.27579298]
-4.8801133239760346e-18,0.4195968861600854,-1.8283510155359186e-18,0.4195968861600854,1.3038732190387618e-18,0.02481298683430034,-1.8283510155359186e-18,0.02481298683430034,-1.756927278364415e-17,0.42032990756176136,-1.7334284820871297e-17,-0.42032990756176136,0.5754721874742179,0.5810882229810523,0.575472187474218,300.0,147.85714285714295,[1.27579298]
-5.484094964663266e-18,0.4186572612003802,-4.2483939392056393e-19,0.4186572612003802,1.1840069934615854e-18,0.02578053529945427,-4.2483939392056393e-19,0.02578053529945427,-1.9863650118462083e-17,0.41945028114918426,-1.9766953265939848e-17,-0.4194502811491842,0.5744699924502453,0.5830681397130442,0.5744699924502454,300.0,147.85714285714295,[1.27579298]
-6.126365968724965e-18,0.4158553965359082,9.930264996595767e-19,0.4158553965359082,1.0426475136429843e-18,0.027468970909830578,9.930264996595767e-19,0.027468970909830578,-2.2178545668374396e-17,0.4167616287410378,-2.223924375171658e-17,-0.41676162874103767,0.5726267564348987,0.5866832157388644,0.5726267564348987,300.0,147.85714285714295,[1.30286769]
-6.819576409268905e-18,0.41043966767389256,2.429195573750043e-18,0.41043966767389256,8.433749477904378e-19,0.030198408870735705,2.429195573750043e-18,0.030198408870735705,-2.451094105132588e-17,0.41154910362990665,-2.4789752648862746e-17,-0.41154910362990654,0.5695055690381435,0.5927282797952881,0.5695055690381435,300.0,147.85714285714295,[1.30286769]
-7.56623595227357e-18,0.40063965553515946,3.907793688289286e-18,0.40063965553515946,5.749212348045953e-19,0.034690865459778356,3.907793688289286e-18,0.034690865459778356,-2.6892334271066793e-17,0.40213876924972003,-2.7434652007562313e-17,-0.40213876924972003,0.5640389321719874,0.6030921703923607,0.5640389321719875,300.0,147.85714285714295,[1.30085671]
-8.475616811018442e-18,0.3818052962285622,5.479567391580457e-18,0.3818052962285622,1.1423855397846016e-19,0.042765949236463936,5.479567391580457e-18,0.042765949236463936,-2.937274059653999e-17,0.38419293413892425,-3.03376411444337e-17,-0.38419293413892436,0.5531269253232586,0.6229776953991822,0.5531269253232586,300.0,147.85714285714295,[1.33715109]
-9.775962931925278e-18,0.3378103641427783,7.286964603881306e-18,0.3378103641427783,-8.270769564825172e-19,0.060140548767365874,7.286964603881306e-18,0.060140548767365874,-3.211881541447899e-17,0.34312203037449585,-3.383839812325284e-17,-0.3431220303744956,0.52351704406343,0.6722051838167994,0.5235170440634302,300.0,147.85714285714295,[0.77676586]
-1.300427515479111e-17,0.17761273241541276,9.994147017929895e-18,0.17761273241541276,-5.572433511385714e-18,0.09850153696276563,9.994147017929895e-18,0.09850153696276563,-3.6336097126292556e-17,0.20309809329507772,-3.552801682868571e-17,-0.20309809329507772,0.3411379089419393,0.8759279959936446,0.3411379089419392,300.0,147.85714285714295,[1.06418539]
-1.2434886207320846e-17,0.1843672399510207,1.0600773982216071e-17,0.1843672399510207,-5.578531745355396e-18,0.10010301517987917,1.0600773982216071e-17,0.10010301517987917,-3.610082441941078e-17,0.2097901161047879,-3.8207965412415815e-17,-0.2097901161047877,0.20082982538855768,0.9588194629171869,0.20082982538855718,300.0,134.9999999999996,[1.10858893]
-8.681172020418482e-18,0.3460164270836284,8.976221515877768e-18,0.3460164270836284,-8.445492340675334e-19,0.0621975658748187,8.976221515877768e-18,0.0621975658748187,-3.0791155479552925e-17,0.35156209268416905,-3.296247090302679e-17,-0.35156209268416927,0.4036539591653009,0.821052350645411,0.40365395916530106,300.0,134.9999999999996,[1.08814697]
-6.821797802803916e-18,0.3887402097866304,8.249533318185006e-18,0.3887402097866304,1.0282423700705265e-19,0.0446564007819954,8.249533318185006e-18,0.0446564007819954,-2.6989867860875956e-17,0.39129674779603724,-2.8652603708609165e-17,-0.3912967477960374,0.4396711842644612,0.7831848437342057,0.43967118426446133,300.0,134.9999999999996,[1.39371519]
-5.319169212590606e-18,0.40744344923689485,7.772889670451778e-18,0.40744344923689485,5.465115615700967e-19,0.03667465529492072,7.772889670451778e-18,0.03667465529492072,-2.349871051977012e-17,0.4090906924718032,-2.4707043765409403e-17,-0.40909069247180324,0.4531620992177994,0.7676511080334834,0.4531620992177994,300.0,134.9999999999996,[1.39542642]
-3.9592693963024025e-18,0.41764084417532626,7.387503327931178e-18,0.41764084417532626,8.0163267404523295e-19,0.0323958879286213,7.387503327931178e-18,0.0323958879286213,-2.0103327458708125e-17,0.4188954144869133,-2.11495170511004e-17,-0.41889541448691336,0.4598342962509762,0.759674166983937,0.45983429625097627,300.0,134.9999999999996,[1.39026855]
-2.6470871480105456e-18,0.4237586705325691,7.044301206247434e-18,0.4237586705325691,1.00249391781237e-18,0.029949357807988304,7.044301206247434e-18,0.029949357807988304,-1.676494179474198e-17,0.42481569519574197,-1.7708311297989682e-17,-0.4248156951957419,0.4635060770802297,0.7551981415624595,0.4635060770802296,300.0,134.9999999999996,[1.4121816]
-1.386437838290436e-18,0.42749007558572666,6.729299972241702e-18,0.42749007558572666,1.143662629102201e-18,0.02859533740796342,6.729299972241702e-18,0.02859533740796342,-1.3461148823992804e-17,0.42844539680776783,-1.4315687512886546e-17,-0.42844539680776794,0.46551409018490825,0.7527238960459767,0.4655140901849084,300.0,134.9999999999996,[1.42115609]
-1.5346268314390046e-19,0.4295738274935939,6.430952300885014e-18,0.4295738274935939,1.253361951921094e-18,0.028010695967974095,6.430952300885014e-18,0.028010695967974095,-1.0177170344431873e-17,0.43048608845827563,-1.0975564984997792e-17,-0.4304860884582755,0.46640662996074694,0.7516180619552181,0.46640662996074694,300.0,134.9999999999996,[1.41860664]
1.0458354677237636e-18,0.43031552017284985,6.145089369911165e-18,0.43031552017284985,1.3443373436412074e-18,0.028068624057305473,6.145089369911165e-18,0.028068624057305473,-6.9073172146012064e-18,0.4312299787330427,-7.658578457103458e-18,-0.4312299787330428,0.4663948657945182,0.7516326618242629,0.4663948657945183,300.0,134.9999999999996,[1.41860664]
2.244641859717265e-18,0.4297531698975862,5.876549281174796e-18,0.4297531698975862,1.4051956837943303e-18,0.028769082001711334,5.876549281174796e-18,0.028769082001711334,-3.670297468222182e-18,0.43071504166472374,-4.422183556990766e-18,-0.43071504166472374,0.4654865155696194,0.752758000718497,0.4654865155696195,300.0,134.9999999999996,[1.42115609]
3.417401988582697e-18,0.42766933836153986,5.629716001449558e-18,0.42766933836153986,1.437699461621266e-18,0.030238800802817035,5.629716001449558e-18,0.030238800802817035,-4.452113531428847e-19,0.428737038344706,-1.1905190400847567e-18,-0.42873703834470595,0.46348985743469223,0.7552180507047866,0.4634898574346922,300.0,134.9999999999996,[1.42115609]
4.539129416351822e-18,0.4234592142297074,5.4078124590465056e-18,0.4234592142297074,1.416073729234862e-18,0.032800836223592915,5.4078124590465056e-18,0.032800836223592915,2.7349593716626662e-18,0.4247276786047834,1.8838174475966506e-18,-0.42472767860478333,0.45989277092725783,0.7596033691984903,0.4598927709272577,300.0,134.9999999999996,[1.4121816]
5.638651387372115e-18,0.41568601005359973,5.219672296672851e-18,0.41568601005359973,1.3214567782655605e-18,0.03719484977638357,5.219672296672851e-18,0.03719484977638357,5.847426345607729e-18,0.41734675727046106,4.966818279282216e-18,-0.41734675727046094,0.4534492645308038,0.7673118850851629,0.453449264530804,300.0,134.9999999999996,[1.40042131]
6.602481823528597e-18,0.40054196417951105,5.142231932068972e-18,0.40054196417951105,1.0816819341048144e-18,0.04529154233743317,5.142231932068972e-18,0.04529154233743317,8.820977796552767e-18,0.403094516058063,7.466606353731217e-18,-0.40309451605806307,0.440654000104163,0.7820793466039112,0.440654000104163,300.0,134.9999999999996,[1.39457921]
7.287400192021998e-18,0.3645424164230589,5.294683277054101e-18,0.3645424164230589,3.0469655397667093e-19,0.0629474141142703,5.294683277054101e-18,0.0629474141142703,1.1430144400344468e-17,0.36993722483042496,9.834240681842337e-18,-0.36993722483042485,0.4076299735002788,0.8171141960633924,0.4076299735002788,300.0,134.9999999999996,[1.38991663]
6.471402647760382e-18,0.22177896826703253,6.353466363799262e-18,0.22177896826703253,-4.2698940823106025e-18,0.10096781574100223,6.353466363799262e-18,0.10096781574100223,1.2144439002618136e-17,0.24368096064546838,8.589809307987181e-18,-0.24368096064546857,0.2478879601549917,0.936537836085865,0.24788796015499143,300.0,134.9999999999996,[1.0738925]
6.81649019840347e-18,0.22855561153980328,5.95389081708252e-18,0.22855561153980328,-4.2907429628548484e-18,0.09947341417000174,5.95389081708252e-18,0.09947341417000174,1.2906321874218653e-17,0.24926417250172606,7.538002105285065e-18,-0.24926417250172592,0.10601706511892182,0.9886964973171194,0.10601706511892198,300.0,122.14285714285755,[1.10037632]
7.74421875031538e-18,0.3728174199409858,4.233246123152428e-18,0.3728174199409858,2.3320180851945835e-19,0.06122287421640818,4.233246123152428e-18,0.06122287421640818,1.4319064572976156e-17,0.3778108904449042,1.2365990759212527e-17,-0.37781089044490423,0.27421015846835206,0.9217470249398814,0.2742101584683521,300.0,122.14285714285755,[1.39089534]
7.2263881772207e-18,0.40759222351611535,3.4071092315866833e-18,0.40759222351611535,9.481519126544837e-19,0.043957326378563505,3.4071092315866833e-18,0.043957326378563505,1.3813472860827235e-17,0.40995568932893517,1.3028114406683597e-17,-0.40995568932893534,0.30983663613559403,0.8988896026856463,0.30983663613559403,300.0,122.14285714285755,[1.39341176]
6.419335557308078e-18,0.4226513950435369,2.8139052179060887e-18,0.4226513950435369,1.1497704014983218e-18,0.0359903568781047,2.8139052179060887e-18,0.0359903568781047,1.2898324433562549e-17,0.42418098439281937,1.2356468496024552e-17,-0.42418098439281937,0.3240471140699897,0.8888120924727692,0.32404711406998976,300.0,122.14285714285755,[1.404229]
5.50374836242722e-18,0.4308681177505089,2.3175257710027294e-18,0.4308681177505089,1.2069106100344586e-18,0.03160513166711835,2.3175257710027294e-18,0.03160513166711835,1.183964812420224e-17,0.432025715949366,1.1413310729708263e-17,-0.4320257159493659,0.33139537702554495,0.8833765947613703,0.33139537702554484,300.0,122.14285714285755,[1.42204654]
4.5642684691430744e-18,0.4358263712680706,1.857646702604038e-18,0.4358263712680706,1.1793972839288893e-18,0.028982004197449535,1.857646702604038e-18,0.028982004197449535,1.0701877063163554e-17,0.43678894498372456,1.0409350163008768e-17,-0.43678894498372456,0.3356476153061986,0.8801598472314699,0.3356476153061986,300.0,122.14285714285755,[1.42401093]
3.588457769379834e-18,0.43888566541772783,1.4261108034110658e-18,0.43888566541772783,1.0912412920902232e-18,0.027398896752788643,1.4261108034110658e-18,0.027398896752788643,9.518797416716823e-18,0.4397400673721145,9.30824945426587e-18,-0.43974006737211446,0.33816779737481745,0.8782283766978431,0.33816779737481734,300.0,122.14285714285755,[1.42401093]
2.6023201332591757e-18,0.44063794502000697,1.009218243495224e-18,0.44063794502000697,9.854453053349972e-19,0.026535625403544285,1.009218243495224e-18,0.026535625403544285,8.310481213564135e-18,0.4414362219018868,8.170824944433272e-18,-0.4414362219018869,0.3395326389296645,0.8771745403298686,0.3395326389296645,300.0,122.14285714285755,[1.42401093]
1.6096624527552213e-18,0.44132942795626573,6.024659582305247e-19,0.44132942795626573,8.453226414779219e-19,0.0262588219052277,6.024659582305247e-19,0.0262588219052277,7.075032426494548e-18,0.44210992943843164,6.965213101895875e-18,-0.44210992943843186,0.3399785045328553,0.8768290785045891,0.3399785045328553,300.0,122.14285714285755,[1.42401093]
5.735943337044836e-19,0.4409943569086987,2.192004583328971e-19,0.4409943569086987,6.875605126168666e-19,0.026551964268651574,2.192004583328971e-19,0.026551964268651574,5.812175500966505e-18,0.4417929714604349,5.787459487535802e-18,-0.44179297146043495,0.33953982057277887,0.8771689805794608,0.3395398205727788,300.0,122.14285714285755,[1.42401093]
-4.39153392529276e-19,0.4394659222590619,-1.5431398770353677e-19,0.4394659222590619,4.907218352438778e-19,0.027510117977322536,-1.5431398770353677e-19,0.027510117977322536,4.519471779287229e-18,0.44032613301748735,4.533838121725126e-18,-0.44032613301748735,0.3380622284791104,0.8783096602858671,0.33806222847911044,300.0,122.14285714285755,[1.42401093]
-1.4980247097189925e-18,0.4362728545339276,-5.058672666904794e-19,0.4362728545339276,2.4924570674530884e-19,0.029395296328440314,-5.058672666904794e-19,0.029395296328440314,3.168163965569797e-18,0.43726203476796216,3.259544527321174e-18,-0.43726203476796205,0.3351026995138361,0.8805750175635689,0.33510269951383603,300.0,122.14285714285755,[1.42401093]
-2.593269226394197e-18,0.4302866049801251,-8.198419275507684e-19,0.4302866049801251,-5.803046167039699e-20,0.03281830964610115,-8.198419275507684e-19,0.03281830964610115,1.7403410146130196e-18,0.4315363297259567,1.838221077934805e-18,-0.43153632972595657,0.329581054492821,0.8847330993236324,0.329581054492821,300.0,122.14285714285755,[1.42915631]
-3.748203096071228e-18,0.4184804582710209,-1.0586688905841883e-18,0.4184804582710209,-5.358354128225132e-19,0.03933043877257664,-1.0586688905841883e-18,0.03933043877257664,1.4159052170344485e-19,0.4203246095207454,2.7303240884860964e-19,-0.4203246095207456,0.31852932526733746,0.8927923262940096,0.31852932526733746,300.0,122.14285714285755,[1.3855723]
-5.09524935282097e-18,0.38981028688786973,-1.092802944463238e-18,0.38981028688786973,-1.5431197403573309e-18,0.05376784624263744,-1.092802944463238e-18,0.05376784624263744,-1.9398340240988115e-18,0.3935010051488752,-1.8027291156555107e-18,-0.39350100514887526,0.2908655017403831,0.9114793029984993,0.2908655017403831,300.0,122.14285714285755,[1.39021292]
-7.582358012604958e-18,0.2626105319358045,-3.964268061668758e-19,0.2626105319358045,-6.327934115873712e-18,0.08391422638470333,-3.964268061668758e-19,0.08391422638470333,-6.284030858627606e-18,0.27569165542930285,-5.999785561460774e-18,-0.27569165542930296,0.17611523836995313,0.9684868845925532,0.17611523836995316,300.0,122.14285714285755,[1.09768194]
-8.18124401392371e-18,0.26806731920115534,-8.0041387511142435e-19,0.26806731920115534,-6.414951723012572e-18,0.07961850457771419,-8.0041387511142435e-19,0.07961850457771419,-7.55426098779261e-18,0.279641187765475,-7.39926521225729e-18,-0.2796411877654749,0.03384925171567611,0.9988535710085725,0.03384925171567611,300.0,109.28571428571402,[1.09576504]
-7.389495269319085e-18,0.3965169797654163,-1.921726381330475e-18,0.3965169797654163,-1.784090862167239e-18,0.048599061777370625,-1.921726381330475e-18,0.048599061777370625,-5.257283901857604e-18,0.3994841474300679,-4.8634605090017584e-18,-0.39948414743006794,0.15061248490207998,0.9770525875219006,0.15061248490207998,300.0,109.28571428571402,[1.3584712]
-7.734548905557058e-18,0.4242526689828861,-2.3283811626804697e-18,0.4242526689828861,-9.595139007586244e-19,0.035028763708395874,-2.3283811626804697e-18,0.035028763708395874,-5.2390835243877825e-18,0.42569630187028973,-4.8794157728454165e-18,-0.4256963018702899,0.17783085653687858,0.9678596865903237,0.17783085653687858,300.0,109.28571428571402,[1.42061511]
-8.194648682545285e-18,0.4360381447618517,-2.5497231302269555e-18,0.4360381447618517,-6.422988244721444e-19,0.028654292687626984,-2.5497231302269555e-18,0.028654292687626984,-5.740179988121271e-18,0.4369786404125328,-5.434140758213933e-18,-0.4369786404125328,0.18927432648497688,0.9635094491842394,0.18927432648497688,300.0,109.28571428571402,[1.42287509]
-8.752964576745608e-18,0.44242722841617815,-2.710972216342008e-18,0.44242722841617815,-4.881471224962071e-19,0.025030714546959074,-2.710972216342008e-18,0.025030714546959074,-6.4141058500568796e-18,0.443134730206009,-6.111753349696541e-18,-0.4431347302060091,0.19546974383341437,0.9610323399820624,0.19546974383341434,300.0,109.28571428571402,[1.40587332]
-9.338958864820144e-18,0.44626717354741874,-2.839963735262569e-18,0.44626717354741874,-4.1512159207376e-19,0.022749883035647588,-2.839963735262569e-18,0.022749883035647588,-7.172410222005216e-18,0.4468466709780188,-6.894340853352608e-18,-0.4468466709780188,0.19925964666980295,0.9594744323941364,0.19925964666980292,300.0,109.28571428571402,[1.40939384]
-9.93636111091513e-18,0.4486245385374182,-2.9468125258359447e-18,0.4486245385374182,-3.8089745305612446e-19,0.02125038935526831,-2.9468125258359447e-18,0.02125038935526831,-7.999087624402476e-18,0.4491275493951154,-7.71308485124142e-18,-0.4491275493951154,0.20170184725000612,0.958453300704771,0.20170184725000614,300.0,109.28571428571402,[1.42405666]
-1.0544066977214016e-17,0.4499602509907622,-3.03739419250918e-18,0.4499602509907622,-3.887307532905994e-19,0.020278415802099044,-3.03739419250918e-18,0.020278415802099044,-8.854524972249559e-18,0.4504169641777632,-8.588777665135075e-18,-0.45041696417776317,0.20325727064551147,0.9577958884122829,0.2032572706455114,300.0,109.28571428571402,[1.42405666]
-1.1152326072246336e-17,0.4504641745065326,-3.117151136195238e-18,0.4504641745065326,-4.2397020481135543e-19,0.019720453892370413,-3.117151136195238e-18,0.019720453892370413,-9.741978048437475e-18,0.4508956296257183,-9.474023329748239e-18,-0.4508956296257182,0.2041284119623227,0.9574252883956431,0.20412841196232268,300.0,109.28571428571402,[1.42405666]
-1.1769269374638332e-17,0.450159987936182,-3.196605897232598e-18,0.450159987936182,-4.773920167742161e-19,0.01954677538252168,-3.196605897232598e-18,0.01954677538252168,-1.0660632377330891e-17,0.45058416657330325,-1.0382113084644194e-17,-0.4505841665733034,0.20436911183696163,0.957322585262639,0.20436911183696155,300.0,109.28571428571402,[1.42405666]
-1.2401421168073942e-17,0.4489127449820356,-3.2619883660367603e-18,0.4489127449820356,-5.603908331460596e-19,0.019801955323857236,-3.2619883660367603e-18,0.019801955323857236,-1.1621341628391663e-17,0.4493492739973596,-1.1338738103296212e-17,-0.44934927399735963,0.20390349580939732,0.9575211375178166,0.20390349580939732,300.0,109.28571428571402,[1.42405666]
-1.305744658305996e-17,0.4463449956887265,-3.3129764219982082e-18,0.4463449956887265,-6.965718747555689e-19,0.020635073827290885,-3.3129764219982082e-18,0.020635073827290885,-1.264309574883369e-17,0.4468217334107945,-1.2339206366949481e-17,-0.4468217334107944,0.2024703748384905,0.9581291638529338,0.20247037483849045,300.0,109.28571428571402,[1.42405666]
-1.3715106248442443e-17,0.44154998639480053,-3.3392775068381454e-18,0.44154998639480053,-9.073689793961457e-19,0.022407115952791656,-3.3392775068381454e-18,0.022407115952791656,-1.3755199434238946e-17,0.4421181621813002,-1.3405915371932094e-17,-0.4421181621813002,0.19941641194382193,0.9594092918535361,0.19941641194382195,300.0,109.28571428571402,[1.42405666]
-1.4416182711322665e-17,0.4320660974548561,-3.3186423797808235e-18,0.4320660974548561,-1.280145588404118e-18,0.0260426966706998,-3.3186423797808235e-18,0.0260426966706998,-1.5074859278946008e-17,0.43285024502678926,-1.4673127283878558e-17,-0.4328502450267891,0.19296337376246403,0.9620448392733132,0.192963373762464,300.0,109.28571428571402,[1.40849027]
-1.5261073209091665e-17,0.4086053262210787,-3.1820217094472007e-18,0.4086053262210787,-2.166798165400997e-18,0.034399783020339685,-3.1820217094472007e-18,0.034399783020339685,-1.695044511211797e-17,0.41005079891164786,-1.6407293993558344e-17,-0.4100507989116479,0.1767278978107254,0.9682636522511847,0.17672789781072543,300.0,109.28571428571402,[1.38641847]
-1.6954090910667796e-17,0.29201372202765535,-2.6271786635784345e-18,0.29201372202765535,-6.84888448304358e-18,0.050698755805891116,-2.6271786635784345e-18,0.050698755805891116,-2.133406956224289e-17,0.29638214806683305,-2.054796673673002e-17,-0.296382148066833,0.11593124121728973,0.9864683951448404,0.11593124121728986,300.0,109.28571428571402,[1.08701942]
-1.707518653343038e-17,0.2950675767370501,-2.429399987527746e-18,0.2950675767370501,-6.918650653665104e-18,0.04445156418781029,-2.429399987527746e-18,0.04445156418781029,-2.1716376582761594e-17,0.2983970784042933,-2.110096203355913e-17,-0.2983970784042934,0.026386373092350764,0.9993035167705868,0.026386373092350764,300.0,96.42857142857196,[1.10423831]
-1.585389701049617e-17,0.4124096187496593,-2.014710009250328e-18,0.4124096187496593,-2.3676831889951577e-18,0.02680758780930546,-2.014710009250328e-18,0.02680758780930546,-1.7830120131457866e-17,0.41327997822468104,-1.756210241709459e-17,-0.4132799782246811,0.033425716049773964,0.9988820966526131,0.03342571604977395,300.0,96.42857142857196,[1.44853793]
-1.5483992593910418e-17,0.43540762929723864,-1.2245293422087493e-18,0.43540762929723864,-1.6088894427792677e-18,0.019620725562267884,-1.2245293422087493e-18,0.019620725562267884,-1.6468180151736983e-17,0.43584948838083004,-1.636100424083028e-17,-0.4358494883808301,0.04745875999549544,0.9977451238665013,0.047458759995495425,300.0,96.42857142857196,[1.46909369]
-1.5228040578509972e-17,0.44493545312807864,-3.343619875474273e-19,0.44493545312807864,-1.3669520916189535e-18,0.016101558062896024,-3.343619875474273e-19,0.016101558062896024,-1.5681157697432635e-17,0.4452267036267497,-1.5655260040596392e-17,-0.44522670362674965,0.05370743125332184,0.9971113396488577,0.05370743125332184,300.0,96.42857142857196,[1.46357845]
-1.5020929545775297e-17,0.45000909072289486,5.855045163725483e-19,0.45000909072289486,-1.2840065314613916e-18,0.013957426986412353,5.855045163725483e-19,0.013957426986412353,-1.5095452211714154e-17,0.4502254896175112,-1.513200638004869e-17,-0.45022548961751124,0.05734962556202607,0.9967055938920936,0.05734962556202606,300.0,96.42857142857196,[1.45372632]
-1.482141110048567e-17,0.45299056768132867,1.5174350763259819e-18,0.45299056768132867,-1.2832704166488147e-18,0.012470588256635178,1.5174350763259819e-18,0.012470588256635178,-1.4612303357149867e-17,0.45316218948597087,-1.4694700911154347e-17,-0.4531621894859709,0.05980431061910096,0.9964170255785217,0.05980431061910097,300.0,96.42857142857196,[1.45372632]
-1.4652284201479428e-17,0.45475221040185426,2.461310726938682e-18,0.45475221040185426,-1.3359845303611966e-18,0.011351496936376515,2.461310726938682e-18,0.011351496936376515,-1.418531569763032e-17,0.45489386602598747,-1.4309987515813846e-17,-0.4548938660259874,0.061611876075468544,0.9961967443496903,0.06161187607546854,300.0,96.42857142857196,[1.43837211]
-1.4463622605127135e-17,0.455665696419768,3.4168604841650944e-18,0.455665696419768,-1.4152889949430777e-18,0.010462974280302389,3.4168604841650944e-18,0.010462974280302389,-1.3811505295418004e-17,0.45578580575145433,-1.3968518701093826e-17,-0.4557858057514544,0.06301976826475755,0.9960205909597012,0.06301976826475755,300.0,96.42857142857196,[1.43837211]
-1.4302641522299375e-17,0.45587873047922706,4.373222928571881e-18,0.45587873047922706,-1.5103309358014725e-18,0.00973385436066464,4.373222928571881e-18,0.00973385436066464,-1.3464827477122586e-17,0.45598263653791304,-1.3652754902299776e-17,-0.4559826365379131,0.06415311345048962,0.9958758738262603,0.06415311345048964,300.0,96.42857142857196,[1.43837211]
-1.411182212192166e-17,0.45539974222213886,5.3282113096589435e-18,0.45539974222213886,-1.6373895323477146e-18,0.009127091799287893,5.3282113096589435e-18,0.009127091799287893,-1.3150706957824675e-17,0.45549119532731164,-1.3364430725475674e-17,-0.45549119532731164,0.06507509340587408,0.9957562274153416,0.06507509340587411,300.0,96.42857142857196,[1.43837211]
-1.396766046438046e-17,0.45410058536237285,6.2882350856780566e-18,0.45410058536237285,-1.792937620210805e-18,0.008627943677206495,6.2882350856780566e-18,0.008627943677206495,-1.2882981344723638e-17,0.4541825437404508,-1.3122690590150723e-17,-0.4541825437404508,0.06580836030166685,0.9956598412253111,0.06580836030166687,300.0,96.42857142857196,[1.43837211]
-1.3812656795454163e-17,0.4516393383667577,7.252310838239503e-18,0.4516393383667577,-1.9997660108231674e-18,0.008243030863954432,7.252310838239503e-18,0.008243030863954432,-1.268199822106312e-17,0.4517145553534742,-1.294623412914978e-17,-0.45171455535347405,0.06633528235424654,0.9955899058497755,0.06633528235424656,300.0,96.42857142857196,[1.43837211]
-1.366959311677855e-17,0.44720068347208336,8.214774927928206e-18,0.44720068347208336,-2.2814789314273976e-18,0.008012016651047458,8.214774927928206e-18,0.008012016651047458,-1.2568380724628323e-17,0.44727244908301156,-1.2862913212249232e-17,-0.4472724490830116,0.06657133742822105,0.9955583930970778,0.06657133742822108,300.0,96.42857142857196,[1.43837211]
-1.3562338810603393e-17,0.43856023577610015,9.194721794094916e-18,0.43856023577610015,-2.7319517203372036e-18,0.008049719547120564,9.194721794094916e-18,0.008049719547120564,-1.2684837492666314e-17,0.43863410536434105,-1.3022741266443485e-17,-0.4386341053643411,0.06626242904719935,0.9955996087752997,0.06626242904719937,300.0,96.42857142857196,[1.43837211]
-1.3543543871218905e-17,0.41715390158141596,1.018133184728057e-17,0.41715390158141596,-3.686530147804628e-18,0.008669855331040609,1.018133184728057e-17,0.008669855331040609,-1.3378652563463939e-17,0.4172439861712315,-1.3801844010067235e-17,-0.41724398617123154,0.06455325829223506,0.9958241580157172,0.06455325829223509,300.0,96.42857142857196,[1.41833018]
-1.4299086868713294e-17,0.30411066619761995,1.1189070574852666e-17,0.30411066619761995,-8.444949908910717e-18,0.00789165026672303,1.1189070574852666e-17,0.00789165026672303,-1.6688489717099646e-17,0.3042130428484166,-1.72670442320824e-17,-0.30421304284841677,0.060916339321990726,0.9962822889157553,0.0609163393219908,300.0,96.42857142857196,[1.09249384]
-1.4251591864000512e-17,0.30415166913803166,1.1536636493512487e-17,0.30415166913803166,-8.358789766565234e-18,0.0009301984443495206,1.1536636493512487e-17,0.0009301984443495206,-1.6741997109944163e-17,0.30415309156508097,-1.6812538314840753e-17,-0.30415309156508097,0.08131943336395428,0.993365139067569,0.08131943336395421,300.0,83.57142857142804,[1.07732686]
-1.339997359611689e-17,0.41728825028575367,1.1842695982644704e-17,0.41728825028575367,-3.400644629307061e-18,0.00015759491080471124,1.1842695982644704e-17,0.00015759491080471124,-1.3522080292081955e-17,0.4172882800447451,-1.353102540304992e-17,-0.41728828004474505,0.0794362045395943,0.9936698540343707,0.07943620453959425,300.0,83.57142857142804,[1.41783216]
-1.3332996885316048e-17,0.4387860681092926,1.2133493393323665e-17,0.4387860681092926,-2.2471528504772006e-18,0.0007787454958436858,1.2133493393323665e-17,0.0007787454958436858,-1.2915743719889573e-17,0.4387867591568368,-1.295881363063782e-17,-0.43878675915683685,0.08041777651674083,0.9935119337180641,0.08041777651674079,300.0,83.57142857142804,[1.43462669]
-1.3338739018032027e-17,0.44751720885525775,1.2407637671907554e-17,0.44751720885525775,-1.615535738834729e-18,0.0008128611387582305,1.2407637671907554e-17,0.0008128611387582305,-1.2902232538839435e-17,0.44751794708685305,-1.2947307992079368e-17,-0.447517947086853,0.08044700606974062,0.9935072009949553,0.08044700606974058,300.0,83.57142857142804,[1.43462669]
-1.3403083123135842e-17,0.45204598517078426,1.2677949423996266e-17,0.45204598517078426,-1.1349053600455687e-18,0.0005736480608579255,1.2677949423996266e-17,0.0005736480608579255,-1.3106585376595644e-17,0.4520463491514146,-1.3138762381378709e-17,-0.4520463491514147,0.08006245484577963,0.9935693265435157,0.08006245484577959,300.0,83.57142857142804,[1.43462669]
-1.3456568259652003e-17,0.4545968053146834,1.2940392239229502e-17,0.4545968053146834,-7.431303914614925e-19,0.0001759210077140702,1.2940392239229502e-17,0.0001759210077140702,-1.340589801876036e-17,0.4545968393538579,-1.3415913442761293e-17,-0.454596839353858,0.07944275172734748,0.9936688071968316,0.07944275172734745,300.0,83.57142857142804,[1.43462669]
-1.3522538136551003e-17,0.45598496006533284,1.32070905505553e-17,0.45598496006533284,-3.8933955660585127e-19,-0.00034065469974064414,1.32070905505553e-17,-0.00034065469974064414,-1.3772768155913507e-17,0.45598508731252124,-1.3753034647626915e-17,-0.4559850873125213,0.07864587856576669,0.9937955783606792,0.07864587856576666,300.0,83.57142857142804,[1.43462669]
-1.3608049069747015e-17,0.45655232752154395,1.3464919615672419e-17,0.45655232752154395,-6.593569753759556e-20,-0.000969450411463994,1.3464919615672419e-17,-0.000969450411463994,-1.417436558407892e-17,0.456553356793529,-1.4117180390151996e-17,-0.45655335679352904,0.07767862449492423,0.9939477162271428,0.0776786244949242,300.0,83.57142857142804,[1.43493991]
-1.3681073142909867e-17,0.45642700501871575,1.37233245964053e-17,0.45642700501871575,2.160925210516852e-19,-0.001725195616170475,1.37233245964053e-17,-0.001725195616170475,-1.461584741248435e-17,0.4564302654407009,-1.4512092378513328e-17,-0.4564302654407011,0.07651438808912638,0.994128310043876,0.07651438808912633,300.0,83.57142857142804,[1.43493991]
-1.3768746119431939e-17,0.4556005132807815,1.3971114103381e-17,0.4556005132807815,4.914736487166347e-19,-0.0026449168188864623,1.3971114103381e-17,-0.0026449168188864623,-1.509070048561004e-17,0.45560819053951446,-1.4928446915938567e-17,-0.45560819053951446,0.07509038959271479,0.9943454464026215,0.07509038959271475,300.0,83.57142857142804,[1.43493991]
-1.3870531727782355e-17,0.45392510071350556,1.4221802530244664e-17,0.45392510071350556,7.218164463892971e-19,-0.003799756053039222,1.4221802530244664e-17,-0.003799756053039222,-1.5604759140960873e-17,0.4539410041005647,-1.536656334722918e-17,-0.4539410041005647,0.07328637935338508,0.9946146053635769,0.07328637935338501,300.0,83.57142857142804,[1.43996906]
-1.3977745760601437e-17,0.4510290504632384,1.4460213213827023e-17,0.4510290504632384,9.202793058197308e-19,-0.005326864083911269,1.4460213213827023e-17,-0.005326864083911269,-1.618515278297827e-17,0.4510605057447826,-1.58434988865047e-17,-0.45106050574478257,0.07086714705000904,0.9949651727261536,0.07086714705000897,300.0,83.57142857142804,[1.44344706]
-1.410286024037011e-17,0.4460400150145402,1.4686855466356445e-17,0.4460400150145402,1.0351776009601873e-18,-0.007515756177177116,1.4686855466356445e-17,-0.007515756177177116,-1.6868781344252153e-17,0.4461033306142044,-1.6372875994322318e-17,-0.44610333061420426,0.06732148064228559,0.9954575010959837,0.0673214806422855,300.0,83.57142857142804,[1.44344706]
-1.4253486831386295e-17,0.4365959988875562,1.4864117881365395e-17,0.4365959988875562,9.818599168192802e-19,-0.011084152606956166,1.4864117881365395e-17,-0.011084152606956166,-1.774572307450484e-17,0.43673667659544824,-1.6988905981559856e-17,-0.4367366765954483,0.06131217218960776,0.9962337251281868,0.06131217218960772,300.0,83.57142857142804,[1.44344706]
-1.4515344192577333e-17,0.41368122455053796,1.4962969694956177e-17,0.41368122455053796,4.1412853589899595e-19,-0.01832472614273484,1.4962969694956177e-17,-0.01832472614273484,-1.9204634936700174e-17,0.41408688838677177,-1.7875660879000727e-17,-0.4140868883867718,0.04799820251357032,0.9976935126134342,0.047998202513570266,300.0,83.57142857142804,[1.45331264]
-1.5647587205582327e-17,0.29642290354663725,1.4669923136570828e-17,0.29642290354663725,-3.937772565151063e-18,-0.03602709514183666,1.4669923136570828e-17,-0.03602709514183666,-2.319437536617295e-17,0.29860423528707347,-1.9470227729823132e-17,-0.29860423528707336,0.006184679351703884,0.9999617490097474,0.006184679351703967,300.0,83.57142857142804,[1.08105938]
-1.606096353057413e-17,0.2934372246234318,1.4916066138921655e-17,0.2934372246234318,-3.854718306675546e-18,-0.042323753193398386,1.4916066138921655e-17,-0.042323753193398386,-2.3405309718171727e-17,0.29647378447187894,-1.9000006793135256e-17,-0.29647378447187883,0.13587068365579247,0.9813655356929013,0.13587068365579238,300.0,70.71428571428592,[1.03150452]
-1.5474922610192562e-17,0.4101030010984622,1.6265937955786582e-17,0.4101030010984622,6.714316959000844e-19,-0.02607034094645486,1.6265937955786582e-17,-0.02607034094645486,-2.011634794070926e-17,0.41093081435568896,-1.8041076444753675e-17,-0.41093081435568884,0.190729126447519,0.9629355121964984,0.19072912644751894,300.0,70.71428571428592,[1.33498748]
-1.578803735541379e-17,0.433634889501221,1.7200409049126285e-17,0.433634889501221,1.4203314443363484e-18,-0.01776278021512195,1.7200409049126285e-17,-0.01776278021512195,-1.935034817827537e-17,0.43399854118845466,-1.7936461808515626e-17,-0.4339985411884546,0.20603031779840886,0.9566101694503218,0.20603031779840877,300.0,70.71428571428592,[1.36280043]
-1.6205858587125937e-17,0.44318784536579253,1.800929437169655e-17,0.44318784536579253,1.640166605461841e-18,-0.014180905578377596,1.800929437169655e-17,-0.014180905578377596,-1.913823636052402e-17,0.4434146641271536,-1.7985460028400387e-17,-0.44341466412715363,0.2120780482278205,0.9539632083679941,0.21207804822782045,300.0,70.71428571428592,[1.3656744]
-1.6666009235721836e-17,0.44805008887186787,1.8770139409509297e-17,0.44805008887186787,1.7042680106040546e-18,-0.012466779567793773,1.8770139409509297e-17,-0.012466779567793773,-1.9128934275096162e-17,0.44822349640651465,-1.808379219670419e-17,-0.44822349640651454,0.21488857880049556,0.9527044648799579,0.21488857880049547,300.0,70.71428571428592,[1.36505196]
-1.7154923539155618e-17,0.45068327822613646,1.9518232101086348e-17,0.45068327822613646,1.6738160542865567e-18,-0.011695769876624816,1.9518232101086348e-17,-0.011695769876624816,-1.9209030031638004e-17,0.4508350122890459,-1.8196075813517757e-17,-0.4508350122890461,0.21614928169727393,0.9521339065717097,0.21614928169727388,300.0,70.71428571428592,[1.36505196]
-1.7666077213743347e-17,0.45199416112732466,2.0246247133640146e-17,0.45199416112732466,1.6148773224541824e-18,-0.011506857966305203,2.0246247133640146e-17,-0.011506857966305203,-1.9356140122773862e-17,0.45214060807833967,-1.8325350201547308e-17,-0.45214060807833967,0.2164810991399719,0.9519831235007791,0.21648109913997182,300.0,70.71428571428592,[1.36505196]
-1.8169638300886028e-17,0.452360168354961,2.0959864971310188e-17,0.452360168354961,1.5221603730401723e-18,-0.011750921370021478,2.0959864971310188e-17,-0.011750921370021478,-1.9541505662879072e-17,0.45251276895483644,-1.8454210094632968e-17,-0.45251276895483644,0.216131977799591,0.9521417627354,0.21613197779959095,300.0,70.71428571428592,[1.36505196]
-1.8694366216120906e-17,0.4519162238540555,2.1668750954597863e-17,0.4519162238540555,1.4071953089146462e-18,-0.012383336271603176,2.1668750954597863e-17,-0.012383336271603176,-1.9752645091046275e-17,0.4520858551201578,-1.856399014339371e-17,-0.4520858551201578,0.21517308793190776,0.9525760255537062,0.2151730879319077,300.0,70.71428571428592,[1.36505196]
-1.920280673829946e-17,0.45063862760565554,2.23670724019751e-17,0.45063862760565554,1.2627938659310328e-18,-0.013433777017528554,2.23670724019751e-17,-0.013433777017528554,-2.000434720755579e-17,0.4508388171567145,-1.8671624831406438e-17,-0.45083881715671437,0.21355136448877732,0.953305632758961,0.21355136448877723,300.0,70.71428571428592,[1.3656744]
-1.975466193832544e-17,0.44833749908118903,2.305418440983214e-17,0.44833749908118903,1.0821721032412374e-18,-0.015015694248858433,2.305418440983214e-17,-0.015015694248858433,-2.0287656489807018e-17,0.4485888809992402,-1.8744958607023427e-17,-0.4485888809992402,0.2110708132815209,0.9544098823678193,0.21107081328152086,300.0,70.71428571428592,[1.36717211]
-2.0289148723632064e-17,0.4445519021149747,2.3719828003099938e-17,0.4445519021149747,8.476947951419194e-19,-0.017382845813298048,2.3719828003099938e-17,-0.017382845813298048,-2.0627667477934503e-17,0.44489162388452647,-1.87804131191232e-17,-0.4448916238845266,0.20728648899837543,0.9560672690545646,0.2072864889983754,300.0,70.71428571428592,[1.36717211]
-2.088712327531336e-17,0.43821528743310056,2.4356423510952586e-17,0.43821528743310056,5.532578786250172e-19,-0.021096583174516393,2.4356423510952586e-17,-0.021096583174516393,-2.1050026880981057e-17,0.43872280994007384,-1.8708615970854407e-17,-0.4387228099400739,0.2011782963149069,0.9586733469663499,0.20117829631490683,300.0,70.71428571428592,[1.36988918]
-2.150626465508685e-17,0.42648045713822447,2.492312070123409e-17,0.42648045713822447,9.31154436741073e-20,-0.027565011814206876,2.492312070123409e-17,-0.027565011814206876,-2.1661356289501414e-17,0.42737034314180766,-1.8444782902863477e-17,-0.42737034314180766,0.1900078631684702,0.9632206517035979,0.19000786316847015,300.0,70.71428571428592,[1.36338759]
-2.2338375781078576e-17,0.3987938164228924,2.5309969337518967e-17,0.3987938164228924,-8.85917389531317e-19,-0.041233101666469686,2.5309969337518967e-17,-0.041233101666469686,-2.2783164263982687e-17,0.4009197883494563,-1.7508875665094573e-17,-0.4009197883494566,0.16366184915409906,0.9728461328817226,0.16366184915409898,300.0,70.71428571428592,[1.29494728]
-2.424246614183684e-17,0.27039256684259433,2.4983631286256643e-17,0.27039256684259433,-5.6668893689307205e-18,-0.07235455361638675,2.4983631286256643e-17,-0.07235455361638675,-2.6181304990110572e-17,0.2799059156801683,-1.4014795190853077e-17,-0.2799059156801683,0.05307798213077499,0.997178748081732,0.05307798213077481,300.0,70.71428571428592,[1.03350264]
-2.4452650667535034e-17,0.26496651197706367,2.4758810575101148e-17,0.26496651197706367,-5.760475639932084e-18,-0.07673899736646246,2.4758810575101148e-17,-0.07673899736646246,-2.5992289412154894e-17,0.27585526311111297,-1.3608294303927666e-17,-0.27585526311111297,0.19479713300604967,0.9613054425858863,0.19479713300604973,300.0,57.857142857142705,[0.90108615]
-2.245233666086516e-17,0.39219770815810157,2.5031373495187955e-17,0.39219770815810157,-1.1520914185983574e-18,-0.046677078334549094,2.5031373495187955e-17,-0.046677078334549094,-2.2693629174654788e-17,0.3949655578988085,-1.6845174667170508e-17,-0.3949655578988086,0.3028097945323716,0.903666120129844,0.3028097945323715,300.0,57.857142857142705,[1.30261369]
-2.15701381978197e-17,0.42089570498966894,2.456694234524963e-17,0.42089570498966894,-3.5297317974482964e-19,-0.032327030633442694,2.456694234524963e-17,-0.032327030633442694,-2.1657325774418567e-17,0.42213532354960037,-1.7894671228615392e-17,-0.42213532354960054,0.32924856615987924,0.8849806570560327,0.3292485661598792,300.0,57.857142857142705,[1.33224161]
-2.0923695721928895e-17,0.43272693200058593,2.3904959653040187e-17,0.43272693200058593,-7.355822504340853e-20,-0.02590552166371577,2.3904959653040187e-17,-0.02590552166371577,-2.110037917432475e-17,0.43350166520015704,-1.8253572190795585e-17,-0.433501665200157,0.3397521277600253,0.877004551507614,0.3397521277600251,300.0,57.857142857142705,[1.33906595]
-2.029109032332488e-17,0.4387357359896051,2.3161514692223442e-17,0.4387357359896051,3.859035371985983e-20,-0.022576430906882484,2.3161514692223442e-17,-0.022576430906882484,-2.0714691841458757e-17,0.4393162201271811,-1.8338508334282737e-17,-0.43931622012718097,0.34493799037101586,0.8729464849563289,0.34493799037101575,300.0,57.857142857142705,[1.34482725]
-1.9749095736585993e-17,0.44194890441887974,2.2383764913198768e-17,0.44194890441887974,9.125306591198976e-20,-0.020788442814275682,2.2383764913198768e-17,-0.020788442814275682,-2.0413521325788852e-17,0.4424375588393129,-1.8308854773562705e-17,-0.44243755883931296,0.3476562248127874,0.870787171872577,0.34765622481278735,300.0,57.857142857142705,[1.34606677]
-1.919924996506306e-17,0.44349502235431576,2.1588583394901443e-17,0.44349502235431576,9.060445291417162e-20,-0.0199306894440892,2.1588583394901443e-17,-0.0199306894440892,-2.016003446371018e-17,0.4439426395772001,-1.8219987749649664e-17,-0.4439426395772003,0.3489445943344981,0.869755908384338,0.3489445943344981,300.0,57.857142857142705,[1.34606677]
-1.8661342064140492e-17,0.4438453855754064,2.076835555851435e-17,0.4438453855754064,6.160127759016623e-20,-0.019741089640783943,2.076835555851435e-17,-0.019741089640783943,-1.9941280191769572e-17,0.4442841848600811,-1.8089661151553124e-17,-0.4442841848600811,0.3492285241325777,0.8695279615195612,0.34922852413257766,300.0,57.857142857142705,[1.34606677]
-1.8136694695617762e-17,0.44316682817402364,1.9939801470715315e-17,0.44316682817402364,-1.1827648783742604e-20,-0.020124504048897762,1.9939801470715315e-17,-0.020124504048897762,-1.97470057613708e-17,0.44362352649182013,-1.7925165939024878e-17,-0.44362352649182013,0.3486557085126223,0.8699875825798451,0.3486557085126222,300.0,57.857142857142705,[1.34606677]
-1.7642460069881616e-17,0.44142513357224084,1.9096833760742543e-17,0.44142513357224084,-8.946196139187103e-20,-0.021097376822485133,1.9096833760742543e-17,-0.021097376822485133,-1.9581497105460232e-17,0.44192900771284604,-1.77479080998136e-17,-0.441929007712846,0.3471918746852797,0.8711576231113645,0.3471918746852795,300.0,57.857142857142705,[1.34482725]
-1.7150921639352086e-17,0.43837411394962683,1.8235636528108054e-17,0.43837411394962683,-1.976192386032062e-19,-0.022792996117964814,1.8235636528108054e-17,-0.022792996117964814,-1.9448001528327596e-17,0.43896626801287814,-1.7543288675525032e-17,-0.43896626801287814,0.344607681220236,0.8732073591581923,0.3446076812202361,300.0,57.857142857142705,[1.34482725]
-1.6682750233946567e-17,0.43342186164767793,1.7346171506332342e-17,0.43342186164767793,-3.545443705442829e-19,-0.025531466096930442,1.7346171506332342e-17,-0.025531466096930442,-1.9361649093954677e-17,0.43417319806178456,-1.7322688854872925e-17,-0.43417319806178467,0.3403446020165957,0.8765449810228396,0.3403446020165957,300.0,57.857142857142705,[1.33906595]
-1.627804963771316e-17,0.42520891825060375,1.6420536241589245e-17,0.42520891825060375,-6.048337401157379e-19,-0.03003479090928861,1.6420536241589245e-17,-0.03003479090928861,-1.9341016417743037e-17,0.4262683577569575,-1.7065307890036722e-17,-0.4262683577569573,0.33308246602138675,0.882106649820884,0.33308246602138664,300.0,57.857142857142705,[1.33906595]
-1.5955286244236807e-17,0.41015139219558955,1.5408978434053688e-17,0.41015139219558955,-1.0070289096712977e-18,-0.03812256785052596,1.5408978434053688e-17,-0.03812256785052596,-1.947286714622761e-17,0.41191928177678006,-1.6523984333823068e-17,-0.4119192817767799,0.3191777568632115,0.8923290419164545,0.3191777568632113,300.0,57.857142857142705,[1.30173442]
-1.5900022721102445e-17,0.3753763215790083,1.415303289334921e-17,0.3753763215790083,-1.932381333574862e-18,-0.055511683323408376,1.415303289334921e-17,-0.055511683323408376,-2.0014878690169055e-17,0.37945873265427077,-1.5535102730174802e-17,-0.37945873265427094,0.284567653988656,0.9154466126469557,0.2845676539886559,300.0,57.857142857142705,[1.3095174]
-1.7335212516745225e-17,0.23111312570357054,1.2002442037965895e-17,0.23111312570357054,-6.6376319847796374e-18,-0.093889054257204,1.2002442037965895e-17,-0.093889054257204,-2.246538946753367e-17,0.24945627148217095,-1.4662468909609493e-17,-0.24945627148217106,0.1231955173714278,0.9847059099036485,0.12319551737142799,300.0,57.857142857142705,[0.91995839]
-1.7602424114643743e-17,0.2243180198198277,1.1428814054812587e-17,0.2243180198198277,-6.689838972153039e-18,-0.09549229497229152,1.1428814054812587e-17,-0.09549229497229152,-2.2123574656984148e-17,0.243797769503668,-1.1806890010519841e-17,-0.24379776950366805,0.26420611868148636,0.9275722363797488,0.2642061186814862,300.0,45.00000000000011,[0.8643708]
-1.608638237720758e-17,0.3670597967648371,1.2567520676511118e-17,0.3670597967648371,-2.0835314782200055e-18,-0.057573976112523975,1.2567520676511118e-17,-0.057573976112523975,-1.9577849187260085e-17,0.3715476512191255,-1.55247942670505e-17,-0.3715476512191255,0.4164820039055888,0.8081370433568618,0.41648200390558865,300.0,45.00000000000011,[1.29536173]
-1.6105340529666682e-17,0.4030344158721911,1.2805579928694383e-17,0.4030344158721911,-1.2539024627526091e-18,-0.040021783122818046,1.2805579928694383e-17,-0.040021783122818046,-1.8911083504104313e-17,0.4050166459563956,-1.645642532902488e-17,-0.4050166459563955,0.4481453248571599,0.7735189303548694,0.44814532485715974,300.0,45.00000000000011,[1.31471378]
-1.6403990781106503e-17,0.4181509553645288,1.279267470267938e-17,0.4181509553645288,-9.538765582553247e-19,-0.0320307961565802,1.279267470267938e-17,-0.0320307961565802,-1.8629114900680273e-17,0.419375957077528,-1.670848845091814e-17,-0.4193759570775279,0.4603508530849895,0.759048209356853,0.46035085308498946,300.0,45.00000000000011,[1.31223577]
-1.680028060487147e-17,0.42589428279623043,1.269461146524659e-17,0.42589428279623043,-7.97111459913383e-19,-0.027744564790573897,1.269461146524659e-17,-0.027744564790573897,-1.8481218419275818e-17,0.4267970255214227,-1.6836693940522186e-17,-0.42679702552142273,0.46643919029101927,0.7515776496951706,0.46643919029101916,300.0,45.00000000000011,[1.3401033]
-1.727080906143246e-17,0.4300722601440428,1.2553036840920542e-17,0.4300722601440428,-7.380876771119319e-19,-0.02529234850833568,1.2553036840920542e-17,-0.02529234850833568,-1.8399997658326813e-17,0.43081533380147047,-1.6925125868488283e-17,-0.4308153338014704,0.46978354747029305,0.7474000515469972,0.4697835474702929,300.0,45.00000000000011,[1.31632895]
-1.7762669678810578e-17,0.4321217487125403,1.2381890180115949e-17,0.4321217487125403,-7.213593967891188e-19,-0.023934421274744436,1.2381890180115949e-17,-0.023934421274744436,-1.8351898553272926e-17,0.4327840826926757,-1.6984797019582396e-17,-0.4327840826926756,0.47158311010210247,0.7451300158582101,0.47158311010210247,300.0,45.00000000000011,[1.31632895]
-1.8300212999878163e-17,0.4326476258374398,1.2193974170763597e-17,0.4326476258374398,-7.252383568741097e-19,-0.02334765307849126,1.2193974170763597e-17,-0.02334765307849126,-1.8330405299031502e-17,0.4332771411545351,-1.702871730880775e-17,-0.43327714115453514,0.47233044843804084,0.7441827026722929,0.47233044843804084,300.0,45.00000000000011,[1.32552111]
-1.8829040318831277e-17,0.431867393816246,1.1995172697194597e-17,0.431867393816246,-7.628112784405293e-19,-0.02340523394245425,1.1995172697194597e-17,-0.02340523394245425,-1.8337188180054437e-17,0.4325011570129465,-1.7037831716705292e-17,-0.4325011570129466,0.47220932620714795,0.7443364188899952,0.472209326207148,300.0,45.00000000000011,[1.31632895]
-1.9396699631640693e-17,0.42974310075956906,1.1776625091160157e-17,0.42974310075956906,-8.350659185373426e-19,-0.02410712218998585,1.1776625091160157e-17,-0.02410712218998585,-1.835747747291429e-17,0.43041873331760566,-1.7037536246184645e-17,-0.4304187333176055,0.4712108781174541,0.7456008427352772,0.471210878117454,300.0,45.00000000000011,[1.31632895]
-1.9967241668884855e-17,0.42596921910577534,1.1537067511157177e-17,0.42596921910577534,-9.193008222409144e-19,-0.025580045385286774,1.1537067511157177e-17,-0.025580045385286774,-1.8402210573260546e-17,0.4267365866052469,-1.703106882610068e-17,-0.4267365866052469,0.46912918447612295,0.7482216359779604,0.46912918447612295,300.0,45.00000000000011,[1.3183485]
-2.0608800470439146e-17,0.41980705109178057,1.127379740302808e-17,0.41980705109178057,-1.0697196875257729e-18,-0.028147054619642446,1.127379740302808e-17,-0.028147054619642446,-1.8470302220129533e-17,0.42074958922159145,-1.695346234463449e-17,-0.42074958922159145,0.4654312285803162,0.752826369705814,0.46543122858031605,300.0,45.00000000000011,[1.30321791]
-2.130465623458203e-17,0.40956352861761386,1.0968770713514121e-17,0.40956352861761386,-1.2863309929931966e-18,-0.03254780609288963,1.0968770713514121e-17,-0.03254780609288963,-1.8602907544127908e-17,0.41085477197565984,-1.6870054915184935e-17,-0.4108547719756599,0.45881872165167276,0.7609012822461594,0.4588187216516729,300.0,45.00000000000011,[1.31779235]
-2.2115753147304577e-17,0.39081247861038676,1.0569826557636351e-17,0.39081247861038676,-1.6592283558303176e-18,-0.04065299664178518,1.0569826557636351e-17,-0.04065299664178518,-1.8835484055803065e-17,0.3929211874836368,-1.6748610807297877e-17,-0.39292118748363664,0.44558488206134683,0.7764716516117971,0.44558488206134667,300.0,45.00000000000011,[1.319942]
-2.3313101219878147e-17,0.34803939317487714,9.926088225640863e-18,0.34803939317487714,-2.5470820459286502e-18,-0.058319131906364306,9.926088225640863e-18,-0.058319131906364306,-1.937290867645275e-17,0.352891683591224,-1.5843964353434512e-17,-0.3528916835912238,0.41049460038297836,0.8142409754567977,0.41049460038297825,300.0,45.00000000000011,[0.86772686]
-2.640317832749657e-17,0.18633998131253504,8.379327985859503e-18,0.18633998131253504,-7.252917720621653e-18,-0.09635161446802662,8.379327985859503e-18,-0.09635161446802662,-2.1414013233874297e-17,0.20977660080702792,-1.3954052959054614e-17,-0.20977660080702804,0.21448618792161578,0.9528858013328284,0.21448618792161586,300.0,45.00000000000011,[0.86226164]
-2.6212918514803247e-17,0.17952108216396234,8.449993948041726e-18,0.17952108216396234,-7.126561125765656e-18,-0.0948549652149121,8.449993948041726e-18,-0.0948549652149121,-1.983782429896726e-17,0.2030401028546879,-1.5799828234952378e-17,-0.2030401028546881,0.3536192430183062,0.8659716288275962,0.35361924301830605,300.0,32.14285714285738,[0.79283405]
-2.2094285328866988e-17,0.3396489839124845,1.0010788392589601e-17,0.3396489839124845,-2.2103459175450507e-18,-0.056587844100707906,1.0010788392589601e-17,-0.056587844100707906,-1.5266230318319415e-17,0.3443306788143474,-1.2255897061357373e-17,-0.3443306788143473,0.528757989772696,0.66395028164997,0.5287579897726964,300.0,32.14285714285738,[0.69719793]
-1.9909858495430827e-17,0.38357198968680495,1.0667945700846322e-17,0.38357198968680495,-1.0817508227402035e-18,-0.03930752943713617,1.0667945700846322e-17,-0.03930752943713617,-1.2158653377661824e-17,0.38558079975894244,-1.0039275511912424e-17,-0.3855807997589426,0.5572535993554754,0.6155784694177783,0.5572535993554755,300.0,32.14285714285738,[1.25385559]
-1.8136677738415204e-17,0.4023326777475001,1.1092293335892724e-17,0.4023326777475001,-4.529268803064731e-19,-0.031327559546447156,1.1092293335892724e-17,-0.031327559546447156,-9.322408635124183e-18,0.403550491971711,-7.633040766777548e-18,-0.40355049197171095,0.567713006717147,0.5961575999753361,0.5677130067171471,300.0,32.14285714285738,[1.24976852]
-1.650017203401172e-17,0.4120574407715504,1.1424436182033604e-17,0.4120574407715504,-1.398969210980308e-20,-0.026931098988223715,1.1424436182033604e-17,-0.026931098988223715,-6.583311706037528e-18,0.4129365793774066,-5.127664489734649e-18,-0.41293657937740663,0.5729143212474536,0.5861214558597384,0.5729143212474536,300.0,32.14285714285738,[1.25177949]
-1.494512873069368e-17,0.41739644457789815,1.171241717358938e-17,0.41739644457789815,3.711931639801084e-19,-0.024298509275038217,1.171241717358938e-17,-0.024298509275038217,-3.8879304451436855e-18,0.4181031086936087,-2.577641925390438e-18,-0.4181031086936088,0.5758490106752809,0.5803411357198456,0.5758490106752808,300.0,32.14285714285738,[1.25177949]
-1.3451673987063892e-17,0.42012019337965334,1.1979688121696848e-17,0.42012019337965334,6.955674916994092e-19,-0.02270772199237221,1.1979688121696848e-17,-0.02270772199237221,-1.2193924358981085e-18,0.4207334281031638,4.9842620389918074e-20,-0.42073342810316383,0.5775473968233943,0.5769558118652078,0.5775473968233943,300.0,32.14285714285738,[1.2423918]
-1.1962831602529696e-17,0.4209803912052389,1.2229371271276879e-17,0.4209803912052389,9.743608589445879e-19,-0.021838561829102987,1.2229371271276879e-17,-0.021838561829102987,1.433629733007505e-18,0.42154645362294246,2.6562839543275355e-18,-0.42154645362294246,0.5784309097960898,0.5751828971596215,0.5784309097960897,300.0,32.14285714285738,[1.2423918]
-1.0515364792235403e-17,0.42025391761521963,1.2461517493937144e-17,0.42025391761521963,1.2553247481171058e-18,-0.021557667871980612,1.2461517493937144e-17,-0.021557667871980612,4.074883603338327e-18,0.4208064737085426,5.299105950073555e-18,-0.42080647370854257,0.5786655617488693,0.5747106535394406,0.5786655617488692,300.0,32.14285714285738,[1.2423918]
-9.0794288796801e-18,0.4179065934378652,1.268881819596665e-17,0.4179065934378652,1.5080379378291e-18,-0.021848523964636064,1.268881819596665e-17,-0.021848523964636064,6.695653172979886e-18,0.41847733372104445,7.972529815889886e-18,-0.41847733372104456,0.5782664283239196,0.5755135756409174,0.5782664283239198,300.0,32.14285714285738,[1.25177949]
-7.691515764767176e-18,0.41358225942343574,1.2891278715899975e-17,0.41358225942343574,1.710812166009737e-18,-0.022806199892885067,1.2891278715899975e-17,-0.022806199892885067,9.311437325069586e-18,0.41421058420005197,1.0677645658042392e-17,-0.414210584200052,0.5771026545674676,0.5778451801151966,0.5771026545674678,300.0,32.14285714285738,[1.25177949]
-6.352303735598925e-18,0.4064086708568756,1.3073104439971342e-17,0.4064086708568756,1.8838095464996895e-18,-0.024692711877534915,1.3073104439971342e-17,-0.024692711877534915,1.1899242092939682e-17,0.40715812378917277,1.3413394075375973e-17,-0.40715812378917265,0.5748069335987258,0.5824036213603586,0.5748069335987257,300.0,32.14285714285738,[1.24976852]
-5.094893251567266e-18,0.39438451377105405,1.3220424376488847e-17,0.39438451377105405,1.9780237639082542e-18,-0.028118872331745596,1.3220424376488847e-17,-0.028118872331745596,1.4458219616462304e-17,0.39538565437258805,1.6232721532995185e-17,-0.3953856543725881,0.570453733208251,0.5909019178658493,0.570453733208251,300.0,32.14285714285738,[1.24976852]
-3.988876671967513e-18,0.37230255955101754,1.3290972698078328e-17,0.37230255955101754,1.9099575528431032e-18,-0.034635965215548896,1.3290972698078328e-17,-0.034635965215548896,1.693776960320636e-17,0.37391021105962274,1.9247128618478387e-17,-0.37391021105962285,0.5613017724674445,0.6081781321700168,0.5613017724674445,300.0,32.14285714285738,[1.24134942]
-3.3952389248402574e-18,0.32220775640340177,1.3157570385559757e-17,0.32220775640340177,1.319982561468232e-18,-0.049080165365088635,1.3157570385559757e-17,-0.049080165365088635,1.9228958983943514e-17,0.32592437914150924,2.2718505352347207e-17,-0.3259243791415094,0.5352453966896588,0.6534712929005064,0.5352453966896586,300.0,32.14285714285738,[0.69719793]
-5.03723876287232e-18,0.14495296050769632,1.2299565611262975e-17,0.14495296050769632,-3.0620298945885836e-18,-0.0792352255892487,1.2299565611262975e-17,-0.0792352255892487,2.0382252244273123e-17,0.16519558630340261,1.736010906708997e-17,-0.16519558630340256,0.3449142353002348,0.8729652573696781,0.3449142353002348,300.0,32.14285714285738,[0.41022095]
-4.440480890474514e-18,0.1394614810491438,1.2414827956345836e-17,0.1394614810491438,-3.091874571089497e-18,-0.07493389175201719,1.2414827956345836e-17,-0.07493389175201719,2.150498862559441e-17,0.15831801170278684,2.7092567665373786e-17,-0.15831801170278664,0.4773936125529113,0.7376928069239672,0.477393612552911,300.0,19.285714285714306,[0.4257757]
-1.1239233855003008e-18,0.31540830618521787,1.3133972318550903e-17,0.31540830618521787,1.2434038347192978e-18,-0.04389454458281726,1.3133972318550903e-17,-0.04389454458281726,2.2125011779900883e-17,0.3184480030629194,2.536811937475748e-17,-0.3184480030629194,0.6288642210429247,0.45723033908977617,0.6288642210429247,300.0,19.285714285714306,[0.71459284]
-8.112325703430053e-20,0.3663777672605736,1.3138851753586777e-17,0.3663777672605736,1.7676866233870452e-18,-0.030306243641018256,1.3138851753586777e-17,-0.030306243641018256,2.1627283970437925e-17,0.3676290749471153,2.3624662908806146e-17,-0.3676290749471154,0.6459020170482995,0.40696580783387226,0.6459020170482996,300.0,19.285714285714306,[0.91055489]
4.536390828138812e-19,0.3884200371613174,1.2964629215212056e-17,0.3884200371613174,1.7893240138502073e-18,-0.023915630030028747,1.2964629215212056e-17,-0.023915630030028747,2.0965546097840403e-17,0.3891556020772827,2.2485650077729556e-17,-0.3891556020772826,0.6518123616659207,0.38766130882381084,0.6518123616659207,300.0,19.285714285714306,[0.91693688]
8.014652216699792e-19,0.3999808489280721,1.2718944785960078e-17,0.3999808489280721,1.6352847858193576e-18,-0.020277774455994983,1.2718944785960078e-17,-0.020277774455994983,2.0237675135269267e-17,0.4004945288591461,2.1477921937698046e-17,-0.4004945288591461,0.6547455636290337,0.3776459900703277,0.6547455636290337,300.0,19.285714285714306,[0.9178009]
1.0727804625873722e-18,0.4064470716582451,1.2442368572949271e-17,0.4064470716582451,1.4254224469697539e-18,-0.017984544542391442,1.2442368572949271e-17,-0.017984544542391442,1.9487149350081528e-17,0.40684476880250037,2.0554623277596676e-17,-0.4068447688025003,0.6564501511069217,0.3716805055735356,0.6564501511069217,300.0,19.285714285714306,[0.9178009]
1.27491031707083e-18,0.4098821371574582,1.2147304769850326e-17,0.4098821371574582,1.1541750348625902e-18,-0.01647454612122322,1.2147304769850326e-17,-0.01647454612122322,1.8713358282985123e-17,0.4102130873468882,1.965761497028464e-17,-0.4102130873468882,0.6575085492124797,0.3679198491859342,0.6575085492124797,300.0,19.285714285714306,[0.9186481]
1.4366142006575963e-18,0.41116874181235036,1.1842443942973881e-17,0.41116874181235036,8.606119441899709e-19,-0.015493974924001104,1.1842443942973881e-17,-0.015493974924001104,1.7932648677245325e-17,0.41146056615731336,1.8803376688017086e-17,-0.4114605661573132,0.6581586501943164,0.3655877218244486,0.6581586501943164,300.0,19.285714285714306,[0.91981187]
1.5939770403896845e-18,0.4106400937273543,1.1523703645804256e-17,0.4106400937273543,5.310317552855676e-19,-0.014929334077547823,1.1523703645804256e-17,-0.014929334077547823,1.714122211948929e-17,0.4109113914123206,1.7959097619091168e-17,-0.4109113914123206,0.658500519867039,0.36435440256662005,0.6585005198670388,300.0,19.285714285714306,[0.91981187]
1.684053700374259e-18,0.4082725510170855,1.1195831895057504e-17,0.4082725510170855,1.8625791288979035e-19,-0.014750904892135267,1.1195831895057504e-17,-0.014750904892135267,1.6344640572155823e-17,0.40853893952613074,1.7136158404423248e-17,-0.40853893952613063,0.6585587060718846,0.36414401177810257,0.6585587060718845,300.0,19.285714285714306,[0.9178009]
1.7687040555404855e-18,0.4036780638987352,1.0860727897420048e-17,0.4036780638987352,-2.0172288162208178e-19,-0.015003269868344635,1.0860727897420048e-17,-0.015003269868344635,1.5542293575952862e-17,0.40395677662316,1.6323678972045005e-17,-0.4039567766231601,0.658291855132678,0.36510774701717136,0.6582918551326779,300.0,19.285714285714306,[0.9178009]
1.769789316504155e-18,0.3958905403474118,1.0516895179766203e-17,0.3958905403474118,-6.29858331789728e-19,-0.015835514600068212,1.0516895179766203e-17,-0.015835514600068212,1.4724278124586922e-17,0.3962071219188451,1.5548507408378957e-17,-0.3962071219188451,0.657558834350876,0.3677400695249758,0.6575588343508763,300.0,19.285714285714306,[0.9178009]
1.6897513204335243e-18,0.38268684304275813,1.0138355307778128e-17,0.38268684304275813,-1.1328767884505748e-18,-0.017608628197894594,1.0138355307778128e-17,-0.017608628197894594,1.388048772533383e-17,0.3830917430917094,1.4775416040743683e-17,-0.38309174309170935,0.655986210616411,0.37331512554709545,0.6559862106164108,300.0,19.285714285714306,[0.91994148]
1.4162655575887919e-18,0.3582946190698285,9.723336253788582e-18,0.3582946190698285,-1.806416874028003e-18,-0.021247230110317428,9.723336253788582e-18,-0.021247230110317428,1.3002782920966065e-17,0.35892405720674986,1.411775703362881e-17,-0.3589240572067498,0.6524308300466065,0.3855749265828789,0.6524308300466065,300.0,19.285714285714306,[0.77324789]
5.627078096626732e-19,0.303002662897907,9.17438073539991e-18,0.303002662897907,-2.9922001344574696e-18,-0.029609300434868282,9.17438073539991e-18,-0.029609300434868282,1.199362588237382e-17,0.30444593016735333,1.365153902960516e-17,-0.30444593016735333,0.641548780733718,0.4205119782814273,0.641548780733718,300.0,19.285714285714306,[0.71210784]
-2.8032290691585053e-18,0.11515219346783245,8.220427869733077e-18,0.11515219346783245,-7.962017059961817e-18,-0.04591527861265573,8.220427869733077e-18,-0.04591527861265573,1.0120736774321055e-17,0.12396870762628334,1.2622328333163667e-17,-0.12396870762628345,0.5334606787599422,0.6563835833062583,0.5334606787599422,300.0,19.285714285714306,[0.38303122]
-3.905311577764956e-18,0.1120744928298864,8.288850182051932e-18,0.1120744928298864,-8.025911799197863e-18,-0.03966067341431671,8.288850182051932e-18,-0.03966067341431671,8.701893721943548e-18,0.11888507458362203,1.1570054842551172e-17,-0.118885074583622,0.6359954479192464,0.4370578685391612,0.6359954479192464,300.0,6.428571428571418,[0.38816409]
-2.46137186560259e-18,0.2991381015157235,8.820712840262809e-18,0.2991381015157235,-3.169233329156069e-18,-0.02199489285824104,8.820712840262809e-18,-0.02199489285824104,7.479347246369775e-18,0.2999456268897361,8.722903331543635e-18,-0.2999456268897361,0.6949633455839808,0.1845315598737535,0.6949633455839808,300.0,6.428571428571418,[0.34373127]
-3.559655960836197e-18,0.35485452843551724,8.960363881923758e-18,0.35485452843551724,-2.119785977287592e-18,-0.014788303052875644,8.960363881923758e-18,-0.014788303052875644,5.40459959907447e-18,0.3551625406182033,6.1323873492934224e-18,-0.3551625406182034,0.6987547392068317,0.15324369113273398,0.698754739206832,300.0,6.428571428571418,[0.28528299]
-5.237469410669356e-18,0.3791638400686321,9.012007042312128e-18,0.3791638400686321,-1.5725431363572105e-18,-0.011251446880810971,9.012007042312128e-18,-0.011251446880810971,3.212508110082393e-18,0.37933074311542814,3.7376758771863555e-18,-0.3793307431154281,0.7000031652134292,0.14139001868010856,0.7000031652134291,300.0,6.428571428571418,[0.34741252]
-7.109001942517533e-18,0.39204957122051903,9.028226606558221e-18,0.39204957122051903,-1.1883607552181817e-18,-0.009091673851727378,9.028226606558221e-18,-0.009091673851727378,9.877231345597695e-19,0.39215497552322226,1.4015326162643518e-18,-0.3921549755232222,0.7006362921915826,0.13497248655952881,0.7006362921915827,300.0,6.428571428571418,[0.34657392]
-9.067355351459277e-18,0.39938380046940797,9.03218611335536e-18,0.39938380046940797,-8.847590006316188e-19,-0.007591256203262887,9.03218611335536e-18,-0.007591256203262887,-1.2551043044838604e-18,0.39945593905727733,-9.151423454793111e-19,-0.39945593905727744,0.7010291854360253,0.13082875193857574,0.7010291854360255,300.0,6.428571428571418,[0.34657392]
-1.1108188593639907e-17,0.4034241736717625,9.022283107061875e-18,0.4034241736717625,-6.283660979646824e-19,-0.006460665548094769,9.022283107061875e-18,-0.006460665548094769,-3.509733956507397e-18,0.40347590275265344,-3.22271209665997e-18,-0.40347590275265344,0.7013028304432027,0.12786195690941501,0.7013028304432026,300.0,6.428571428571418,[0.34657392]
-1.3190261752439983e-17,0.4051426199883236,9.011786598678883e-18,0.4051426199883236,-4.091433833034288e-19,-0.005562737978540892,9.011786598678883e-18,-0.005562737978540892,-5.765448869494603e-18,0.40518080727598754,-5.519166026454285e-18,-0.4051808072759877,0.7015074795854959,0.12559662484004072,0.7015074795854959,300.0,6.428571428571418,[0.34657392]
-1.5294040130513448e-17,0.40491448973978506,8.992421473358404e-18,0.40491448973978506,-1.9534697346052304e-19,-0.0048263200686459425,8.992421473358404e-18,-0.0048263200686459425,-8.033644283564009e-18,0.4049432520324736,-7.820250513202835e-18,-0.40494325203247356,0.7016671351856871,0.12380009208648134,0.7016671351856874,300.0,6.428571428571418,[0.34657392]
-1.74428568385792e-17,0.40273137431559586,8.974955554724347e-18,0.40273137431559586,-2.6046263128069738e-20,-0.0042143763817838855,8.974955554724347e-18,-0.0042143763817838855,-1.0301025751910663e-17,0.4027534243509494,-1.0113851013280095e-17,-0.4027534243509494,0.7017937360357187,0.1223564633440192,0.7017937360357186,300.0,6.428571428571418,[0.34657392]
-1.9628029788927885e-17,0.3981984087124028,8.949791066129259e-18,0.3981984087124028,1.2317711937649646e-19,-0.0037121713423097203,8.949791066129259e-18,-0.0037121713423097203,-1.2577360623207592e-17,0.398215711539819,-1.2411090761005666e-17,-0.3982157115398191,0.7018920794686411,0.12122300754548941,0.7018920794686411,300.0,6.428571428571418,[0.34657392]
-2.1885372593360595e-17,0.3903139580281595,8.927865403222622e-18,0.3903139580281595,2.186800841794188e-19,-0.0033263307143899623,8.927865403222622e-18,-0.0033263307143899623,-1.485776522311828e-17,0.3903281315862711,-1.470611619374474e-17,-0.39032813158627105,0.7019604425694577,0.12042870976383625,0.7019604425694576,300.0,6.428571428571418,[0.3457099]
-2.4239303623559898e-17,0.37676343536516266,8.89712199498617e-18,0.37676343536516266,2.355016291162972e-19,-0.0030965207837366994,8.89712199498617e-18,-0.0030965207837366994,-1.716096030326603e-17,0.3767761599001762,-1.7015191692319983e-17,-0.37677615990017627,0.701986249222808,0.12012748146942684,0.7019862492228081,300.0,6.428571428571418,[0.34741252]
-2.680160475878376e-17,0.35153724018725185,8.860324865436748e-18,0.35153724018725185,9.197586667099625e-20,-0.003137563027016934,8.860324865436748e-18,-0.003137563027016934,-1.948179087407341e-17,0.3515512416991557,-1.9324215690191528e-17,-0.35155124169915564,0.7019260641500741,0.12082880837603555,0.7019260641500741,300.0,6.428571428571418,[0.28042204]
-2.994886155342552e-17,0.2942002459426649,8.811148978020471e-18,0.2942002459426649,-5.627078096626732e-19,-0.0037631843344128027,8.811148978020471e-18,-0.0037631843344128027,-2.1911690171729582e-17,0.29422431284490963,-2.1687695735602523e-17,-0.29422431284490974,0.7015905561194421,0.1246650838367463,0.7015905561194421,300.0,6.428571428571418,[0.28119563]
-3.5719194097256633e-17,0.10281072436165031,8.74047135776149e-18,0.10281072436165031,-5.024215631308285e-18,-0.002992667241577319,8.74047135776149e-18,-0.002992667241577319,-2.5102628720159045e-17,0.10285427118494415,-2.460310767727624e-17,-0.10285427118494421,0.7000595774141436,0.1408303097399904,0.7000595774141435,300.0,6.428571428571418,[0.16328108]
-3.5660590005218477e-17,0.10275331143165593,8.208998715209432e-18,0.10275331143165593,-4.986774128061685e-18,0.003975297296160931,8.208998715209432e-18,0.003975297296160931,-2.5063830640707858e-17,0.10283018038865699,-2.5714509576817134e-17,-0.10283018038865704,0.699074725881868,0.15029655773297537,0.6990747258818683,300.0,6.428571428571418,[0.16328108]
-2.9780646104056734e-17,0.294028135442883,6.593401241559143e-18,0.294028135442883,-4.433291036590203e-19,0.0047684797922403046,6.593401241559143e-18,0.0047684797922403046,-2.1805063282049047e-17,0.2940667999478134,-2.2021152359177205e-17,-0.29406679994781354,0.7012844494817781,0.1280634289330053,0.7012844494817783,300.0,6.428571428571418,[0.28119563]
-2.6494475906065272e-17,0.35125068278695226,4.995184900530124e-18,0.35125068278695226,2.8867941633610623e-19,0.0041655081180862865,4.995184900530124e-18,0.0041655081180862865,-1.9308691750368113e-17,0.35127538145475273,-1.9428238046730677e-17,-0.35127538145475273,0.7016724102003439,0.12374028255697966,0.7016724102003439,300.0,6.428571428571418,[0.28042204]
-2.3822563413510782e-17,0.37636277672999685,3.4096355898114365e-18,0.37636277672999685,5.008479347335076e-19,0.004147205745071856,3.4096355898114365e-18,0.004147205745071856,-1.6915962640717624e-17,0.3763856254207984,-1.699192136868808e-17,-0.37638562542079823,0.7017456427153564,0.12290689915550962,0.7017456427153563,300.0,6.428571428571418,[0.34741252]
-2.1356850504053513e-17,0.3897996380664134,1.8318865922691234e-18,0.3897996380664134,5.63250440144508e-19,0.004399855962283766,1.8318865922691234e-18,0.004399855962283766,-1.454358217413594e-17,0.38982446892055883,-1.458563095356698e-17,-0.38982446892055883,0.7017223019953424,0.12317313735029498,0.7017223019953424,300.0,6.428571428571418,[0.3457099]
-1.8993152125181185e-17,0.39757096067811637,2.608017753318441e-19,0.39757096067811637,5.415452208711166e-19,0.0048086257353789396,2.608017753318441e-19,0.0048086257353789396,-1.2195620079236819e-17,0.3976000398088302,-1.2202872149105211e-17,-0.3976000398088302,0.7016517496566449,0.12397436996225411,0.7016517496566447,300.0,6.428571428571418,[0.34657392]
-1.669673992605637e-17,0.4019914237727754,-1.3091299518315363e-18,0.4019914237727754,4.764295630509422e-19,0.0053338319084365645,-1.3091299518315363e-18,0.0053338319084365645,-9.852541658674212e-18,0.402026808247523,-9.8188959768017e-18,-0.40202680824752296,0.7015484097878033,0.12513855300589402,0.7015484097878033,300.0,6.428571428571418,[0.34657392]
-1.4427459251023294e-17,0.4040627533986126,-2.872380541187326e-18,0.4040627533986126,3.7061661909315894e-19,0.005968830405631581,-2.872380541187326e-18,0.005968830405631581,-7.513804281966284e-18,0.4041068368890574,-7.430411305471672e-18,-0.4041068368890574,0.7014146027337328,0.1266298153823177,0.7014146027337328,300.0,6.428571428571418,[0.34657392]
-1.2192906926827645e-17,0.4041799044255583,-4.438819084623895e-18,0.4041799044255583,2.51237913089506e-19,0.00672833832679182,-4.438819084623895e-18,0.00672833832679182,-5.176152166222025e-18,0.4042359034995447,-5.0301083324481e-18,-0.40423590349954475,0.7012455364305124,0.12848889163101443,0.7012455364305122,300.0,6.428571428571418,[0.34657392]
-1.0005020824069787e-17,0.40235137394295667,-5.9988138910886756e-18,0.40235137394295667,9.821611721209631e-20,0.007649373051459826,-5.9988138910886756e-18,0.007649373051459826,-2.8515231820418012e-18,0.4024240810660631,-2.6259283619649497e-18,-0.40242408106606314,0.7010287921896923,0.13083296619018636,0.7010287921896924,300.0,6.428571428571418,[0.34657392]
-7.86488620371339e-18,0.3982018986579304,-7.555925973118709e-18,0.3982018986579304,-7.976668082971356e-20,0.008803070787742787,-7.555925973118709e-18,0.008803070787742787,-5.290647197889165e-19,0.39829919175172157,-1.9920589448661394e-19,-0.3982991917517216,0.700739195785541,0.1338998094833104,0.7007391957855409,300.0,6.428571428571418,[0.34657392]
-5.765991499976438e-18,0.39075963497513416,-9.099540121913102e-18,0.39075963497513416,-3.0333043934564546e-19,0.010326579622052336,-9.099540121913102e-18,0.010326579622052336,1.7819985023454377e-18,0.3908960610860524,2.2585230395708996e-18,-0.3908960610860523,0.7003238950436526,0.13817700265157765,0.7003238950436526,300.0,6.428571428571418,[0.3457099]
-3.785390241279468e-18,0.37776702130005635,-1.0624772663135342e-17,0.37776702130005635,-6.153429664006475e-19,0.012509414733452733,-1.0624772663135342e-17,0.012509414733452733,4.078410701470253e-18,0.3779740835545352,4.774001999441581e-18,-0.3779740835545354,0.6996554748191429,0.1447909980323346,0.6996554748191429,300.0,6.428571428571418,[0.34741252]
-2.0012212170066913e-18,0.3533520627704593,-1.212735038174098e-17,0.3533520627704593,-1.0798346588512244e-18,0.016069297017701527,-1.212735038174098e-17,0.016069297017701527,6.336296136384799e-18,0.3537172636029824,7.418220498381574e-18,-0.3537172636029825,0.6983384556126805,0.1569930024714246,0.6983384556126805,300.0,6.428571428571418,[0.30263211]
-7.94411025406127e-19,0.29753131130284133,-1.352930406037138e-17,0.29753131130284133,-2.063081091935857e-18,0.023298892393335983,-1.352930406037138e-17,0.023298892393335983,8.481857061559542e-18,0.29844215451632244,1.0552501353815352e-17,-0.29844215451632244,0.6943353887477925,0.18920025334259954,0.6943353887477924,300.0,6.428571428571418,[0.40270239]
-2.1119178353009877e-18,0.11036480654148961,-1.4545684867253048e-17,0.11036480654148961,-6.8317177662999585e-18,0.04098776786259908,-1.4545684867253048e-17,0.04098776786259908,9.776573391217342e-18,0.11773014752941892,1.8689936125837186e-17,-0.11773014752941886,0.6311379996718278,0.45092089188735385,0.6311379996718283,300.0,6.428571428571418,[0.38816409]
-1.4433970816805312e-18,0.11334110952545022,-1.451804462708459e-17,0.11334110952545022,-6.8414851149729846e-18,0.04728389102422229,-1.451804462708459e-17,0.04728389102422229,1.0109205876582066e-17,0.12280868641448227,1.8365415324173628e-17,-0.12280868641448227,0.526054292153266,0.6682318186185476,0.5260542921532663,300.0,19.28571428571425,[0.38303122]
9.072781656277625e-19,0.301093007170867,-1.4002579583746657e-17,0.301093007170867,-2.068507396754205e-18,0.031042641299042748,-1.4002579583746657e-17,0.031042641299042748,9.761379737725968e-18,0.3026890228369982,1.2547197668215787e-17,-0.3026890228369981,0.6399558626828018,0.42533867404201764,0.6399558626828017,300.0,19.28571428571425,[0.71459284]
7.683647622780572e-19,0.3562880344444899,-1.3078886846043394e-17,0.3562880344444899,-1.0863462246332419e-18,0.02274437304922408,-1.3078886846043394e-17,0.02274437304922408,8.544259566970543e-18,0.3570132630501567,1.017466088146544e-17,-0.35701326305015657,0.6511921283273165,0.38974045723927564,0.6511921283273165,300.0,19.28571428571425,[0.77473788]
7.596826745687006e-20,0.38058512239996295,-1.2025301936750925e-17,0.38058512239996295,-6.283660979646824e-19,0.019168965577124688,-1.2025301936750925e-17,0.019168965577124688,7.201249124429447e-18,0.381067559146002,8.396704226883896e-18,-0.38106755914600204,0.6548333649705012,0.37734139481750634,0.654833364970501,300.0,19.28571428571425,[0.9186395]
-8.486740735896056e-19,0.3936955597489935,-1.0934479010642546e-17,0.3936955597489935,-3.2774881102821084e-19,0.01745848281744768,-1.0934479010642546e-17,0.01745848281744768,5.8121150909323945e-18,0.3940824690193165,6.766817244900071e-18,-0.3940824690193164,0.6564247172621602,0.3717703338549033,0.6564247172621601,300.0,19.28571428571425,[0.9178009]
-1.8536257259476295e-18,0.40139176434954854,-9.817067190924263e-18,0.40139176434954854,-1.0744083540328767e-19,0.01668828760414383,-9.817067190924263e-18,0.01668828760414383,4.407244773462133e-18,0.40173853117519387,5.211932567256591e-18,-0.4017385311751938,0.6571488059273388,0.36920305217663896,0.6571488059273387,300.0,19.28571428571425,[0.9178009]
-2.9084993826344538e-18,0.4058969309892905,-8.67978152980878e-18,0.4058969309892905,7.379774552953092e-20,0.01649735847609771,-8.67978152980878e-18,0.01649735847609771,2.986638172018663e-18,0.4062320536629449,3.67954222629899e-18,-0.406232053662945,0.6573913861400981,0.36833833748009537,0.6573913861400981,300.0,19.28571428571425,[0.9178009]
-4.011124521722739e-18,0.40817720422012654,-7.545276849912701e-18,0.40817720422012654,2.0619958309721876e-19,0.01673657387372739,-7.545276849912701e-18,0.01673657387372739,1.5606052657568452e-18,0.4085201867105095,2.1666775801109862e-18,-0.4085201867105095,0.6572979963860354,0.36867151760585737,0.6572979963860355,300.0,19.28571428571425,[0.9178009]
-5.137625402011755e-18,0.4086206823044898,-6.383640645924884e-18,0.4086206823044898,3.364308987375674e-19,0.017361315273524938,-6.383640645924884e-18,0.017361315273524938,1.2589027178567039e-19,0.40898933638300833,6.616852154323427e-19,-0.4089893363830083,0.6569109791811498,0.37004855203408954,0.6569109791811497,300.0,19.28571428571425,[0.9178009]
-6.305366198920216e-18,0.40725105203338624,-5.2234627613569955e-18,0.40725105203338624,4.330191245041594e-19,0.018401266846311062,-5.2234627613569955e-18,0.018401266846311062,-1.321847853749539e-18,0.4076665622832573,-8.57758251490945e-19,-0.4076665622832575,0.6562043835863225,0.37254746533051153,0.6562043835863228,300.0,19.28571428571425,[0.9178009]
-7.507835346666101e-18,0.4037351470981495,-4.0480573088926194e-18,0.4037351470981495,4.87282172687638e-19,0.019969893537977124,-4.0480573088926194e-18,0.019969893537977124,-2.776097545066766e-18,0.4042287293727187,-2.3896873952954643e-18,-0.4042287293727188,0.6550737674885009,0.3765059339463889,0.655073767488501,300.0,19.28571428571425,[0.9178009]
-8.764567542595466e-18,0.39719031052266135,-2.8551181089839567e-18,0.39719031052266135,5.057316090700207e-19,0.022320971734064613,-2.8551181089839567e-18,0.022320971734064613,-4.245540889875367e-18,0.39781700385006297,-3.917045224711428e-18,-0.39781700385006297,0.6532711303149061,0.38271877481274674,0.653271130314906,300.0,19.28571428571425,[0.9178009]
-1.0105950093691057e-17,0.38555314918516603,-1.6249748066644967e-18,0.38555314918516603,4.482127779955334e-19,0.02601587501301201,-1.6249748066644967e-18,0.02601587501301201,-5.744286280703046e-18,0.3864298857481024,-5.527637029229835e-18,-0.38642988574810255,0.6501890983805009,0.3930754033188827,0.650189098380501,300.0,19.28571428571425,[0.91994148]
-1.1644850140174511e-17,0.36343683693011253,-3.3602392587619133e-19,0.36343683693011253,2.1054062695189705e-19,0.032462732559041516,-3.3602392587619133e-19,0.032462732559041516,-7.300550502605213e-18,0.36488376703131786,-7.25491261791095e-18,-0.36488376703131803,0.6440019974975606,0.4129441299235324,0.6440019974975606,300.0,19.28571428571425,[0.9090027]
-1.3672117620309273e-17,0.3123957089752905,1.1466460369271325e-18,0.3123957089752905,-5.187547406340556e-19,0.04610653130516232,1.1466460369271325e-18,0.04610653130516232,-9.035882783512859e-18,0.3157798144517289,-9.387875413199038e-18,-0.31577981445172887,0.6261745262623144,0.4645545450432408,0.6261745262623144,300.0,19.28571428571425,[0.71459284]
-1.799362677764151e-17,0.13637978089142952,3.3308015551223765e-18,0.13637978089142952,-5.057316090700207e-18,0.07720094528671524,3.3308015551223765e-18,0.07720094528671524,-1.187601072543613e-17,0.15671448748969147,-1.14295501354104e-17,-0.15671448748969166,0.46577535662037073,0.7524005810273756,0.4657753566203708,300.0,19.28571428571425,[0.4246037]
-1.832137558866972e-17,0.1418059981404787,3.659092996632422e-18,0.1418059981404787,-5.018246696008102e-18,0.08156936411296596,3.659092996632422e-18,0.08156936411296596,-1.2771351020463528e-17,0.1635924884290568,-1.6698005034974226e-17,-0.16359248842905683,0.33140907361340316,0.8833663180433199,0.33140907361340355,300.0,32.142857142857125,[0.41022095]
-1.515241357475457e-17,0.3190035781566687,1.7397750679776684e-18,0.3190035781566687,-3.8201185921168945e-19,0.05150222192191724,1.7397750679776684e-18,0.05150222192191724,-1.1233536234943743e-17,0.3231342781873383,-1.1608752458311985e-17,-0.3231342781873384,0.5311102203933874,0.6601847223219991,0.5311102203933872,300.0,32.142857142857125,[0.69719793]
-1.4240794365272128e-17,0.36904299432285737,5.407312751483644e-19,0.36904299432285737,4.406159512498464e-19,0.03714397501374336,5.407312751483644e-19,0.03714397501374336,-1.0818966546821966e-17,0.37090754446169205,-1.0988709476896637e-17,-0.3709075444616921,0.5580403093831504,0.6141514684563701,0.5580403093831502,300.0,32.142857142857125,[1.24329591]
-1.380886050173164e-17,0.3910716663658634,-4.486197508569095e-19,0.3910716663658634,7.596826745687006e-19,0.03071138175296094,-4.486197508569095e-19,0.03071138175296094,-1.0617108007579426e-17,0.39227571579610854,-1.0551829911329642e-17,-0.39227571579610837,0.5674336184713464,0.5966893473634577,0.5674336184713464,300.0,32.142857142857125,[1.24976852]
-1.3537545260814247e-17,0.40304472063785735,-1.3597980730728594e-18,0.40304472063785735,9.029371217730842e-19,0.027368369662790534,-1.3597980730728594e-18,0.027368369662790534,-1.047927986519339e-17,0.40397286355898676,-1.0322523624978637e-17,-0.4039728635589866,0.5718617821039201,0.5881736175125993,0.5718617821039201,300.0,32.142857142857125,[1.24976852]
-1.3357391940845098e-17,0.4101694118500788,-2.2376385350610847e-18,0.4101694118500788,9.8975799886665e-19,0.02556366509921206,-2.2376385350610847e-18,0.02556366509921206,-1.037835059557212e-17,0.4109652629976702,-1.0108993183917636e-17,-0.4109652629976703,0.5741636233304273,0.5836713692551233,0.5741636233304274,300.0,32.142857142857125,[1.25177949]
-1.3229331147132088e-17,0.4144470656210365,-3.096486930185093e-18,0.4144470656210365,1.0158042619947197e-18,0.024686443815233165,-3.096486930185093e-18,0.024686443815233165,-1.0295870762333232e-17,0.41518163580549927,-9.919584170272165e-18,-0.41518163580549944,0.575296288084,0.5814364641416486,0.5752962880840001,300.0,32.142857142857125,[1.25177949]
-1.3144680791965861e-17,0.41674993202304134,-3.931188268867452e-18,0.41674993202304134,1.0006106085033457e-18,0.024474671768632928,-3.931188268867452e-18,0.024474671768632928,-1.022749932162205e-17,0.4174679812864597,-9.76987526705613e-18,-0.41746798128645973,0.5756391303586528,0.5807574219929246,0.5756391303586529,300.0,32.142857142857125,[1.25177949]
-1.3064371480654313e-17,0.4174341722169123,-4.759174555337107e-18,0.4174341722169123,9.680527795932585e-19,0.02483326043191797,-4.759174555337107e-18,0.02483326043191797,-1.0171065751511232e-17,0.4181721881690582,-9.618416042777152e-18,-0.41817218816905827,0.5753268187507684,0.5813760428949931,0.5753268187507684,300.0,32.142857142857125,[1.25177949]
-1.3025302085962208e-17,0.4165339652968049,-5.566846113143071e-18,0.4165339652968049,9.181307752644582e-19,0.025778708399277424,-5.566846113143071e-18,0.025778708399277424,-1.0128740573928118e-17,0.41733090713798654,-9.46248428093634e-18,-0.41733090713798676,0.5743428390198787,0.5833186149379865,0.5743428390198787,300.0,32.142857142857125,[1.25177949]
-1.3012278954398174e-17,0.4137724308671808,-6.363122430830506e-18,0.4137724308671808,8.356509420255708e-19,0.02744436159059782,-6.363122430830506e-18,0.02744436159059782,-1.0103779571763718e-17,0.41468158571228064,-9.289281172468386e-18,-0.41468158571228053,0.5725139566016505,0.5869033472324443,0.5725139566016505,300.0,32.142857142857125,[1.25177949]
-1.3062200958726974e-17,0.4083978650667418,-7.129961044878402e-18,0.4083978650667418,7.010785825305437e-19,0.030150384782120534,-7.129961044878402e-18,0.030150384782120534,-1.0104864832727388e-17,0.40950929402588965,-9.058269556198609e-18,-0.4095092940258896,0.5694012311643823,0.5929287275018567,0.5694012311643825,300.0,32.142857142857125,[1.25061572]
-1.3144680791965861e-17,0.39863976865678824,-7.859493813300157e-18,0.39863976865678824,4.94878999433325e-19,0.03461884472365649,-7.859493813300157e-18,0.03461884472365649,-1.0159127880910866e-17,0.40014013740780663,-8.77168033936811e-18,-0.40014013740780646,0.5639315185653458,0.603293033887485,0.5639315185653458,300.0,32.142857142857125,[1.24976852]
-1.3413825510955915e-17,0.3798479970820282,-8.499119493762912e-18,0.3798479970820282,1.1503766214897466e-19,0.042669401112944365,-8.499119493762912e-18,0.042669401112944365,-1.0295870762333232e-17,0.38223707130335494,-8.600739392120753e-18,-0.38223707130335494,0.5529863825324427,0.62322718286943,0.5529863825324428,300.0,32.142857142857125,[1.27191049]
-1.4075834698794353e-17,0.3358962438563392,-8.897579839455218e-18,0.3358962438563392,-7.6619424035071805e-19,0.06001899408927343,-8.897579839455218e-18,0.06001899408927343,-1.0710440450455009e-17,0.34121630425330746,-7.811769972229885e-18,-0.3412163042533074,0.5232162930057326,0.6726733393458366,0.5232162930057326,300.0,32.142857142857125,[0.69719793]
-1.66457326607639e-17,0.17574230129264898,-8.406465338989622e-18,0.17574230129264898,-5.448010037621253e-18,0.09835454834939594,-8.406465338989622e-18,0.09835454834939594,-1.2593368222421719e-17,0.2013925858730897,-2.8713687780608746e-18,-0.20139258587308986,0.3387407902598241,0.8777866221515911,0.3387407902598238,300.0,32.142857142857125,[0.80412485]
-1.6309301762026333e-17,0.18253873871782345,-8.571458919872511e-18,0.18253873871782345,-5.4545216034032704e-18,0.099926631914307,-8.571458919872511e-18,0.099926631914307,-1.3089332482818713e-17,0.20810027125986938,-1.1268908636311074e-17,-0.20810027125986943,0.19849110792448926,0.9597929777560459,0.1984911079244893,300.0,45.0,[0.8462336]
-1.3669947098381934e-17,0.34422814820029485,-9.54314054081304e-18,0.34422814820029485,-7.748763280600747e-19,0.061987839834032055,-9.54314054081304e-18,0.061987839834032055,-1.1586246048136354e-17,0.34976493577929396,-8.270686476501689e-18,-0.349764935779294,0.40347141679227644,0.8212317770661742,0.40347141679227644,300.0,45.0,[0.86395772]
-1.2916775989595251e-17,0.38699259180647877,-9.611613724739567e-18,0.38699259180647877,1.1937870600365295e-19,0.0444130278781765,-9.611613724739567e-18,0.0444130278781765,-1.1588416570063693e-17,0.389532775461069,-9.553641115780414e-18,-0.38953277546106907,0.43973137244075206,0.783117258258778,0.43973137244075206,300.0,45.0,[1.31907798]
-1.2530423086528883e-17,0.4057368433776275,-9.429832513324914e-18,0.4057368433776275,4.992200432880033e-19,0.03639740654412051,-9.429832513324914e-18,0.03639740654412051,-1.1892289639891173e-17,0.40736612190654675,-1.0233585649695168e-17,-0.4073661219065467,0.4533261567075486,0.7674573547041728,0.45332615670754844,300.0,45.0,[1.31471378]
-1.2287324630666898e-17,0.4159755157068336,-9.162756573046855e-18,0.4159755157068336,7.075901483125611e-19,0.032084608116913625,-9.162756573046855e-18,0.032084608116913625,-1.2298177240303593e-17,0.41721103981747915,-1.088712008739422e-17,-0.417211039817479,0.46006801229164995,0.759391103537578,0.46006801229164995,300.0,45.0,[1.32162346]
-1.210500078877041e-17,0.42213480044801477,-8.849523127407725e-18,0.42213480044801477,8.443330297349274e-19,0.029603963834942407,-8.849523127407725e-18,0.029603963834942407,-1.2764839454681511e-17,0.423171577996474,-1.1517781679773001e-17,-0.42317157799647404,0.46379631457236375,0.7548416768953515,0.46379631457236375,300.0,45.0,[1.33877444]
-1.195089373192933e-17,0.4259077625425831,-8.509666873753575e-18,0.4259077625425831,9.203012971917973e-19,0.028215816333037838,-8.509666873753575e-18,0.028215816333037838,-1.3257547932187497e-17,0.4268413692290956,-1.2137210814840132e-17,-0.4268413692290957,0.46585450108526727,0.7523025771836713,0.4658545010852672,300.0,45.0,[1.3401033]
-1.1855390767126408e-17,0.428033089977738,-8.147206669090495e-18,0.428033089977738,9.854169550119717e-19,0.02759710279206797,-8.147206669090495e-18,0.02759710279206797,-1.3776302672821552e-17,0.42892181828208087,-1.2709167799624083e-17,-0.42892181828208087,0.4667936790782732,0.7511373525162627,0.46679367907827307,300.0,45.0,[1.3401033]
-1.1759887802323486e-17,0.4288162988713203,-7.774538228487899e-18,0.4288162988713203,1.0114632181400414e-18,0.02762107926683731,-7.774538228487899e-18,0.02762107926683731,-1.4316762632728998e-17,0.4297049478392844,-1.329363300852071e-17,-0.42970494783928453,0.4668263905522159,0.7510966929550282,0.4668263905522159,300.0,45.0,[1.3401033]
-1.167306692522992e-17,0.42829533024560246,-7.382809892210855e-18,0.42829533024560246,1.020145305849398e-18,0.028287768906336625,-7.382809892210855e-18,0.028287768906336625,-1.4874586768055158e-17,0.4292284796933771,-1.3864675657150627e-17,-0.4292284796933772,0.465961114259024,0.7521705125814078,0.4659611142590241,300.0,45.0,[1.3401033]
-1.1629656486683137e-17,0.4262526732400972,-6.984434332531335e-18,0.4262526732400972,9.940990427213282e-19,0.02972396269614817,-6.984434332531335e-18,0.02972396269614817,-1.545194560072737e-17,0.4272877899059266,-1.449309556920106e-17,-0.42728778990592653,0.46400660153575973,0.7545831613960583,0.46400660153575957,300.0,45.0,[1.34980399]
-1.1607951267409745e-17,0.42208344679040677,-6.546565448095778e-18,0.42208344679040677,9.15960253337119e-19,0.032252773395712024,-6.546565448095778e-18,0.032252773395712024,-1.6077055915801044e-17,0.4233139230478786,-1.511067177861707e-17,-0.42331392304787846,0.46045104137834286,0.7589266611387423,0.4604510413783427,300.0,45.0,[1.34064105]
-1.1638338574392493e-17,0.4143507966395976,-6.071916391313356e-18,0.4143507966395976,7.618531964960398e-19,0.036613916408162694,-6.071916391313356e-18,0.036613916408162694,-1.6760770322912875e-17,0.41596533695803684,-1.5631809349453034e-17,-0.4159653369580369,0.4540485067744257,0.7666028352359706,0.45404850677442565,300.0,45.0,[1.31672476]
-1.177291093388752e-17,0.39924689733230556,-5.500526493941326e-18,0.39924689733230556,4.623211705232378e-19,0.04467814330187083,-5.500526493941326e-18,0.04467814330187083,-1.758556865530175e-17,0.4017389967608013,-1.6371228335327702e-17,-0.40173899676080127,0.4412924272840109,0.781359064223083,0.4412924272840109,300.0,45.0,[1.31471378]
-1.2211356363210028e-17,0.36328702794633383,-4.6877847325707176e-18,0.36328702794633383,-3.7332977150233287e-19,0.06230200171270671,-4.6877847325707176e-18,0.06230200171270671,-1.8783696759192958e-17,0.3685905643006756,-1.687445064309553e-17,-0.36859056430067566,0.40829182212610904,0.816453045783947,0.4082918221261089,300.0,45.0,[1.30454371]
-1.4151802966251223e-17,0.22056273232986506,-2.976870823345637e-18,0.22056273232986506,-4.996541476734711e-18,0.10029088639870878,-2.976870823345637e-18,0.10029088639870878,-2.1868008417941882e-17,0.2422935838759551,-2.0041663843969195e-17,-0.24229358387595487,0.24819445073033958,0.9363754745043946,0.2481944507303397,300.0,45.0,[0.8575061]
-1.3166386011239253e-17,0.22737570491589323,-2.6181327246438925e-18,0.22737570491589323,-5.055145568772868e-18,0.09876331227491002,-2.6181327246438925e-18,0.09876331227491002,-2.118863505468473e-17,0.2478989774837942,-2.105104284067236e-17,-0.2478989774837943,0.10652535413693462,0.9885872231887287,0.10652535413693473,300.0,57.8571428571429,[0.91992317]
-9.832464330846325e-18,0.3716711309252503,-3.47086804824598e-18,0.3716711309252503,-5.665062230355167e-19,0.06047814229340042,-3.47086804824598e-18,0.06047814229340042,-1.614217157362122e-17,0.376559471077963,-1.5003272630262804e-17,-0.3765594710779632,0.27516034879442675,0.9211805278568687,0.27516034879442675,300.0,57.8571428571429,[1.3095174]
-7.970156517189339e-18,0.40647909061476156,-3.434995086235934e-18,0.40647909061476156,1.3023131564034868e-19,0.04317879324158072,-3.434995086235934e-18,0.04317879324158072,-1.3007937910543495e-17,0.4087660202277127,-1.2137636266461127e-17,-0.4087660202277128,0.3108542485930784,0.8981866578074211,0.3108542485930785,300.0,57.8571428571429,[1.30133746]
-6.381334466377086e-18,0.4215709133018678,-3.157693952815801e-18,0.4215709133018678,3.060435917548194e-19,0.03517888757879312,-3.157693952815801e-18,0.03517888757879312,-1.0286103413660206e-17,0.4230361557520258,-9.696959360430656e-18,-0.4230361557520259,0.32511166587710716,0.8880342388788987,0.32511166587710716,300.0,57.8571428571429,[1.31952185]
-4.9010385119317885e-18,0.4298197419763234,-2.79504721892459e-18,0.4298197419763234,3.2774881102821084e-19,0.03076162256529357,-2.79504721892459e-18,0.03076162256529357,-7.705352842053963e-18,0.43091912003929794,-7.274470840810342e-18,-0.43091912003929783,0.3325031200400114,0.8825436818239173,0.33250312004001137,300.0,57.8571428571429,[1.33906595]
-3.4554709083239186e-18,0.4348095191841768,-2.389613223680579e-18,0.4348095191841768,2.669741970627148e-19,0.028107378157465192,-2.389613223680579e-18,0.028107378157465192,-5.211423147541286e-18,0.43571704428454666,-4.887276781225338e-18,-0.43571704428454694,0.3367972090377516,0.8792811154396312,0.3367972090377517,300.0,57.8571428571429,[1.33906595]
-2.0359495678441177e-18,0.4378997207314357,-1.9542963982299003e-18,0.4378997207314357,1.5193653491374012e-19,0.026494098491143005,-1.9542963982299003e-18,0.026494098491143005,-2.747880760011357e-18,0.43870047033429066,-2.5048730808220385e-18,-0.4387004703342907,0.33935851236580106,0.8773092956134348,0.33935851236580117,300.0,57.8571428571429,[1.34482725]
-6.207692712189954e-19,0.4396822603927895,-1.51389665131266e-18,0.4396822603927895,2.387574120073059e-20,0.0256016170109743,-1.51389665131266e-18,0.0256016170109743,-3.255782891008717e-19,0.440426989292992,-1.6072233733637305e-19,-0.44042698929299195,0.34076405564323387,0.8762189890450618,0.3407640556432338,300.0,57.8571428571429,[1.34482725]
7.51000586859344e-19,0.44040332787456526,-1.0459817235958207e-18,0.44040332787456526,-1.3891340334970526e-19,0.025296578560351463,-1.0459817235958207e-18,0.025296578560351463,2.0793600063909005e-18,0.44112924193466435,2.2145652904047158e-18,-0.44112924193466446,0.34125053351463747,0.8758402518450215,0.3412505335146375,300.0,57.8571428571429,[1.34482725]
2.13145253264704e-18,0.44009714044344334,-5.770835430869457e-19,0.44009714044344334,-3.2340776717353255e-19,0.025562470159677296,-5.770835430869457e-19,0.025562470159677296,4.4517404729725856e-18,0.440838896772007,4.509700212394987e-18,-0.4408388967720069,0.34085287320394536,0.8761498945141922,0.3408528732039453,300.0,57.8571428571429,[1.34482725]
3.511904478434736e-18,0.43859686572265355,-7.550194438654329e-20,0.43859686572265355,-5.426304818347862e-19,0.02649436244185807,-7.550194438654329e-20,0.02649436244185807,6.791563110644184e-18,0.43939636077570765,6.788616518738803e-18,-0.4393963607757076,0.33941757976308046,0.8772635938505289,0.33941757976308046,300.0,57.8571428571429,[1.34482725]
4.844604941820971e-18,0.4354312140274249,4.3527655209460485e-19,0.4354312140274249,-8.074341569701619e-19,0.02835427022152783,4.3527655209460485e-19,0.02835427022152783,9.08580478784166e-18,0.4363534195914964,9.018831462439589e-18,-0.43635341959149637,0.3365032593150151,0.8795061756126237,0.3365032593150151,300.0,57.8571428571429,[1.34482725]
6.1469180982244576e-18,0.429471618824158,9.832379544833538e-19,0.429471618824158,-1.154717665344425e-18,0.03175300194356835,9.832379544833538e-19,0.03175300194356835,1.129322558794557e-17,0.4306438487983673,1.1120789373654896e-17,-0.43064384879836726,0.33103322874565,0.8836481216708723,0.33103322874564994,300.0,57.8571428571429,[1.33906595]
7.375433509098413e-18,0.41769134934090885,1.606690703007048e-18,0.41769134934090885,-1.6604492744144458e-18,0.03824183341035436,1.606690703007048e-18,0.03824183341035436,1.332700463386235e-17,0.4194383162478296,1.2951167319769127e-17,-0.41943831624782957,0.3200485462306423,0.891705027523847,0.3200485462306423,300.0,57.8571428571429,[1.29111656]
8.412942990366525e-18,0.3890462648397658,2.4385729067642503e-18,0.3890462648397658,-2.6827651021911827e-18,0.05265691919557913,2.4385729067642503e-18,0.05265691919557913,1.4881098333837176e-17,0.39259361600125764,1.4003334310253785e-17,-0.39259361600125764,0.2924998624854587,0.9104326778471739,0.29249986248545856,300.0,57.8571428571429,[1.3054311]
8.326122113272959e-18,0.2618707953409014,3.999101865109587e-18,0.2618707953409014,-7.496982737029406e-18,0.08278194298168988,3.999101865109587e-18,0.08278194298168988,1.4177849229379293e-17,0.2746437028884881,1.211130647978113e-17,-0.27464370288848794,0.17824233848029067,0.9677082915559602,0.1782423384802907,300.0,57.8571428571429,[0.91714509]
8.447671341203951e-18,0.2673492130229016,4.0647855892154324e-18,0.2673492130229016,-7.499153258956745e-18,0.07846534061747872,4.0647855892154324e-18,0.07846534061747872,1.441226559753192e-17,0.2786259345110964,1.112586166704179e-17,-0.2786259345110964,0.03613299161600428,0.9986935535156698,0.036132991616004334,300.0,70.71428571428567,[1.03705027]
8.32178106941828e-18,0.39581809705297943,3.0233505155552977e-18,0.39581809705297943,-2.674083014481826e-18,0.04742560696689337,3.0233505155552977e-18,0.04742560696689337,1.6072714871946366e-17,0.3986491617334972,1.521136621438257e-17,-0.3986491617334972,0.15248313982330897,0.9764721112961959,0.152483139823309,300.0,70.71428571428567,[1.29636833]
7.08024252698029e-18,0.4235725264504921,2.6965852222754125e-18,0.4235725264504921,-1.6430850989957327e-18,0.03383610113643216,2.6965852222754125e-18,0.03383610113643216,1.545411612265471e-17,0.42492183622846186,1.498106280291599e-17,-0.4249218362284618,0.17965447670169996,0.9671858859609547,0.1796544767016999,300.0,70.71428571428567,[1.34509461]
5.686767449628559e-18,0.4353762541358405,2.5432666753532494e-18,0.4353762541358405,-1.1373534899257118e-18,0.027443475316725762,2.5432666753532494e-18,0.027443475316725762,1.4325444720438354e-17,0.43624033170124915,1.396826965091073e-17,-0.43624033170124915,0.19109280715803748,0.9627912951958602,0.1910928071580375,300.0,70.71428571428567,[1.36568129]
4.228176714456654e-18,0.4417830973596697,2.4624571265662596e-18,0.4417830973596697,-7.900699815514487e-19,0.02380276322259333,2.4624571265662596e-18,0.02380276322259333,1.3010108432470834e-17,0.4424238653709067,1.2723503690451757e-17,-0.4424238653709066,0.19729624467353452,0.9602855740223538,0.19729624467353452,300.0,70.71428571428567,[1.35384758]
2.7261755407379656e-18,0.44564030650266173,2.4133490679602114e-18,0.44564030650266173,-5.165842187067164e-19,0.02150578480351881,2.4133490679602114e-18,0.02150578480351881,1.1612292311264424e-17,0.4461589196237161,1.1355458105881242e-17,-0.44615891962371607,0.20109976417693806,0.9587063000189159,0.20109976417693806,300.0,70.71428571428567,[1.36988918]
1.2198333231645993e-18,0.44801443749791786,2.3884558946060406e-18,0.44801443749791786,-2.908499382634454e-19,0.019991096071582726,2.3884558946060406e-18,0.019991096071582726,1.0153701576092519e-17,0.4484602324941632,9.923964107155634e-18,-0.4484602324941631,0.20355842201708452,0.9576679683751719,0.20355842201708457,300.0,70.71428571428567,[1.36988918]
-3.0821411368215854e-19,0.4493664162057535,2.3689890260702177e-18,0.4493664162057535,-1.063555744396181e-19,0.019004843021375208,2.3689890260702177e-18,0.019004843021375208,8.662553012010526e-18,0.44976811811406703,8.441138393775641e-18,-0.4497681181140672,0.20513204326898343,0.9569961805820252,0.20513204326898354,300.0,70.71428571428567,[1.36988918]
-1.8362615505289163e-18,0.449886105132108,2.36095131205804e-18,0.449886105132108,6.294513589283519e-20,0.01843348001482653,2.36095131205804e-18,0.01843348001482653,7.134505575163768e-18,0.45026359032948143,6.929099193920103e-18,-0.4502635903294814,0.20602279918319336,0.9566134080355777,0.20602279918319338,300.0,70.71428571428567,[1.36856173]
-3.368650031230353e-18,0.4495971826376932,2.356932455051951e-18,0.4495971826376932,1.9751749538786218e-19,0.01824724104338547,2.356932455051951e-18,0.01824724104338547,5.584752919043619e-18,0.4499673193037987,5.3803060477987986e-18,-0.44996731930379874,0.206284737481807,0.9565005040062048,0.20628473748180703,300.0,70.71428571428567,[1.36856173]
-4.918402687350502e-18,0.4483647024943288,2.374245758862992e-18,0.4483647024943288,3.1906672331885426e-19,0.01849066300597554,2.374245758862992e-18,0.01849066300597554,3.9850782585946695e-18,0.4487458201044647,3.776426860847303e-18,-0.44874582010446457,0.20584278093675518,0.956690910938557,0.20584278093675507,300.0,70.71428571428567,[1.36856173]
-6.474666909252669e-18,0.44581121534703744,2.4040395637562334e-18,0.44581121534703744,3.798413372843503e-19,0.0193127876769864,2.4040395637562334e-18,0.0193127876769864,2.328970028034902e-18,0.4462293395744602,2.1048665157021623e-18,-0.44622933957446026,0.2044375478858595,0.9572933604850887,0.20443754788585952,300.0,70.71428571428567,[1.36988918]
-8.076512091628957e-18,0.4410299686341708,2.448603092076915e-18,0.4410299686341708,3.7767081535701116e-19,0.02107456177982308,2.448603092076915e-18,0.02107456177982308,5.816998765268908e-19,0.4415332041734453,3.3344317000544576e-19,-0.44153320417344527,0.2014198527796387,0.958571899135614,0.20141985277963875,300.0,70.71428571428567,[1.36988918]
-9.69355092749662e-18,0.4315593442930872,2.545530461894654e-18,0.4315593442930872,1.9534697346052304e-19,0.02470056211108775,2.545530461894654e-18,0.02470056211108775,-1.3761109019330177e-18,0.4322656421869346,-1.6996326055628587e-18,-0.43226564218693464,0.19502283517792268,0.961213913506421,0.19502283517792265,300.0,70.71428571428567,[1.3438281]
-1.1429968469367936e-17,0.408111341718626,2.7624469970081096e-18,0.408111341718626,-5.013905652153424e-19,0.0330487178418209,2.7624469970081096e-18,0.0330487178418209,-3.88306372800973e-18,0.4094472920784377,-4.363763811659017e-18,-0.4094472920784377,0.17890895149371097,0.9674622339661855,0.178908951493711,300.0,70.71428571428567,[1.32502051]
-1.4047617913738944e-17,0.29153201273902907,3.3929836169001315e-18,0.29153201273902907,-4.987859389025354e-18,0.049339372332848595,3.3929836169001315e-18,0.049339372332848595,-8.90565146787251e-18,0.2956776760492225,-1.0336182176264645e-17,-0.29567767604922235,0.11889547913685332,0.9857625120086664,0.11889547913685344,300.0,70.71428571428567,[1.02647919]
-1.408017574264903e-17,0.294596659684505,2.3809099394680256e-18,0.294596659684505,-5.04863400299085e-18,0.043084829486714396,2.3809099394680256e-18,0.043084829486714396,-9.283322283229522e-18,0.2977305735546273,-9.922886543842098e-18,-0.29773057355462734,0.023345096116554886,0.9994548578973529,0.02334509611655486,300.0,83.57142857142856,[1.08518564]
-1.1781593021596877e-17,0.41194826943668617,2.8464360212746e-19,0.41194826943668617,-6.923964948211871e-19,0.025434456201596248,2.8464360212746e-19,0.025434456201596248,-4.757784064727405e-18,0.41273270800137885,-4.812642488408465e-18,-0.41273270800137885,0.03571924162988509,0.9987233208225248,0.035719241629885094,300.0,83.57142857142856,[1.45686028]
-1.0346878027625702e-17,0.4349556976145397,-1.4320018415620007e-18,0.4349556976145397,-1.3023131564034868e-19,0.01824172467281281,-1.4320018415620007e-18,0.01824172467281281,-2.7565628477207137e-18,0.4353380518704857,-2.6461909510314913e-18,-0.4353380518704856,0.04965811283848622,0.9975310239078483,0.0496581128384862,300.0,83.57142857142856,[1.47416864]
-9.012007042312128e-18,0.444492784361225,-3.046700583476751e-18,0.444492784361225,-7.162722360219177e-20,0.014717171951010265,-3.046700583476751e-18,0.014717171951010265,-1.3240183756768782e-18,0.44473636066711514,-1.1334589069837175e-18,-0.4447363606671151,0.055875102534971716,0.9968730841152315,0.055875102534971716,300.0,83.57142857142856,[1.45880127]
-7.707523363981303e-18,0.4495755253697225,-4.62746796307427e-18,0.4495755253697225,-1.9317645153318387e-19,0.01256809680848635,-4.62746796307427e-18,0.01256809680848635,-1.0201453058493981e-19,0.4497511646108874,1.505009994738441e-19,-0.4497511646108874,0.05950438210172501,0.9964529376851592,0.059504382101725,300.0,83.57142857142856,[1.45880127]
-6.442109080342582e-18,0.45256594123966376,-6.196975760173717e-18,0.45256594123966376,-3.8201185921168945e-19,0.011076712644952498,-6.196975760173717e-18,0.011076712644952498,1.0223158277767371e-18,0.4527014741892957,1.3219218788316222e-18,-0.45270147418929574,0.06195441685113433,0.9961542553567051,0.061954416851134314,300.0,83.57142857142856,[1.44344706]
-5.17669479670386e-18,0.45433635311499054,-7.76159988293665e-18,0.45433635311499054,-6.164282273643171e-19,0.009953431835149185,-7.76159988293665e-18,0.009953431835149185,2.088042094100257e-18,0.45444536807753505,2.4248910657679845e-18,-0.4544453680775352,0.06376191306477136,0.9959261201939837,0.06376191306477134,300.0,83.57142857142856,[1.44344706]
-3.922133122701834e-18,0.4552584329157581,-9.308537643432282e-18,0.4552584329157581,-8.899139902090493e-19,0.009061031783037514,-9.308537643432282e-18,0.009061031783037514,3.1103579218769946e-18,0.4553485950762173,3.478636185828707e-18,-0.4553485950762173,0.06517284251951769,0.9957434414525923,0.06517284251951766,300.0,83.57142857142856,[1.44344706]
-2.671912492554487e-18,0.45547987923150696,-1.0862360028166192e-17,0.45547987923150696,-1.1916165381091904e-18,0.00832829968269026,-1.0862360028166192e-17,0.00832829968269026,4.095774876888966e-18,0.4555560129779355,4.490297940977791e-18,-0.45555601297793547,0.06631183765960526,0.9955930294916758,0.06631183765960524,300.0,83.57142857142856,[1.44344706]
-1.4173508185524614e-18,0.4550091146075687,-1.2412417913932375e-17,0.4550091146075687,-1.5041716956460272e-18,0.007718136617983014,-1.2412417913932375e-17,0.007718136617983014,5.04863400299085e-18,0.4550745697232679,5.467192906139295e-18,-0.45507456972326793,0.0672422173272979,0.9954682156743213,0.06724221732729786,300.0,83.57142857142856,[1.44344706]
-1.7798279804180986e-19,0.45371798389060686,-1.3952081034530907e-17,0.45371798389060686,-1.8557962478749686e-18,0.0072157318823622635,-1.3952081034530907e-17,0.0072157318823622635,5.960253212473291e-18,0.45377535818106635,6.402282219727267e-18,-0.4537753581810664,0.06798743627568359,0.9953669760532142,0.06798743627568353,300.0,83.57142857142856,[1.44344706]
1.050532612832146e-18,0.4512645529591945,-1.5499442725090472e-17,0.4512645529591945,-2.250831238650693e-18,0.00682760681148793,-1.5499442725090472e-17,0.00682760681148793,6.80241572028088e-18,0.45131620065341543,7.270292663181071e-18,-0.4513162006534154,0.06853178154496108,0.9952923137634228,0.06853178154496102,300.0,83.57142857142856,[1.44344706]
2.266024892142067e-18,0.4468334825498291,-1.7033323439616953e-17,0.4468334825498291,-2.7240050188106265e-18,0.006593247150247653,-1.7033323439616953e-17,0.006593247150247653,7.555586829067562e-18,0.4468821231998352,8.056723457012837e-18,-0.4468821231998352,0.06879524916560543,0.9952559607379826,0.06879524916560538,300.0,83.57142857142856,[1.44344706]
3.4663235179606143e-18,0.43820034058119134,-1.8571477369187884e-17,0.43820034058119134,-3.3751615970123703e-18,0.006627066879304591,-1.8571477369187884e-17,0.006627066879304591,8.083023657410975e-18,0.43825044951590736,8.643578700942235e-18,-0.43825044951590736,0.0685364045825899,0.9952916770946006,0.06853640458258986,300.0,83.57142857142856,[1.44344706]
4.558096047412204e-18,0.41680088801181175,-2.0083313720389828e-17,0.41680088801181175,-4.521197174647438e-18,0.007241506710210602,-2.0083313720389828e-17,0.007241506710210602,8.024419565372818e-18,0.41686379030430193,8.720921394464502e-18,-0.4168637903043019,0.06695269639039145,0.9955072440178989,0.06695269639039135,300.0,83.57142857142856,[1.42665253]
4.8836743365130754e-18,0.303763538237415,-2.1586739299123332e-17,0.303763538237415,-9.469987168980688e-18,0.006450732519643479,-2.1586739299123332e-17,0.006450732519643479,5.359018638600348e-18,0.30383202450129154,6.274938210237862e-18,-0.3038320245012915,0.0642346334410494,0.9958653642603442,0.06423463344104931,300.0,83.57142857142856,[1.08419861]
