stress_11,stress_12,stress_13,stress_21,stress_22,stress_23,stress_31,stress_32,stress_33,e1,e2,e3,anev1,anev2,anev3,temp,miss,velo
8.050465828500887e-18,0.2932031354264173,-9.659534779166602e-18,0.2932031354264173,-4.100115920743644e-18,-0.04376985021324111,-9.659534779166602e-18,-0.04376985021324111,-6.804586242208219e-18,0.29645215197662445,-9.45397588423704e-18,-0.2964521519766245,0.13244047155870411,0.98230292832029,0.13244047155870417,500.0,109.28571428571416,[0.95755035]
9.459134559343992e-18,0.4098777718559267,-9.495236443588563e-18,0.4098777718559267,4.254222977584724e-19,-0.027505284047732604,-9.495236443588563e-18,-0.027505284047732604,-2.6556335780994434e-18,0.41079962087631666,-3.873269392421886e-18,-0.4107996208763167,0.18833064086739026,0.9638792141243404,0.18833064086739032,500.0,109.28571428571416,[1.39762546]
1.0016958694670152e-17,0.4334180054549053,-9.745821504379611e-18,0.4334180054549053,1.1590587091991032e-18,-0.019193104714060858,-9.745821504379611e-18,-0.019193104714060858,-1.0136337400673805e-18,0.43384276266992544,-1.8565994043660455e-18,-0.43384276266992544,0.20378712548184094,0.9575706840623812,0.20378712548184097,500.0,109.28571428571416,[1.42793409]
1.042935786086459e-17,0.442979331696409,-1.011509850447074e-17,0.442979331696409,1.3847929896423743e-18,-0.015608339216046591,-1.011509850447074e-17,-0.015608339216046591,6.077461396549605e-20,0.4432542256575569,-6.394107884474339e-19,-0.44325422565755696,0.20989560294052376,0.9549280976767142,0.20989560294052376,500.0,109.28571428571416,[1.43097832]
1.0813540242003618e-17,0.4478501056632205,-1.0535213197828767e-17,0.4478501056632205,1.4282034281891572e-18,-0.013891837888508472,-1.0535213197828767e-17,-0.013891837888508472,9.420065164651888e-19,0.4480655089409119,2.971015478787722e-19,-0.4480655089409118,0.2127373837687915,0.9536695502606863,0.21273738376879142,500.0,109.28571428571416,[1.4294806]
1.1178187925796595e-17,0.4504920273892614,-1.0973031210656652e-17,0.4504920273892614,1.3999866431337483e-18,-0.013118582995256005,-1.0973031210656652e-17,-0.013118582995256005,1.7190533664526027e-18,0.45068299719546834,1.0889277345710591e-18,-0.4506829971954683,0.21401600805718093,0.9530972125604698,0.214016008057181,500.0,109.28571428571416,[1.42885817]
1.1555858741153606e-17,0.45181186222609804,-1.1427831861845711e-17,0.45181186222609804,1.337041507240913e-18,-0.01292738605586508,-1.1427831861845711e-17,-0.01292738605586508,2.4472634730748856e-18,0.45199676565043256,1.803207816947226e-18,-0.45199676565043245,0.21435822289228917,0.9529433900064156,0.21435822289228917,500.0,109.28571428571416,[1.42885817]
1.1872754942545121e-17,0.45218705038941764,-1.1894366897204447e-17,0.45218705038941764,1.2350269766559733e-18,-0.013169028657859901,-1.1894366897204447e-17,-0.013169028657859901,3.129892619223047e-18,0.4523787703414841,2.4439588647069677e-18,-0.4523787703414841,0.21401439139590495,0.9530979385933435,0.214014391395905,500.0,109.28571428571416,[1.42885817]
1.218096905622728e-17,0.45175252202016275,-1.236728631932602e-17,0.45175252202016275,1.1069661829429638e-18,-0.013798821094675739,-1.236728631932602e-17,-0.013798821094675739,3.786475502243138e-18,0.4519632159979177,3.039293883885073e-18,-0.45196321599791783,0.21305660040211022,0.9535270158994924,0.2130566004021103,500.0,109.28571428571416,[1.4294806]
1.2526082042674205e-17,0.4504845819452587,-1.2851287273318815e-17,0.4504845819452587,9.485180822472062e-19,-0.014846385264374899,-1.2851287273318815e-17,-0.014846385264374899,4.408330034425803e-18,0.45072915783851036,3.5711876896079516e-18,-0.45072915783851025,0.21143175406327772,0.9542500860610134,0.21143175406327774,500.0,109.28571428571416,[1.43097832]
1.2827784590574346e-17,0.4481933539669556,-1.334298679727264e-17,0.4481933539669556,7.727058061327355e-19,-0.016425125597423627,-1.334298679727264e-17,-0.016425125597423627,4.991115171916363e-18,0.4484942221378554,4.0164356648306666e-18,-0.4484942221378555,0.20894285754724148,0.9553458873936634,0.20894285754724154,500.0,109.28571428571416,[1.43097832]
1.3127316616547148e-17,0.4444179061399298,-1.3862229057480219e-17,0.4444179061399298,5.361189160527687e-19,-0.018788756524097942,-1.3862229057480219e-17,-0.018788756524097942,5.518552000259775e-18,0.44481489708587935,4.361798035176465e-18,-0.4448148970858794,0.20514238112350755,0.9569917486237564,0.2051423811235076,500.0,109.28571428571416,[1.43369539]
1.3385608725900506e-17,0.43809169352011706,-1.4411720847399766e-17,0.43809169352011706,2.344163681526276e-19,-0.022498587117880647,-1.4411720847399766e-17,-0.022498587117880647,5.961338473436961e-18,0.43866903053854267,4.497684558334463e-18,-0.4386690305385428,0.19900403865359154,0.9595805256460344,0.19900403865359156,500.0,109.28571428571416,[1.41903257]
1.3607001962489099e-17,0.4263675227704179,-1.5025004573514857e-17,0.4263675227704179,-2.430984558619842e-19,-0.028962680554362318,-1.5025004573514857e-17,-0.028962680554362318,6.2152895389356414e-18,0.42735009224086634,4.208529690223994e-18,-0.4273500922408662,0.18777230022003635,0.9640970524486385,0.1877723002200363,500.0,109.28571428571416,[1.42766243]
1.3635218747544508e-17,0.39869180394212994,-1.5820987319633017e-17,0.39869180394212994,-1.2285154108739559e-18,-0.04262596403658724,-1.5820987319633017e-17,-0.04262596403658724,5.961338473436961e-18,0.4009639975617238,2.6441634611504623e-18,-0.4009639975617238,0.1612658918945596,0.9736460466837549,0.1612658918945596,500.0,109.28571428571416,[1.39068345]
1.256298091543897e-17,0.2703017437873713,-1.7329341085359747e-17,0.2703017437873713,-6.006919433911083e-18,-0.07374209502988381,-1.7329341085359747e-17,-0.07374209502988381,3.429424645195849e-18,0.28018017287790037,-4.815485976984409e-18,-0.28018017287790037,0.04964501364281754,0.9975323279176516,0.04964501364281756,500.0,109.28571428571416,[0.96313736]
7.707523363981303e-18,0.2961862277096649,-8.55370472879498e-18,0.2961862277096649,-4.1500379250724445e-18,-0.03743423857880631,-8.55370472879498e-18,-0.03743423857880631,-7.51000586859344e-18,0.29854246549336405,-9.324749085735167e-18,-0.2985424654933641,0.009560628433634496,0.9999085902060788,0.00956062843363451,500.0,96.42857142857144,[0.95683058]
8.208913929196645e-18,0.41343680844470826,-6.718714968457864e-18,0.41343680844470826,2.9519098211812367e-19,-0.019742414550620858,-6.718714968457864e-18,-0.019742414550620858,-4.4951509115193685e-18,0.41390790945479045,-5.110311271982547e-18,-0.41390790945479045,0.045565502423684755,0.9979216251679058,0.04556550242368477,500.0,96.42857142857144,[1.42459787]
7.829072591912295e-18,0.4363445989504151,-5.2729099640141904e-18,0.4363445989504151,9.44177038392528e-19,-0.012505284834248873,-5.2729099640141904e-18,-0.012505284834248873,-4.0056982169043914e-18,0.4365237578666073,-4.299513013481927e-18,-0.43652375786660735,0.05900892362678962,0.9965118633838813,0.05900892362678964,500.0,96.42857142857144,[1.44860652]
7.340705158260987e-18,0.4457818248072213,-3.917147705149977e-18,0.4457818248072213,1.0896020075242506e-18,-0.008938284176975378,-3.917147705149977e-18,-0.008938284176975378,-4.093604354961627e-18,0.4458714256963375,-4.245986250050682e-18,-0.44587142569633753,0.06506885054942702,0.9957570433475994,0.06506885054942703,500.0,96.42857142857144,[1.43396022]
6.832803027263628e-18,0.4507641278844491,-2.6001835257369512e-18,0.4507641278844491,1.0527031347594851e-18,-0.006750002394049325,-2.6001835257369512e-18,-0.006750002394049325,-4.3887953370797504e-18,0.4508146642687521,-4.464535247732622e-18,-0.45081466426875205,0.06864109848154647,0.9952772474032013,0.06864109848154648,500.0,96.42857142857144,[1.43396022]
6.2988546331381985e-18,0.453653466809328,-1.298904758689462e-18,0.453653466809328,9.420065164651888e-19,-0.005223105693549803,-1.298904758689462e-18,-0.005223105693549803,-4.7794892840007965e-18,0.4536835337338223,-4.8079142012806585e-18,-0.45368353373382214,0.07107609815218324,0.9949353629974776,0.07107609815218321,500.0,96.42857142857144,[1.43396022]
5.7562241513034115e-18,0.45532217859737395,-5.256732792774491e-22,0.45532217859737395,7.8572893769677045e-19,-0.00406823213962697,-5.256732792774491e-22,-0.00406823213962697,-5.2309578448873385e-18,0.4553403527422107,-5.230010902128341e-18,-0.4553403527422108,0.07288976845851276,0.9946728926175322,0.07288976845851276,500.0,96.42857142857144,[1.43396022]
5.211423147541286e-18,0.45614197925557354,1.2880521490527663e-18,0.45614197925557354,6.034050958002822e-19,-0.003148299066099653,1.2880521490527663e-18,-0.003148299066099653,-5.7258368443206635e-18,0.4561528439308491,-5.707547589780949e-18,-0.4561528439308492,0.07431929539284096,0.9944613037542605,0.07431929539284096,500.0,96.42857142857144,[1.42545307]
4.6449169245057695e-18,0.45626062417847635,2.5738320329628494e-18,0.45626062417847635,3.9503499077572437e-19,-0.0023921916765542836,2.5738320329628494e-18,-0.0023921916765542836,-6.257614716518755e-18,0.4562668953110123,-6.2303179084268425e-18,-0.4562668953110123,0.07548572650889082,0.9942855777827869,0.07548572650889082,500.0,96.42857142857144,[1.42545307]
4.08492226725227e-18,0.455686599491706,3.850217626656168e-18,0.455686599491706,1.5410705684107927e-19,-0.001762883688673719,3.850217626656168e-18,-0.001762883688673719,-6.8241209395542715e-18,0.4556900094529331,-6.7941662532089224e-18,-0.45569000945293303,0.07645193287078554,0.994137919969177,0.07645193287078553,500.0,96.42857142857144,[1.42545307]
3.516245522289414e-18,0.4542918177434669,5.133589587803109e-18,0.4542918177434669,-1.1503766214897466e-19,-0.0012456188210383638,5.133589587803109e-18,-0.0012456188210383638,-7.431867079209231e-18,0.45429352541601403,-7.403633241102724e-18,-0.4542935254160139,0.0772439307856308,0.994015467844223,0.07724393078563078,500.0,96.42857142857144,[1.42545307]
2.9453982553992192e-18,0.4517344152882628,6.411433500916359e-18,0.4517344152882628,-4.297633416131507e-19,-0.000846958067133023,6.411433500916359e-18,-0.000846958067133023,-8.100387832829688e-18,0.4517352092695411,-8.076307392788023e-18,-0.4517352092695412,0.07785328314441599,0.9939203854470796,0.07785328314441597,500.0,96.42857142857144,[1.42545307]
2.3485047253809545e-18,0.4471991253493618,7.678848734456846e-18,0.4471991253493618,-8.161162446795185e-19,-0.0006064138564982587,7.678848734456846e-18,-0.0006064138564982587,-8.870923117035084e-18,0.44719953650579686,-8.850077328447869e-18,-0.4471995365057968,0.07821794195248563,0.9938631229266107,0.07821794195248559,500.0,96.42857142857144,[1.42537885]
1.7320764980166376e-18,0.43846158985868483,8.951707230018238e-18,0.43846158985868483,-1.3674288142236611e-18,-0.0006384148862482525,8.951707230018238e-18,-0.0006384148862482525,-9.847657984337699e-18,0.4384620546352587,-9.821565710916877e-18,-0.43846205463525856,0.07814765983567262,0.9938741804295032,0.07814765983567257,500.0,96.42857142857144,[1.42545307]
1.0158042619947197e-18,0.41695764497687354,1.0197010271423957e-17,0.41695764497687354,-2.4374961244018594e-18,-0.0012554052197338676,1.0197010271423957e-17,-0.0012554052197338676,-1.1425627425513257e-17,0.4169595349034801,-1.1364111227128562e-17,-0.41695953490348003,0.07705487126905541,0.994044814697717,0.07705487126905536,500.0,96.42857142857144,[1.39795317]
-4.688327363052552e-19,0.30381578022993583,1.1433597310715206e-17,0.30381578022993583,-7.305976807423561e-18,-0.0004715431109468603,1.1433597310715206e-17,-0.0004715431109468603,-1.5610393701423128e-17,0.3038161461634818,-1.5574865724123666e-17,-0.30381614616348174,0.07808016832886183,0.993884789413478,0.07808016832886178,500.0,96.42857142857144,[0.94608578]
1.1525471434170858e-17,0.2648885451604331,-1.685402009942599e-17,0.2648885451604331,-5.986299475601361e-18,-0.07812051045406927,-1.685402009942599e-17,-0.07812051045406927,3.0799706148942462e-18,0.2761679842248468,-5.6769183291987045e-18,-0.2761679842248465,0.1914752628271014,0.9626393132687783,0.19147526282710137,500.0,122.14285714285735,[0.91981103]
1.1043615566301568e-17,0.39213452379807695,-1.3999514569384418e-17,0.39213452379807695,-1.1709965797994685e-18,-0.048051860290458485,-1.3999514569384418e-17,-0.048051860290458485,4.424608948880846e-18,0.3950676727242033,1.2399625739918018e-18,-0.3950676727242034,0.3005878787948989,0.9051485260680515,0.3005878787948991,500.0,122.14285714285735,[1.3904253]
9.402700989233174e-18,0.4208479303981688,-1.1873831724907512e-17,0.4208479303981688,-1.334870985313574e-19,-0.03369450567567406,-1.1873831724907512e-17,-0.03369450567567406,3.519501305180423e-18,0.4221946236431133,1.6494218292448578e-18,-0.42219462364311305,0.32722050114780465,0.8864837772103666,0.3272205011478047,500.0,122.14285714285735,[1.41639291]
7.564268916776919e-18,0.432695205378729,-9.950545810854342e-18,0.432695205378729,3.7441503246600245e-19,-0.027265076944701934,-9.950545810854342e-18,-0.027265076944701934,2.1227704449376834e-18,0.43355337062297294,8.970690707823032e-19,-0.4335533706229731,0.3378065734138888,0.8785063676017003,0.3378065734138889,500.0,122.14285714285735,[1.4221565]
5.654209620718472e-18,0.438720706076869,-8.106899398611705e-18,0.438720706076869,7.20613279876596e-19,-0.02392741607991479,-8.106899398611705e-18,-0.02392741607991479,5.610799182171689e-19,0.43937271101064945,-2.920822642383404e-19,-0.43937271101064934,0.34303981154736873,0.8744411789177655,0.3430398115473688,500.0,122.14285714285735,[1.42412089]
3.7311271930959896e-18,0.441951230094645,-6.299804236481409e-18,0.441951230094645,9.984400865760065e-19,-0.022130169714049894,-6.299804236481409e-18,-0.022130169714049894,-1.0906872684879202e-18,0.4425049538635047,-1.700284323271457e-18,-0.44250495386350475,0.34578985014485014,0.8722721817607186,0.34578985014485014,500.0,122.14285714285735,[1.4201191]
1.7668048488540637e-18,0.44351537220335596,-4.5148212664858795e-18,0.44351537220335596,1.215492279309921e-18,-0.02126243190134626,-4.5148212664858795e-18,-0.02126243190134626,-2.79129119855814e-18,0.44402474749842585,-3.2202812338606867e-18,-0.44402474749842574,0.34710158407423686,0.8712295797700575,0.3471015840742369,500.0,122.14285714285735,[1.4201191]
-1.9534697346052304e-19,0.44388443738357264,-2.7435481947579575e-18,0.44388443738357264,1.4021571650610874e-18,-0.021062083456937327,-2.7435481947579575e-18,-0.021062083456937327,-4.519026652720099e-18,0.44438384884115445,-4.7456753583223045e-18,-0.44438384884115445,0.3474034682915519,0.8709888979992809,0.3474034682915519,500.0,122.14285714285735,[1.42135862]
-2.1878861027578578e-18,0.44322526836584003,-9.87324640299672e-19,0.44322526836584003,1.581225224066567e-18,-0.021433947148042733,-9.87324640299672e-19,-0.021433947148042733,-6.277149413864807e-18,0.44374322823939083,-6.356042985522103e-18,-0.4437432282393908,0.34684442485470646,0.871434386453975,0.3468444248547064,500.0,122.14285714285735,[1.4201191]
-4.171743144345836e-18,0.4415036565646548,7.479991620066954e-19,0.4415036565646548,1.7212238883799419e-18,-0.02239442960288143,7.479991620066954e-19,-0.02239442960288143,-8.060233177173914e-18,0.4420712490506469,-7.967916344647515e-18,-0.44207124905064715,0.3453903062902524,0.8725887190661195,0.3453903062902524,500.0,122.14285714285735,[1.42206726]
-6.203351668335276e-18,0.43847342141554435,2.474649355204985e-18,0.43847342141554435,1.831920506674238e-18,-0.02407678202160161,2.474649355204985e-18,-0.02407678202160161,-9.878045291320447e-18,0.4391339576033369,-9.610633466678879e-18,-0.4391339576033369,0.34281082341273467,0.8746207627893164,0.34281082341273456,500.0,122.14285714285735,[1.42412089]
-8.241471758106732e-18,0.4335426616803671,4.1746936975908126e-18,0.4335426616803671,1.9089740350947777e-18,-0.02680107241491703,4.1746936975908126e-18,-0.02680107241491703,-1.1734926800159085e-17,0.4343702763535816,-1.1191564108128601e-17,-0.4343702763535818,0.3385448162305398,0.877937819442163,0.33854481623053984,500.0,122.14285714285735,[1.4221565]
-1.0323002286424972e-17,0.4253519244102523,5.829326651528092e-18,0.4253519244102523,1.8970361644944124e-18,-0.03128926984189915,5.829326651528092e-18,-0.03128926984189915,-1.3667776576454595e-17,0.4265012051644684,-1.2825958293918384e-17,-0.42650120516446843,0.3312657181710335,0.8834738524309923,0.33126571817103345,500.0,122.14285714285735,[1.42306641]
-1.251305891111017e-17,0.4103173224373768,7.399292293096587e-18,0.4103173224373768,1.70060393007022e-18,-0.03936093783665594,7.399292293096587e-18,-0.03936093783665594,-1.5748221843809164e-17,0.4122009079557677,-1.4235357565333542e-17,-0.41220090795576764,0.317312385834607,0.8936586034901128,0.3173123858346071,500.0,122.14285714285735,[1.39195684]
-1.494838451358469e-17,0.37556589703421744,8.735028095740585e-18,0.37556589703421744,1.0288273935587545e-18,-0.056732930657464195,8.735028095740585e-18,-0.056732930657464195,-1.824106627735817e-17,0.3798267610847098,-1.5503415777802432e-17,-0.3798267610847097,0.28255462930689135,0.9166928400039407,0.28255462930689135,500.0,122.14285714285735,[1.38989066]
-1.8885711289777897e-17,0.23132706931630084,9.173405696252863e-18,0.23132706931630084,-3.4608972131422665e-18,-0.09509213500567609,9.173405696252863e-18,-0.09509213500567609,-2.2647225789856635e-17,0.25010943032681976,-1.4348070772862952e-17,-0.2501094303268201,0.12031560303032189,0.9854178359127158,0.12031560303032193,500.0,122.14285714285735,[0.94018496]
-1.9914538683336652e-17,0.22455923767157024,9.610596292586127e-18,0.22455923767157024,-3.4478740815782316e-18,-0.09667701824104746,9.610596292586127e-18,-0.09667701824104746,-2.296520725221182e-17,0.2444857809354497,-1.433064018175802e-17,-0.24448578093544954,0.2615330407789403,0.9290860762931722,0.2615330407789402,500.0,135.00000000000023,[0.90926655]
-1.7516111953626897e-17,0.3673314156301844,1.0191872239049084e-17,0.3673314156301844,1.080919919814894e-18,-0.05874028019646493,1.0191872239049084e-17,-0.05874028019646493,-1.9801671543115016e-17,0.37199837288143367,-1.6501078766606178e-17,-0.3719983728814338,0.414774845711593,0.8098911375795196,0.41477484571159284,500.0,135.00000000000023,[1.3631022]
-1.6602322222217117e-17,0.4033374480699012,9.872245928045838e-18,0.4033374480699012,1.791765851018464e-18,-0.04116876164897452,9.872245928045838e-18,-0.04116876164897452,-1.8515637301166573e-17,0.4054330572995377,-1.648547406391965e-17,-0.40543305729953794,0.4466442485391054,0.7752533976022781,0.44664424853910534,500.0,135.00000000000023,[1.39119755]
-1.5977211907143444e-17,0.41848640460077957,9.303433525462523e-18,0.41848640460077957,2.0142443485707262e-18,-0.033157531459963745,9.303433525462523e-18,-0.033157531459963745,-1.761052965746615e-17,0.4197979189183838,-1.6197913349586114e-17,-0.4197979189183838,0.4589456685893341,0.7607481492361173,0.4589456685893341,500.0,135.00000000000023,[1.38688689]
-1.5473650820000762e-17,0.4262631414423113,8.647020214468005e-18,0.4262631414423113,2.0739337015725527e-18,-0.028850130442675634,8.647020214468005e-18,-0.028850130442675634,-1.6844335417115432e-17,0.42723833603602024,-1.566893727336608e-17,-0.4272383360360204,0.4650952144029178,0.753241583477046,0.4650952144029178,500.0,135.00000000000023,[1.41888907]
-1.502218225911422e-17,0.43047550637075616,7.946687748849985e-18,0.43047550637075616,2.0413758726624655e-18,-0.026375812073461614,7.946687748849985e-18,-0.026375812073461614,-1.6146512617475897e-17,0.43128279011304577,-1.5174028591299546e-17,-0.43128279011304593,0.4684857633565385,0.7490274888577071,0.4684857633565385,500.0,135.00000000000023,[1.39378974]
-1.4596759961355748e-17,0.43256034346190514,7.221784296726382e-18,0.43256034346190514,1.966492866169265e-18,-0.024994847297676814,7.221784296726382e-18,-0.024994847297676814,-1.547907712481911e-17,0.4332818864518982,-1.4645137787395144e-17,-0.43328188645189813,0.47032371870163214,0.7467202951931442,0.4703237187016321,500.0,135.00000000000023,[1.39532991]
-1.4203895492507362e-17,0.4331225096470274,6.48033061490682e-18,0.4331225096470274,1.8666488575116644e-18,-0.024384106299006666,6.48033061490682e-18,-0.024384106299006666,-1.484202893914507e-17,0.43380835976608434,-1.411388568861795e-17,-0.43380835976608445,0.4711048025543119,0.7457348925861825,0.47110480255431186,500.0,135.00000000000023,[1.39532991]
-1.3802348935949622e-17,0.4323794834739573,5.718680904841467e-18,0.4323794834739573,1.7320764980166376e-18,-0.024416782736823735,5.718680904841467e-18,-0.024416782736823735,-1.4220174406962406e-17,0.43306835142783595,-1.3573633959918346e-17,-0.43306835142783595,0.47101421679981176,0.7458493246929435,0.4710142167998116,500.0,135.00000000000023,[1.39532991]
-1.3461576993357376e-17,0.4302932858033005,4.947382546520991e-18,0.4302932858033005,1.5844810069575758e-18,-0.025092842230861126,4.947382546520991e-18,-0.025092842230861126,-1.3624366137907812e-17,0.43102431780425554,-1.3023028291748828e-17,-0.4310243178042554,0.4700435994384637,0.7470729745171257,0.47004359943846363,500.0,135.00000000000023,[1.39623982]
-1.3117549267874122e-17,0.4265583581634747,4.151937131758866e-18,0.4265583581634747,1.3934750773517308e-18,-0.026539023512457335,4.151937131758866e-18,-0.026539023512457335,-1.304483678330826e-17,0.42738314506788166,-1.2525149197073192e-17,-0.4273831450678818,0.46798679272609556,0.7496510679428695,0.46798679272609556,500.0,135.00000000000023,[1.39378974]
-1.2827784590574346e-17,0.4204359680745662,3.332090302516734e-18,0.4204359680745662,1.1558029263080945e-18,-0.02907839290865608,3.332090302516734e-18,-0.02907839290865608,-1.2498950518582466e-17,0.42144033526105174,-1.2012386561512673e-17,-0.42144033526105185,0.4643095859862273,0.7542103265817807,0.4643095859862273,500.0,135.00000000000023,[1.38688689]
-1.2603135571094745e-17,0.4102330087563047,2.4701556965272906e-18,0.4102330087563047,8.541003784079535e-19,-0.03345062610985269,2.4701556965272906e-18,-0.03345062610985269,-1.2009497823967487e-17,0.4115945406105278,-1.1561350063244206e-17,-0.41159454061052786,0.45771061745323854,0.7622348596995221,0.4577106174532386,500.0,135.00000000000023,[1.39427611]
-1.2494609474727788e-17,0.3915232643760282,1.5131590130014159e-18,0.3915232643760282,3.75500293429672e-19,-0.04152644386131515,1.5131590130014159e-18,-0.04152644386131515,-1.161988913801011e-17,0.3937193316150835,-1.126692438841991e-17,-0.3937193316150839,0.44447502625663027,0.7777428251474489,0.44447502625663027,500.0,135.00000000000023,[1.39119755]
-1.2782203630100224e-17,0.3487921800631498,3.1306387361355694e-19,0.3487921800631498,-6.110019225459692e-19,-0.0591623802775189,3.1306387361355694e-19,-0.0591623802775189,-1.1540665087662232e-17,0.3537741823724656,-1.1321193809742144e-17,-0.35377418237246566,0.40934275904947215,0.8153999087733155,0.40934275904947215,500.0,135.00000000000023,[0.90905825]
-1.494838451358469e-17,0.18713541353985913,-1.7902397027883035e-18,0.18713541353985913,-5.402429077147131e-18,-0.09716387109856074,-1.7902397027883035e-18,-0.09716387109856074,-1.2961271689105704e-17,0.21085654091725922,-1.9525212479139574e-17,-0.21085654091725925,0.2133477625353925,0.9533968032473591,0.21334776253539245,500.0,135.00000000000023,[0.89153555]
-1.4759549105906183e-17,0.18036203054570343,-2.5456491623125552e-18,0.18036203054570343,-5.476769453158497e-18,-0.0956380836285678,-2.5456491623125552e-18,-0.0956380836285678,-1.2019265172640513e-17,0.2041497124727689,-1.3672428454973694e-17,-0.2041497124727688,0.35272041805359894,0.866704455611132,0.35272041805359877,500.0,147.8571428571427,[0.81079785]
-1.1587331309100024e-17,0.3405383854814871,-2.0911283049656925e-18,0.3405383854814871,-8.334804200982316e-19,-0.057343881745848126,-2.0911283049656925e-18,-0.057343881745848126,-9.322934308403461e-18,0.3453327565696882,-1.0487768806582418e-17,-0.34533275656968854,0.5279420400173541,0.6652476266508798,0.5279420400173543,500.0,147.8571428571427,[0.71962547]
-1.0325172808352311e-17,0.38451047789490456,-2.533813034927534e-18,0.38451047789490456,1.139524011853051e-20,-0.04003602756571702,-2.533813034927534e-18,-0.04003602756571702,-8.092791006084e-18,0.3865891761472516,-8.732078955097866e-18,-0.3865891761472515,0.556544606151231,0.6168599539019715,0.556544606151231,500.0,147.8571428571427,[1.30291927]
-9.485180822472062e-18,0.4033208189290578,-3.2124402812721638e-18,0.4033208189290578,3.440277254832544e-19,-0.03202809947871621,-3.2124402812721638e-18,-0.03202809947871621,-7.140474510463951e-18,0.40459051167547727,-7.676252589248338e-18,-0.4045905116754771,0.5670645633813727,0.5973906275747775,0.5670645633813727,500.0,147.8571428571427,[1.29723451]
-8.775420152232162e-18,0.41309573031307634,-3.979380638535404e-18,0.41309573031307634,5.051889785881859e-19,-0.027603305193273683,-3.979380638535404e-18,-0.027603305193273683,-6.274978891937468e-18,0.4140169378908151,-6.834958169568591e-18,-0.41401693789081495,0.5723100225955629,0.5873010097669958,0.5723100225955626,500.0,147.8571428571427,[1.30068005]
-8.164418229686192e-18,0.4184853031505403,-4.789426204699396e-18,0.4184853031505403,5.86040920381569e-19,-0.02494205241158573,-4.789426204699396e-18,-0.02494205241158573,-5.4621184301489574e-18,0.41922792718460666,-6.052250185259873e-18,-0.4192279271846067,0.5752815328131003,0.5814656619340642,0.5752815328131002,500.0,147.8571428571427,[1.27360535]
-7.581633092195632e-18,0.42125996323755305,-5.626738952575586e-18,0.42125996323755305,6.283660979646824e-19,-0.023322321889402822,-5.626738952575586e-18,-0.023322321889402822,-4.6677074047428305e-18,0.42190506909163517,-5.297159680253702e-18,-0.4219050690916351,0.5770129524791789,0.5780243120687236,0.5770129524791789,500.0,147.8571428571427,[1.27360535]
-7.037917349397176e-18,0.4221713325785304,-6.4794149259687235e-18,0.4221713325785304,6.310792503738563e-19,-0.02242399038124618,-6.4794149259687235e-18,-0.02242399038124618,-3.893373707164591e-18,0.4227664478122057,-4.572440924471035e-18,-0.4227664478122056,0.5779273766343349,0.5761943202367681,0.5779273766343349,500.0,147.8571428571427,[1.28127686]
-6.500713172380739e-18,0.4214962052436307,-7.342265220896262e-18,0.4214962052436307,6.142577054369779e-19,-0.02211375182117553,-7.342265220896262e-18,-0.02211375182117553,-3.13477629355956e-18,0.42207590437549186,-3.9099962736453976e-18,-0.422075904375492,0.578191740366889,0.5756636368080026,0.578191740366889,500.0,147.8571428571427,[1.27360535]
-6.0123457387294306e-18,0.41920031325540347,-8.226888563907422e-18,0.41920031325540347,5.849556594178995e-19,-0.02237514754414964,-8.226888563907422e-18,-0.02237514754414964,-2.3870314895912243e-18,0.4197970341260773,-3.289206372767196e-18,-0.4197970341260774,0.5778217505363363,0.5764061495284795,0.5778217505363363,500.0,147.8571428571427,[1.27360535]
-5.552195090133532e-18,0.4149274054277989,-9.119583535335875e-18,0.4149274054277989,5.068168700336903e-19,-0.023303307305903232,-9.119583535335875e-18,-0.023303307305903232,-1.6609919048962806e-18,0.41558127473027273,-2.6946964514522613e-18,-0.4155812747302728,0.5766871620226508,0.5786742039494435,0.5766871620226507,500.0,147.8571428571427,[1.28482568]
-5.1321990971934075e-18,0.40780514220583775,-1.0037239508928728e-17,0.40780514220583775,3.8635290306636774e-19,-0.025160309581181612,-1.0037239508928728e-17,-0.025160309581181612,-9.51773865138215e-19,0.4085805614413693,-2.208255187435793e-18,-0.4085805614413692,0.5744216058939224,0.5831634739629145,0.5744216058939224,500.0,147.8571428571427,[1.2828147]
-4.799023981346849e-18,0.395832112133331,-1.0995694511874533e-17,0.395832112133331,1.9371908201501868e-19,-0.02855703109950222,-1.0995694511874533e-17,-0.02855703109950222,-2.6534630561721043e-19,0.3968608887521569,-1.9083508121743376e-18,-0.39686088875215697,0.5701017778353076,0.591580870057546,0.5701017778353076,500.0,147.8571428571427,[1.29723451]
-4.650343229324117e-18,0.3738009867425601,-1.2024691477458861e-17,0.3738009867425601,-1.7038597129612285e-19,-0.035044821950980784,-1.2024691477458861e-17,-0.035044821950980784,3.3426037681022827e-19,0.3754401646538202,-1.9035222998194364e-18,-0.3754401646538202,0.5609943092556391,0.6087452422529285,0.5609943092556393,500.0,147.8571428571427,[1.28728656]
-4.968324691679302e-18,0.3237566123565261,-1.3253410374763507e-17,0.3237566123565261,-1.038052111749946e-18,-0.04945992463790876,-1.3253410374763507e-17,-0.04945992463790876,7.428611296318222e-19,0.32751279087962587,-3.532201665221509e-18,-0.3275127908796258,0.5350447359850662,0.6537998630998186,0.5350447359850664,500.0,147.8571428571427,[0.71962547]
-7.554501568103893e-18,0.14655174159430764,-1.522214159167034e-17,0.14655174159430764,-5.714984234683968e-18,-0.07958616086967873,-1.522214159167034e-17,-0.07958616086967873,1.682154493687837e-20,0.16676741278289084,-1.520094507354884e-17,-0.16676741278289084,0.3466115745694826,0.8716196606025635,0.3466115745694828,500.0,147.8571428571427,[0.36802859]
-7.48395960546537e-18,0.14111151375697775,-1.4396631056774055e-17,0.14111151375697775,-5.6905658630014024e-18,-0.07526009020991221,-1.4396631056774055e-17,-0.07526009020991221,-2.821678505540888e-20,0.1599266722382161,-1.4222385075702404e-17,-0.15992667223821624,0.4790014102924891,0.7356053954910968,0.47900141029248927,500.0,160.7142857142859,[0.38728827]
-4.272672413967106e-18,0.3171109655338695,-1.1176695691971549e-17,0.3171109655338695,-9.886727379029804e-19,-0.044200109243671425,-1.1176695691971549e-17,-0.044200109243671425,1.1666555359447902e-19,0.32017653586572437,-2.973608699231292e-18,-0.32017653586572437,0.6287955865510194,0.4574190864709507,0.6287955865510191,500.0,160.7142857142859,[0.71762593]
-3.3523711167753092e-18,0.3681324507123468,-8.667165371106122e-18,0.3681324507123468,-6.837144071118306e-20,-0.03059156572708325,-8.667165371106122e-18,-0.03059156572708325,-8.421625078075882e-19,0.3694013334587639,-2.3118054542473443e-18,-0.3694013334587639,0.6457931427552964,0.4073112244224,0.6457931427552964,500.0,160.7142857142859,[0.85768266]
-2.9291193409441757e-18,0.3902260503156571,-6.340840666670165e-18,0.3902260503156571,3.2720618054637605e-19,-0.024181146938142474,-6.340840666670165e-18,-0.024181146938142474,-1.9708339100239433e-18,0.39097454931517195,-2.7660086546894434e-18,-0.39097454931517195,0.6517043211019838,0.38802442669760473,0.6517043211019838,500.0,160.7142857142859,[0.87189915]
-2.702299799537235e-18,0.4018374055190165,-4.081598655551032e-18,0.4018374055190165,5.551109829169862e-19,-0.020523969542208694,-4.081598655551032e-18,-0.020523969542208694,-3.165706231024143e-18,0.4023611981789794,-3.596068181254952e-18,-0.4023611981789795,0.6546447194493993,0.37799547959470936,0.6546447194493993,500.0,160.7142857142859,[0.87276316]
-2.5514485255871645e-18,0.40835329386611013,-1.853354410706712e-18,0.40835329386611013,7.173574969855873e-19,-0.01821194670401192,-1.853354410706712e-18,-0.01821194670401192,-4.382283771297733e-18,0.4087592049288329,-4.542433041917223e-18,-0.4087592049288327,0.6563582213691419,0.372005067817999,0.6563582213691419,500.0,160.7142857142859,[0.87276316]
-2.4548602998205726e-18,0.4118370562533289,3.5528730798132623e-19,0.4118370562533289,8.345656810619012e-19,-0.0166837291687989,3.5528730798132623e-19,-0.0166837291687989,-5.620566530844715e-18,0.412174850909642,-5.5882256753981724e-18,-0.4121748509096419,0.657426144782639,0.36821424240851064,0.657426144782639,500.0,160.7142857142859,[0.87477414]
-2.413620383201129e-18,0.4131712991481877,2.5570783168362004e-18,0.4131712991481877,9.127044704461103e-19,-0.01568555673766122,2.5570783168362004e-18,-0.01568555673766122,-6.8697019000283935e-18,0.4134689336939012,-6.666196126394613e-18,-0.41346893369390136,0.6580860751291606,0.3658489243419932,0.6580860751291607,500.0,160.7142857142859,[0.87477414]
-2.377806771400033e-18,0.41268914207413426,4.740216402878004e-18,0.41268914207413426,9.664248881477541e-19,-0.015103975544354028,4.740216402878004e-18,-0.015103975544354028,-8.127790672162344e-18,0.41296544415135933,-7.770263206138367e-18,-0.4129654441513594,0.6584380636759491,0.3645800770822972,0.6584380636759493,500.0,160.7142857142859,[0.87477414]
-2.3919151639277374e-18,0.4103668562698486,6.923964948211872e-18,0.4103668562698486,9.851456397710543e-19,-0.014909308621044557,6.923964948211872e-18,-0.014909308621044557,-9.390220488150974e-18,0.410637606909494,-8.8781425349281e-18,-0.4106376069094939,0.6585068470217392,0.36433153150801506,0.6585068470217392,500.0,160.7142857142859,[0.87361037]
-2.444007690183877e-18,0.4058163071446443,9.08892491311221e-18,0.4058163071446443,9.930137817576587e-19,-0.01514617868307511,9.08892491311221e-18,-0.01514617868307511,-1.0664045544258135e-17,0.40609885726657247,-9.973393559970686e-18,-0.40609885726657247,0.6582515453762076,0.36525307119813494,0.6582515453762074,500.0,160.7142857142859,[0.87276316]
-2.5519911560689993e-18,0.39807132030965336,1.1244948432264831e-17,0.39807132030965336,9.466188755607844e-19,-0.015963709810224505,1.1244948432264831e-17,-0.015963709810224505,-1.1950079786206578e-17,0.3983912851506365,-1.103614658117419e-17,-0.39839128515063643,0.6575321144945935,0.36783561113157326,0.6575321144945933,500.0,160.7142857142859,[0.87276316]
-2.7343149979654874e-18,0.384908678889152,1.3371296846942114e-17,0.384908678889152,8.231704409433707e-19,-0.017722927652686543,1.3371296846942114e-17,-0.017722927652686543,-1.3251307681646397e-17,0.38531648452768624,-1.1996476374994398e-17,-0.3853164845276863,0.655977952973327,0.37334414475902417,0.6559779529733271,500.0,160.7142857142859,[0.87490375]
-3.154853621387447e-18,0.3605559535961189,1.5459372855447484e-17,0.3605559535961189,5.1929737111589035e-19,-0.02134848603894831,1.5459372855447484e-17,-0.02134848603894831,-1.46038141576196e-17,0.3611874216106671,-1.2723611773994322e-17,-0.361187421610667,0.6524555758084162,0.3854911713554759,0.652455575808416,500.0,160.7142857142859,[0.85758761]
-4.113139052307679e-18,0.30530186606707016,1.7416335773779526e-17,0.30530186606707016,-2.930204601907845e-19,-0.029698397082214126,1.7416335773779526e-17,-0.029698397082214126,-1.607217224146453e-17,0.3067429285465079,-1.258188792095677e-17,-0.30674292854650786,0.6416795231224975,0.42011281724147465,0.6416795231224975,500.0,160.7142857142859,[0.71762593]
-7.589229918941319e-18,0.11748756630478988,1.8966529317166166e-17,0.11748756630478988,-4.8836743365130754e-18,-0.04599312967888565,1.8966529317166166e-17,-0.04599312967888565,-1.842013433636365e-17,0.12616931565908246,-5.490700123802969e-18,-0.12616931565908251,0.5363660592438085,0.651630954592041,0.5363660592438085,500.0,160.7142857142859,[0.34401181]
-8.129689878848766e-18,0.11444646443394732,1.9941025833731212e-17,0.11444646443394732,-4.851659138084823e-18,-0.03973127211033362,1.9941025833731212e-17,-0.03973127211033362,-1.893753250079312e-17,0.1211468827701982,-6.324890590782709e-18,-0.12114688277019818,0.6378329035482748,0.4316692881157455,0.6378329035482746,500.0,173.57142857142813,[0.34478231]
-5.471343148340149e-18,0.3015472866329536,1.9771538594170628e-17,0.3015472866329536,-1.8612225526933165e-19,-0.022061968869392542,1.9771538594170628e-17,-0.022061968869392542,-1.791114694440262e-17,0.3023532644872396,-1.4967021762072176e-17,-0.30235326448723976,0.6950106717397122,0.18417473316344973,0.6950106717397121,500.0,173.57142857142813,[0.36423041]
-5.3221197658355826e-18,0.35729937618519814,1.9213053127944732e-17,0.35729937618519814,6.6824943837953915e-19,-0.014852449582729268,1.9213053127944732e-17,-0.014852449582729268,-1.774048965786558e-17,0.3576079410205249,-1.6125707972280278e-17,-0.3576079410205249,0.6987661613098166,0.15313949071577324,0.6987661613098166,500.0,173.57142857142813,[0.3003933]
-5.754596259857907e-18,0.38164274796498554,1.856571192031839e-17,0.38164274796498554,1.0198739906084806e-18,-0.011313265784058835,1.856571192031839e-17,-0.011313265784058835,-1.768324214203201e-17,0.38181039411855494,-1.6570223534290438e-17,-0.381810394118555,0.7000062379663008,0.14135958975794044,0.7000062379663009,500.0,173.57142857142813,[0.34868862]
-6.413892295287173e-18,0.3945608881399474,1.7887712090468382e-17,0.3945608881399474,1.2032830934686383e-18,-0.009151774075192088,1.7887712090468382e-17,-0.009151774075192088,-1.7654482726494768e-17,0.39466701080595445,-1.6818628260116733e-17,-0.3946670108059547,0.7006358419075295,0.13497716128684265,0.7006358419075297,500.0,173.57142857142813,[0.34785002]
-7.131792422754594e-18,0.40192582980603,1.719433207789887e-17,0.40192582980603,1.3150649727266042e-18,-0.007650252182140405,1.719433207789887e-17,-0.007650252182140405,-1.765122694360376e-17,0.40199863062418023,-1.6993474302451094e-17,-0.40199863062418023,0.7010267282308529,0.13085508248399053,0.7010267282308529,500.0,173.57142857142813,[0.34785002]
-7.948451297915948e-18,0.4059951766537505,1.648526665296382e-17,0.4059951766537505,1.374618668107972e-18,-0.006519175564824173,1.648526665296382e-17,-0.006519175564824173,-1.7649599052158254e-17,0.4060475133727025,-1.711781841126085e-17,-0.4060475133727026,0.7012989700883182,0.12790429666797123,0.7012989700883182,500.0,173.57142857142813,[0.34785002]
-8.79332695813271e-18,0.40774081915029187,1.5774505507773036e-17,0.40774081915029187,1.4033780836452157e-18,-0.005621382491422998,1.5774505507773036e-17,-0.005621382491422998,-1.765638193318119e-17,0.4077795673430264,-1.7220051884842866e-17,-0.4077795673430266,0.701502476224399,0.12565250376364406,0.7015024762243992,500.0,173.57142857142813,[0.34785002]
-9.672388338705063e-18,0.40753807253828433,1.505758889805394e-17,0.40753807253828433,1.4097539918067744e-18,-0.004885720018052336,1.505758889805394e-17,-0.004885720018052336,-1.767103295619073e-17,0.4075673574126302,-1.730892155219344e-17,-0.40756735741263017,0.7016610923208167,0.12386857166495559,0.7016610923208166,500.0,173.57142857142813,[0.34785002]
-1.0570984416623469e-17,0.40537849687320326,1.4341927121324086e-17,0.40537849687320326,1.390761924942557e-18,-0.00427515148225428,1.4341927121324086e-17,-0.00427515148225428,-1.7689075419711735e-17,0.4054010392776196,-1.7385831232842118e-17,-0.40540103927761956,0.7017866754950318,0.12243742971518753,0.7017866754950317,500.0,173.57142857142813,[0.34785002]
-1.1541207718144067e-17,0.4008671996686646,1.3620262494888937e-17,0.4008671996686646,1.337991110584124e-18,-0.0037749383694226117,1.3620262494888937e-17,-0.0037749383694226117,-1.7714307737117053e-17,0.4008849734398757,-1.7457245210664874e-17,-0.4008849734398758,0.7018839755559327,0.12131681546923716,0.701883975555933,500.0,173.57142857142813,[0.34785002]
-1.256406617640264e-17,0.39300252248783685,1.2893714194117273e-17,0.39300252248783685,1.2456082710517516e-18,-0.0033917017951604245,1.2893714194117273e-17,-0.0033917017951604245,-1.7751613582743194e-17,0.39301715779704843,-1.7528729100027046e-17,-0.3930171577970485,0.7019512391985911,0.12053595138017698,0.7019512391985913,500.0,173.57142857142813,[0.34785002]
-1.367971444705496e-17,0.37946985891831875,1.2165978889166594e-17,0.37946985891831875,1.0600286462642548e-18,-0.0031651017000438614,1.2165978889166594e-17,-0.0031651017000438614,-1.7794345733187684e-17,0.37948305851020603,-1.7591127175979146e-17,-0.379483058510206,0.7019758722135074,0.1202486992036544,0.7019758722135074,500.0,173.57142857142813,[0.34868862]
-1.5006174659900094e-17,0.3542595929799836,1.1436378291934609e-17,0.3542595929799836,7.184427579492569e-19,-0.0032099515415552515,1.1436378291934609e-17,-0.0032099515415552515,-1.7874655044499232e-17,0.3542741353912853,-1.7667157400277658e-17,-0.3542741353912854,0.7019144602817877,0.12096355192640842,0.7019144602817877,500.0,173.57142857142813,[0.28211796]
-1.6928443141799824e-17,0.29693658679128454,1.0681901478551011e-17,0.29693658679128454,-1.2656855988796387e-19,-0.0038399685482493496,1.0681901478551011e-17,-0.0038399685482493496,-1.8040835629561135e-17,0.29696141489040206,-1.7764456795788708e-17,-0.29696141489040206,0.7015781471028804,0.12480467545479922,0.7015781471028805,500.0,173.57142857142813,[0.30483833]
-2.1470260274756984e-17,0.10555910487120684,9.913824988716428e-18,0.10555910487120684,-4.775080411335889e-18,-0.0030744239934327082,9.913824988716428e-18,-0.0030744239934327082,-1.8983791749369535e-17,0.10560386689937937,-1.840883278120027e-17,-0.10560386689937938,0.7000579226366898,0.1408467603717074,0.7000579226366896,500.0,173.57142857142813,[0.15113327]
-2.1583670045460454e-17,0.10551470519658149,9.494541198283712e-18,0.10551470519658149,-4.822424920875974e-18,0.0038870451982943345,9.494541198283712e-18,0.0038870451982943345,-1.863243851238151e-17,0.10558627814775502,-1.9335260199739498e-17,-0.10558627814775506,0.6992697457631574,0.14847102518895272,0.6992697457631575,500.0,173.57142857142813,[0.15113327]
-1.7254021430900695e-17,0.2968036616197622,8.797956274430863e-18,0.2968036616197622,-2.4330194229267224e-19,0.004672589311421061,8.797956274430863e-18,0.004672589311421061,-1.6978229488508165e-17,0.29684043970081214,-1.7255084206543015e-17,-0.29684043970081214,0.7013273489886683,0.12759270794623742,0.7013273489886682,500.0,173.57142857142813,[0.30483833]
-1.5530627020593415e-17,0.3540385687154448,8.1245094534675e-18,0.3540385687154448,5.349658262788698e-19,0.0040619322829538035,8.1245094534675e-18,0.0040619322829538035,-1.609835416221306e-17,0.354061869497341,-1.6284619555610678e-17,-0.354061869497341,0.701706122166772,0.12335735173609678,0.701706122166772,500.0,173.57142857142813,[0.28211796]
-1.4403583509822564e-17,0.37916123379901584,7.461771105919095e-18,0.37916123379901584,7.963102320925488e-19,0.00403591345621987,7.461771105919095e-18,0.00403591345621987,-1.5312082594034454e-17,0.3791827129675323,-1.5470740143143927e-17,-0.3791827129675323,0.7017781672650661,0.12253492522611494,0.7017781672650661,500.0,173.57142857142813,[0.34868862]
-1.3500917703290398e-17,0.39260686458012234,6.810707792331418e-18,0.39260686458012234,9.059894182334048e-19,0.004280832263863649,6.810707792331418e-18,0.004280832263863649,-1.4552264261845295e-17,0.39263020214994404,-1.4700824680858016e-17,-0.392630202149944,0.7017556799944367,0.12279222773079836,0.7017556799944367,500.0,173.57142857142813,[0.34785002]
-1.2695925383488493e-17,0.40038514478621123,6.1592714202874776e-18,0.40038514478621123,9.232179360316593e-19,0.004681872020667594,6.1592714202874776e-18,0.004681872020667594,-1.3815507725134116e-17,0.4004125174006092,-1.3959299834917765e-17,-0.4004125174006091,0.7016868928824723,0.12357592287288033,0.7016868928824722,500.0,173.57142857142813,[0.34785002]
-1.1952250308133917e-17,0.40481074643670106,5.510234492405401e-18,0.40481074643670106,9.061929046640929e-19,0.005199366058886867,5.510234492405401e-18,0.005199366058886867,-1.3083227889898072e-17,0.40484413523978996,-1.3224542578287616e-17,-0.40484413523978996,0.7015859095937825,0.12471737216173846,0.7015859095937824,500.0,173.57142857142813,[0.34785002]
-1.1242760953134934e-17,0.4068853913929846,4.86887069868052e-18,0.4068853913929846,8.494880193123578e-19,0.005826686862304434,4.86887069868052e-18,0.005826686862304434,-1.2348574046303999e-17,0.40692710896278905,-1.2487495476031852e-17,-0.4069271089627891,0.7014549790884398,0.1261817127165154,0.7014549790884398,500.0,173.57142857142813,[0.34785002]
-1.0554434186927508e-17,0.40700403335722307,4.224717445134957e-18,0.40700403335722307,7.701961401542496e-19,0.006578568093950439,4.224717445134957e-18,0.006578568093950439,-1.1629792144303596e-17,0.40705719589170053,-1.1766186706512796e-17,-0.4070571958917006,0.7012893705331336,0.12800952134307486,0.7012893705331336,500.0,173.57142857142813,[0.34785002]
-9.928238610890165e-18,0.40517517127959995,3.584583048595483e-18,0.40517517127959995,6.648579978680717e-19,0.007492043632101726,3.584583048595483e-18,0.007492043632101726,-1.0914537340435118e-17,0.4052444325826556,-1.1046701878269569e-17,-0.4052444325826557,0.7010768607958138,0.13031680825348013,0.7010768607958139,500.0,173.57142857142813,[0.34785002]
-9.338399277135752e-18,0.40102354674329466,2.957013939150995e-18,0.40102354674329466,5.316422145776317e-19,0.008638266051657914,2.957013939150995e-18,0.008638266051657914,-1.0204234039713383e-17,0.4011165724361818,-1.0331564973703809e-17,-0.4011165724361817,0.7007926957191941,0.13333864876040488,0.700792695719194,500.0,173.57142857142813,[0.34785002]
-8.796040110541884e-18,0.39357732402586765,2.3246374627815026e-18,0.39357732402586765,3.4111108664339245e-19,0.010154399606730629,2.3246374627815026e-18,0.010154399606730629,-9.499628359050913e-18,0.39370829533899326,-9.619501791879628e-18,-0.39370829533899326,0.7003849452902213,0.1375567403714824,0.7003849452902213,500.0,173.57142857142813,[0.34785002]
-8.374416226156255e-18,0.3805789523717843,1.7234113675098384e-18,0.3805789523717843,9.187412345565223e-20,0.012329975378722081,1.7234113675098384e-18,0.012329975378722081,-8.821611571998348e-18,0.38077863291057285,-8.931289368849215e-18,-0.38077863291057285,0.699728539175491,0.1440831111777744,0.6997285391754912,500.0,173.57142857142813,[0.34868862]
-8.14800365761069e-18,0.3561564506704886,1.1466969085348045e-18,0.3561564506704886,-3.493183726811436e-19,0.01588272983563075,1.1466969085348045e-18,0.01588272983563075,-8.172896830964861e-18,0.3565104184469675,-8.271378882598452e-18,-0.35651041844696746,0.6984358896327101,0.15612372063824972,0.6984358896327101,500.0,173.57142857142813,[0.3003933]
-8.489182573064312e-18,0.30032638745320783,6.675287572708523e-19,0.30032638745320783,-1.282405400601173e-18,0.02310534407439245,6.675287572708523e-19,0.02310534407439245,-7.63704923015301e-18,0.3012138707388662,-7.738441941630085e-18,-0.30121387073886613,0.694517361525969,0.18785970583925996,0.6945173615259692,500.0,173.57142857142813,[0.36179186]
-1.1362817947240881e-17,0.11314882176179006,5.715933838027179e-19,0.11314882176179006,-6.013736229339132e-18,0.040787399820479485,5.715933838027179e-19,0.040787399820479485,-7.951910567237644e-18,0.12027579910437919,-8.240172262178877e-18,-0.12027579910437926,0.6341762150783574,0.4423133012444666,0.6341762150783576,500.0,173.57142857142813,[0.34478231]
-1.0894256526176543e-17,0.11611537509788006,7.38876187030848e-19,0.11611537509788006,-5.9755146947748945e-18,0.04707832103561531,7.38876187030848e-19,0.04707832103561531,-8.333990255259563e-18,0.1252962435416714,-9.028885100220878e-18,-0.12529624354167138,0.5307714092656602,0.6607294621948454,0.5307714092656602,500.0,160.7142857142859,[0.34401181]
-7.337585032990437e-18,0.30385877514289283,6.129943938464563e-19,0.30385877514289283,-1.144204199758876e-18,0.030833873566926698,6.129943938464563e-19,0.030833873566926698,-8.517094128473689e-18,0.30541919224318614,-8.682896358399899e-18,-0.30541919224318614,0.6404388530501257,0.42388223719292467,0.6404388530501255,500.0,160.7142857142859,[0.71762593]
-6.299397263620033e-18,0.3590435001514131,9.039587932271637e-19,0.3590435001514131,-1.389812321599346e-19,0.022533106368407652,9.039587932271637e-19,0.022533106368407652,-9.559148140027166e-18,0.35974987961580723,-9.67716471330811e-18,-0.3597498796158074,0.6514877417350008,0.38875113470967176,0.6514877417350009,500.0,160.7142857142859,[0.86963031]
-5.81048719948689e-18,0.3833284908629259,1.3148742041978342e-18,0.3833284908629259,3.78518675484878e-19,0.018955909455737968,1.3148742041978342e-18,0.018955909455737968,-1.0737097172875143e-17,0.38379689734355915,-1.0850674977703597e-17,-0.3837968973435592,0.6550769631599288,0.37649481360880704,0.6550769631599289,500.0,160.7142857142859,[0.87490375]
-5.5201798917052796e-18,0.39642504940770856,1.770255639574482e-18,0.39642504940770856,7.200706493947612e-19,0.01724435562084078,1.770255639574482e-18,0.01724435562084078,-1.1939261090974997e-17,0.39679993397010804,-1.207675183636305e-17,-0.39679993397010804,0.6566463146931724,0.3709868391193283,0.6566463146931721,500.0,160.7142857142859,[0.87276316]
-5.354541937125211e-18,0.40410561077370677,2.2581185964497086e-18,0.40410561077370677,9.8740094771118e-19,0.016473814658412324,2.2581185964497086e-18,0.016473814658412324,-1.3179544800423746e-17,0.4044412580686971,-1.3350206988475599e-17,-0.4044412580686971,0.6573596827763102,0.36845148245116,0.6573596827763102,500.0,160.7142857142859,[0.87276316]
-5.223225360521193e-18,0.4085933905438171,2.7460578607364434e-18,0.4085933905438171,1.2151022636511022e-18,0.01628327014261399,2.7460578607364434e-18,0.01628327014261399,-1.4421490315723112e-17,0.40891772238755997,-1.4623010078531813e-17,-0.40891772238755986,0.6575971764036536,0.3676029205159884,0.6575971764036536,500.0,160.7142857142859,[0.87276316]
-5.150377218334873e-18,0.41085455767993395,3.2543118536868683e-18,0.41085455767993395,1.3944585951000564e-18,0.01652360360415537,3.2543118536868683e-18,0.01652360360415537,-1.567985040309798e-17,0.41118669365926913,-1.5918225859766433e-17,-0.41118669365926896,0.6575022444132472,0.3679423829665252,0.6575022444132472,500.0,160.7142857142859,[0.87477414]
-5.096792458253688e-18,0.41127723838488633,3.768072698167788e-18,0.41127723838488633,1.561046153023336e-18,0.01715019765751327,3.768072698167788e-18,0.01715019765751327,-1.694075407085645e-17,0.4116346633766288,-1.7231083170310855e-17,-0.4116346633766289,0.6571165401217921,0.36931789206147436,0.6571165401217921,500.0,160.7142857142859,[0.87477414]
-5.073052374673416e-18,0.4098851508319587,4.294581119671186e-18,0.4098851508319587,1.6970090031280645e-18,0.01819273566112992,4.294581119671186e-18,0.01819273566112992,-1.8220208918212647e-17,0.4102886940964534,-1.8574685384485718e-17,-0.41028869409645347,0.656414268340724,0.3718072304802902,0.656414268340724,500.0,160.7142857142859,[0.87361037]
-5.092926216070615e-18,0.4063451634243387,4.82799112261542e-18,0.4063451634243387,1.807112119332854e-18,0.01976467981098173,4.82799112261542e-18,0.01976467981098173,-1.9497594986856848e-17,0.4068255577104064,-1.9933571948535776e-17,-0.4068255577104064,0.6552920565422917,0.3757454474310337,0.6552920565422917,500.0,160.7142857142859,[0.87276316]
-5.1721502664184936e-18,0.39977465710977456,5.384980115715631e-18,0.39977465710977456,1.8699894264154598e-18,0.02211980182683126,5.384980115715631e-18,0.02211980182683126,-2.080045077374217e-17,0.40038614124379485,-2.1332481235833725e-17,-0.40038614124379485,0.6535046532240952,0.3819205891660072,0.6535046532240951,500.0,160.7142857142859,[0.87276316]
-5.3221197658355826e-18,0.3881102797612319,5.9753620799518785e-18,0.3881102797612319,1.858984201955748e-18,0.025819468737362263,5.9753620799518785e-18,0.025819468737362263,-2.212826756279189e-17,0.3889681660781782,-2.2847541290587485e-17,-0.38896816607817825,0.6504518531324793,0.39220501464546165,0.6504518531324792,500.0,160.7142857142859,[0.87189915]
-5.66689360823136e-18,0.3659652491418716,6.627832841351816e-18,0.3659652491418716,1.6777795354280443e-18,0.0322718013331007,6.627832841351816e-18,0.0322718013331007,-2.3513043595231708e-17,0.36738540082691806,-2.4607258938619608e-17,-0.367385400826918,0.6443315212693997,0.41191477443437496,0.6443315212693999,500.0,160.7142857142859,[0.86001846]
-6.529676074348671e-18,0.3148939471579081,7.468183048136088e-18,0.3148939471579081,9.662553161221808e-19,0.04592177635722205,7.468183048136088e-18,0.04592177635722205,-2.5073326674139967e-17,0.31822477512049563,-2.690322807994415e-17,-0.3182247751204957,0.6267388001510311,0.46303018559321973,0.6267388001510311,500.0,160.7142857142859,[0.71762593]
-9.65183620920557e-18,0.13884643866740576,9.016782614482339e-18,0.13884643866740576,-3.509886571330413e-18,0.07702305591513127,9.016782614482339e-18,0.07702305591513127,-2.7743306045602918e-17,0.15877935846049723,-2.7623512627099132e-17,-0.15877935846049726,0.4703483125492786,0.746689312742651,0.4703483125492783,500.0,160.7142857142859,[0.38728827]
-9.53435670988834e-18,0.14424219820611728,1.0025878183215312e-17,0.14424219820611728,-3.476353703273279e-18,0.08140229501444074,1.0025878183215312e-17,0.08140229501444074,-2.873297925845678e-17,0.16562652377246495,-3.242115141070212e-17,-0.16562652377246498,0.3365252027720207,0.8794893835621331,0.3365252027720208,500.0,147.85714285714295,[0.37341754]
-6.677407223028191e-18,0.3214103180864961,1.010370750365285e-17,0.3214103180864961,1.0934936855111595e-18,0.05135020141820049,1.010370750365285e-17,0.05135020141820049,-2.753893784038189e-17,0.32548646017638333,-3.027578546205912e-17,-0.3254864601763835,0.5318749118805125,0.6589523171096631,0.5318749118805126,500.0,147.85714285714295,[0.71962547]
-6.065387868328781e-18,0.3714187926859891,1.0913659805202776e-17,0.3714187926859891,1.870362484871721e-18,0.03700802015233218,1.0913659805202776e-17,0.03700802015233218,-2.7485539609528837e-17,0.3732579712690852,-2.935344034915388e-17,-0.37325797126908505,0.5584742245496204,0.6133621124812004,0.5584742245496203,500.0,147.85714285714295,[1.28863951]
-5.9468909368581095e-18,0.3934151035512212,1.1923819438396222e-17,0.3934151035512212,2.1240422351294837e-18,0.030592475877176114,1.1923819438396222e-17,0.030592475877176114,-2.7635085178881992e-17,0.39460276644052283,-2.936381267507518e-17,-0.39460276644052283,0.5677563711873783,0.5960750002745288,0.5677563711873785,500.0,147.85714285714295,[1.29723451]
-5.993218014244754e-18,0.40535444214632305,1.3012916969144393e-17,0.40535444214632305,2.2195282427298487e-18,0.027267459617764913,1.3012916969144393e-17,0.027267459617764913,-2.7850339908144826e-17,0.4062705233237617,-2.9493674431219865e-17,-0.40627052332376173,0.5721249210095053,0.5876615943889258,0.5721249210095054,500.0,147.85714285714295,[1.29866908]
-6.138473411350904e-18,0.4124441312825972,1.4131312306611e-17,0.4124441312825972,2.2269300616461264e-18,0.025481658654779003,1.4131312306611e-17,0.025481658654779003,-2.8098627267989355e-17,0.41323053657402303,-2.974807659879411e-17,-0.4132305365740231,0.5743866066238084,0.5832324170194699,0.5743866066238084,500.0,147.85714285714295,[1.28482568]
-6.331615948478974e-18,0.4166855673451124,1.5280357787699996e-17,0.4166855673451124,2.21595451229089e-18,0.024624207317245735,1.5280357787699996e-17,0.024624207317245735,-2.83731813345952e-17,0.41741252211657554,-3.0100218593329626e-17,-0.41741252211657565,0.5754885166895848,0.5810558788247848,0.5754885166895848,500.0,147.85714285714295,[1.28482568]
-6.535170207977248e-18,0.41895107353037636,1.644972647605396e-17,0.41895107353037636,2.148486042615885e-18,0.02443302802400769,1.644972647605396e-17,0.02443302802400769,-2.865573920080811e-17,0.41966293006492356,-3.0502463724935833e-17,-0.41966293006492345,0.5758060388227222,0.5804264047323929,0.5758060388227223,500.0,147.85714285714295,[1.27360535]
-6.7633463255887754e-18,0.4195968861600852,1.7620826918719093e-17,0.4195968861600852,2.0593335501706855e-18,0.0248129868343003,1.7620826918719093e-17,0.0248129868343003,-2.8954228358823633e-17,0.42032990756176125,-3.0958058034063135e-17,-0.4203299075617612,0.575472187474218,0.5810882229810522,0.5754721874742181,500.0,147.85714285714295,[1.27360535]
-7.031202297184471e-18,0.41865726120038005,1.881647079243565e-17,0.41865726120038005,1.9432360628618772e-18,0.025780535299454205,1.881647079243565e-17,0.025780535299454205,-2.92670887460065e-17,0.4194502811491841,-3.15000563590873e-17,-0.4194502811491842,0.5744699924502454,0.583068139713044,0.5744699924502455,500.0,147.85714285714295,[1.27360535]
-7.33877203716945e-18,0.41585539653590803,2.0022653567541594e-17,0.41585539653590803,1.803220441345945e-18,0.027468970909830512,2.0022653567541594e-17,0.027468970909830512,-2.9595973689606054e-17,0.41676162874103756,-3.2147506319744926e-17,-0.4167616287410376,0.5726267564348985,0.5866832157388642,0.5726267564348987,500.0,147.85714285714295,[1.30068005]
-7.675711651983738e-18,0.41043966767389245,2.1252594443255526e-17,0.41043966767389245,1.6195866555519028e-18,0.030198408870735622,2.1252594443255526e-17,0.030198408870735622,-2.995241408736128e-17,0.4115491036299064,-3.295894798182783e-17,-0.4115491036299064,0.5695055690381435,0.5927282797952879,0.5695055690381436,500.0,147.85714285714295,[1.29924549]
-8.100794805691064e-18,0.40063965553515923,2.2534458273200024e-17,0.40063965553515923,1.3568687163310795e-18,0.034690865459778265,2.2534458273200024e-17,0.034690865459778265,-3.0357818407500816e-17,0.40213876924972,-3.4142018791962764e-17,-0.40213876924971986,0.5640389321719876,0.6030921703923605,0.5640389321719875,500.0,147.85714285714295,[1.29723451]
-8.65909374268883e-18,0.38180529622856196,2.390025283702722e-17,0.38180529622856196,9.247207681083033e-19,0.04276594923646383,2.390025283702722e-17,0.04276594923646383,-3.0849806203898115e-17,0.38419293413892397,-3.5804642572274234e-17,-0.38419293413892414,0.5531269253232586,0.6229776953991822,0.5531269253232587,500.0,147.85714285714295,[1.33526805]
-9.632776313531124e-18,0.3378103641427781,2.5496106827774974e-17,0.3378103641427781,-3.0453016142657706e-20,0.06014054876736578,2.5496106827774974e-17,0.06014054876736578,-3.161964624279866e-17,0.3431220303744957,-3.96721108751408e-17,-0.3431220303744955,0.5235170440634304,0.6722051838167993,0.5235170440634305,500.0,147.85714285714295,[0.71320614]
-1.2518383472713174e-17,0.1776127324154125,2.79937925426541e-17,0.1776127324154125,-4.763214608846392e-18,0.09850153696276552,2.79937925426541e-17,0.09850153696276552,-3.385267241876415e-17,0.20309809329507755,-5.03920351845725e-17,-0.20309809329507733,0.34113790894193935,0.8759279959936446,0.3411379089419393,500.0,147.85714285714295,[0.82488913]
-1.1896240668087033e-17,0.18436723995101903,2.817890266489579e-17,0.18436723995101903,-4.924030358949218e-18,0.1001030151798795,2.817890266489579e-17,0.1001030151798795,-3.283468915624081e-17,0.20979011610478662,-5.411341997957428e-17,-0.2097901161047868,0.20082982538855418,0.9588194629171884,0.20082982538855423,500.0,134.9999999999996,[0.89465688]
-8.370312583137379e-18,0.34601642708362407,2.5901980120547736e-17,0.34601642708362407,-5.042033411895407e-19,0.06219756587482008,2.5901980120547736e-17,0.06219756587482008,-2.795208312348885e-17,0.35156209268416505,-3.5971359358666016e-17,-0.3515620926841651,0.40365395916529734,0.8210523506454145,0.4036539591652975,500.0,134.9999999999996,[0.90905825]
-6.725141748227095e-18,0.3887402097866232,2.4534196794808108e-17,0.3887402097866232,1.402720992046119e-19,0.04465640078199779,2.4534196794808108e-17,0.04465640078199779,-2.457392434092447e-17,0.3912967477960305,-2.997869082914391e-17,-0.3912967477960304,0.4396711842644568,0.7831848437342109,0.4396711842644568,500.0,134.9999999999996,[1.39033353]
-5.465458999052753e-18,0.4074434492368851,2.3408556492548877e-17,0.4074434492368851,2.615245760908506e-19,0.036674655294924155,2.3408556492548877e-17,0.036674655294924155,-2.150982566762389e-17,0.40909069247179364,-2.5605865748347234e-17,-0.40909069247179386,0.45316209921779355,0.7676511080334901,0.4531620992177936,500.0,134.9999999999996,[1.39204475]
-4.3175581291363774e-18,0.4176408441753138,2.2372307143395808e-17,0.4176408441753138,2.0683017906731974e-19,0.03239588792862572,2.2372307143395808e-17,0.03239588792862572,-1.8540284595083663e-17,0.41889541448690115,-2.1886750033542938e-17,-0.41889541448690115,0.45983429625096944,0.7596741669839452,0.45983429625096944,500.0,134.9999999999996,[1.38688689]
-3.2450659389924803e-18,0.42375867053255395,2.1382134222979083e-17,0.42375867053255395,8.728931981421222e-20,0.02994935780799374,2.1382134222979083e-17,0.02994935780799374,-1.561891893500883e-17,0.42481569519572715,-1.8535229595502795e-17,-0.4248156951957271,0.46350607708022123,0.7551981415624694,0.4635060770802214,500.0,134.9999999999996,[1.40991457]
-2.2181547093227044e-18,0.42749007558570884,2.042792117023551e-17,0.42749007558570884,-8.420416877393671e-20,0.028595337407969885,2.042792117023551e-17,0.028595337407969885,-1.2740281186077848e-17,0.42844539680775046,-1.543732512527391e-17,-0.42844539680775046,0.46551409018489875,0.7527238960459885,0.46551409018489875,500.0,134.9999999999996,[1.41888907]
-1.2059114598650255e-18,0.4295738274935733,1.9475183924027007e-17,0.4295738274935733,-2.8120340965864025e-19,0.028010695967981575,1.9475183924027007e-17,0.028010695967981575,-9.875637368557305e-18,0.43048608845825553,-1.2352835514645902e-17,-0.4304860884582554,0.4664066299607361,0.7516180619552315,0.46640662996073606,500.0,134.9999999999996,[1.41633962]
-2.120667751820574e-19,0.4303155201728266,1.8549014904837792e-17,0.4303155201728266,-5.134736318626049e-19,0.028068624057313935,1.8549014904837792e-17,0.028068624057313935,-7.036501422983639e-18,0.43122997873302027,-9.433715518196414e-18,-0.4312299787330203,0.46639486579450584,0.751632661824278,0.4663948657945059,500.0,134.9999999999996,[1.41633962]
7.49186166185709e-19,0.4297531698975602,1.7631892023300335e-17,0.4297531698975602,-7.655530461290187e-19,0.028769082001720812,1.7631892023300335e-17,0.028769082001720812,-4.219214832905101e-18,0.4307150416646984,-6.523168314205433e-18,-0.4307150416646983,0.46548651556960563,0.7527580007185141,0.4654865155696056,500.0,134.9999999999996,[1.41888907]
1.6773895197692256e-18,0.4276693383615112,1.6731865711328734e-17,0.4276693383615112,-1.0449007019327904e-18,0.03023880080282753,1.6731865711328734e-17,0.03023880080282753,-1.4207804127696829e-18,0.428737038344678,-3.788984168126626e-18,-0.4287370383446779,0.4634898574346765,0.7552180507048057,0.4634898574346765,500.0,134.9999999999996,[1.41888907]
2.5865499348808522e-18,0.42345921422967603,1.5862752909531738e-17,0.42345921422967603,-1.3793295909434322e-18,0.032800836223604454,1.5862752909531738e-17,0.032800836223604454,1.3290673827383253e-18,0.4247276786047533,-1.0686272531881756e-18,-0.42472767860475313,0.45989277092724024,0.7596033691985113,0.4598927709272403,500.0,134.9999999999996,[1.40991457]
3.451240086285863e-18,0.41568601005356565,1.5039470127121425e-17,0.41568601005356565,-1.7844403395136943e-18,0.037194849776396116,1.5039470127121425e-17,0.037194849776396116,4.021799080732583e-18,0.41734675727042814,1.3802682229929467e-18,-0.41734675727042814,0.45344926453078355,0.7673118850851867,0.45344926453078355,500.0,134.9999999999996,[1.39703964]
4.197628314049611e-18,0.4005419641794742,1.4307742460793654e-17,0.4005419641794742,-2.3535675101694794e-18,0.045291542337446734,1.4307742460793654e-17,0.045291542337446734,6.572630788076725e-18,0.40309451605802815,3.491056516010491e-18,-0.40309451605802804,0.4406540001041389,0.7820793466039385,0.4406540001041389,500.0,134.9999999999996,[1.39119755]
4.656430865042201e-18,0.3645424164230193,1.3809339542703884e-17,0.3645424164230193,-3.4334509209780566e-18,0.06294741411428482,1.3809339542703884e-17,0.06294741411428482,8.751480821521841e-18,0.36993722483038843,4.1582373714513285e-18,-0.36993722483038843,0.4076299735002458,0.8171141960634251,0.4076299735002459,500.0,134.9999999999996,[1.37161732]
3.605626936969138e-18,0.22177896826699037,1.4226875151535454e-17,0.22177896826699037,-8.322200760181575e-18,0.1009678157410178,1.4226875151535454e-17,0.1009678157410178,9.047941474181445e-18,0.24368096064543646,-5.9617959181581044e-18,-0.24368096064543682,0.2478879601549056,0.9365378360859106,0.24788796015490544,500.0,134.9999999999996,[0.90005582]
3.912297945218579e-18,0.22855561153976162,1.3229212181757897e-17,0.22855561153976162,-8.42290746651928e-18,0.09947341417001679,1.3229212181757897e-17,0.09947341417001679,1.0063665189464018e-17,0.2492641725016938,5.843453462755536e-19,-0.24926417250169372,0.10601706511883657,0.9886964973171376,0.10601706511883693,500.0,122.14285714285755,[0.94381633]
4.981186729819042e-18,0.37281741994094814,1.0971994171737755e-17,0.37281741994094814,-3.737465477464374e-18,0.06122287421642114,1.0971994171737755e-17,0.06122287421642114,1.2411960069463327e-17,0.3778108904448693,8.809696676863009e-18,-0.3778108904448688,0.2742101584683195,0.9217470249399009,0.27421015846831953,500.0,122.14285714285755,[1.38989066]
4.588788584040984e-18,0.40759222351608165,9.610098969629875e-18,0.40759222351608165,-2.860205269751158e-18,0.04395732637857441,9.610098969629875e-18,0.04395732637857441,1.2851819305549052e-17,0.40995568932890286,1.0683184631848995e-17,-0.4099556893289031,0.3098366361355715,0.8988896026856619,0.30983663613557155,500.0,122.14285714285755,[1.39240708]
3.9120520657814974e-18,0.422651395043507,8.482467255895317e-18,0.422651395043507,-2.4897645816345312e-18,0.03599035687811356,8.482467255895317e-18,0.03599035687811356,1.2874802673965203e-17,0.4241809843927904,1.1327757498985512e-17,-0.4241809843927904,0.3240471140699729,0.8888120924727815,0.32404711406997283,500.0,122.14285714285755,[1.40433896]
3.1495714527908366e-18,0.43086811775048295,7.445047064896921e-18,0.43086811775048295,-2.2833368711716583e-18,0.03160513166712516,7.445047064896921e-18,0.03160513166712516,1.2754523116575691e-17,0.43202571594934064,1.1625291593401445e-17,-0.4320257159493406,0.3313953770255323,0.8833765947613796,0.33139537702553234,500.0,122.14285714285755,[1.4221565]
2.3604934675889918e-18,0.4358263712680485,6.444238004132398e-18,0.4358263712680485,-2.145148918143859e-18,0.028982004197454274,6.444238004132398e-18,0.028982004197454274,1.2558820041861464e-17,0.4367889449837029,1.1657277294736317e-17,-0.436788944983703,0.33564761530618986,0.8801598472314767,0.33564761530618986,500.0,122.14285714285755,[1.42412089]
1.5144392817944948e-18,0.4388856654177096,5.475307159394216e-18,0.4388856654177096,-2.0739792740544255e-18,0.02739889675279132,5.475307159394216e-18,0.02739889675279132,1.2319429914233736e-17,0.4397400673720965,1.1570958643108334e-17,-0.4397400673720965,0.338167797374812,0.8782283766978474,0.338167797374812,500.0,122.14285714285755,[1.42412089]
6.564641826021899e-19,0.4406379450199926,4.519137404449302e-18,0.4406379450199926,-2.0151589776836626e-18,0.026535625403544896,4.519137404449302e-18,0.026535625403544896,1.2048565099009272e-17,0.4414362219018725,1.1469421998536785e-17,-0.4414362219018725,0.3395326389296624,0.8771745403298703,0.3395326389296624,500.0,122.14285714285755,[1.42412089]
-2.015405916945904e-19,0.4413294279562553,3.583545347285861e-18,0.4413294279562553,-1.992021139750466e-18,0.02625882190522625,3.583545347285861e-18,0.02625882190522625,1.1751380585765502e-17,0.44210992943842103,1.1285551378904992e-17,-0.4421099294384211,0.33997850453285633,0.8768290785045881,0.33997850453285633,500.0,122.14285714285755,[1.42412089]
-1.074730540881466e-18,0.4409943569086922,2.656508728725176e-18,0.4409943569086922,-1.9939852607279277e-18,0.02655196426864805,2.656508728725176e-18,0.02655196426864805,1.1430045836604603e-17,0.44179297146042806,1.1059514861855448e-17,-0.4417929714604281,0.3395398205727832,0.8771689805794572,0.3395398205727832,500.0,122.14285714285755,[1.42412089]
-1.9718216670729082e-18,0.4394659222590592,1.7416655311065216e-18,0.4394659222590592,-2.0209164778644584e-18,0.027510117977316974,1.7416655311065216e-18,0.027510117977316974,1.107398061695596e-17,0.4403261330174844,1.0806004501357298e-17,-0.44032613301748447,0.33806222847911804,0.8783096602858614,0.33806222847911827,500.0,122.14285714285755,[1.42412089]
-2.8808379459627977e-18,0.4362728545339287,8.536751235625703e-19,0.4362728545339287,-2.1038803862451e-18,0.029395296328432678,8.536751235625703e-19,0.029395296328432678,1.0668262588569113e-17,0.43726203476796266,1.0504971231955141e-17,-0.4372620347679625,0.3351026995138471,0.8805750175635604,0.3351026995138471,500.0,122.14285714285755,[1.42412089]
-3.83600325161248e-18,0.4302866049801302,7.859398429035772e-21,0.4302866049801302,-2.25766446136872e-18,0.032818309646091434,7.859398429035772e-21,0.032818309646091434,1.0180062607293059e-17,0.43153632972596107,1.0121403098213163e-17,-0.4315363297259612,0.3295810544928357,0.8847330993236215,0.32958105449283565,500.0,122.14285714285755,[1.42926627]
-4.8432568442176625e-18,0.41848045827102986,-7.712110552229352e-19,0.41848045827102986,-2.572345098263603e-18,0.039330438772564875,-7.712110552229352e-19,0.039330438772564875,9.51550665959554e-18,0.42032460952075335,9.567409248724943e-18,-0.42032460952075335,0.3185293252673564,0.8927923262939963,0.3185293252673564,500.0,122.14285714285755,[1.38456762]
-6.07246326109583e-18,0.3898102868878826,-1.3413920895220299e-18,0.3898102868878826,-3.4055169767621783e-18,0.05376784624262362,-1.3413920895220299e-18,0.05376784624262362,8.369634295035086e-18,0.39350100514888614,8.432191280626444e-18,-0.393501005148886,0.29086550174040837,0.9114793029984833,0.29086550174040837,500.0,122.14285714285755,[1.38920823]
-8.415694296481452e-18,0.26261053193582123,-1.1780526307573505e-18,0.26261053193582123,-8.032769000460131e-18,0.08391422638468742,-1.1780526307573505e-18,0.08391422638468742,4.964789114946097e-18,0.27569165542931384,3.3082468102567398e-18,-0.27569165542931395,0.17611523837000334,0.968486884592535,0.17611523837000348,500.0,122.14285714285755,[0.94532622]
-8.982493031261083e-18,0.26806731920117344,-1.7093905430359652e-18,0.26806731920117344,-7.95244445416191e-18,0.07961850457769774,-1.7093905430359652e-18,0.07961850457769774,3.850568428784073e-18,0.27964118776548763,3.2790823258769305e-18,-0.27964118776548785,0.03384925171572892,0.9988535710085688,0.03384925171572884,500.0,109.28571428571402,[0.966685]
-8.246029006294016e-18,0.3965169797654332,-2.536435572285542e-18,0.3965169797654332,-3.1848876091575356e-18,0.04859906177735524,-2.536435572285542e-18,0.04859906177735524,5.501499413438053e-18,0.3994841474300826,5.991001738438335e-18,-0.39948414743008287,0.15061248490210996,0.9770525875218913,0.15061248490211,500.0,109.28571428571402,[1.38984008]
-8.640411144771283e-18,0.4242526689829018,-2.654114318732822e-18,0.4242526689829018,-2.2116766605113667e-18,0.03502876370838159,-2.654114318732822e-18,0.03502876370838159,4.876366842036023e-18,0.42569630187030444,5.215438826191081e-18,-0.4256963018703044,0.1778308565369035,0.9678596865903146,0.17783085653690353,500.0,109.28571428571402,[1.43466102]
-9.16718664221496e-18,0.4360381447618662,-2.5875733285508165e-18,0.4360381447618662,-1.7385022179607083e-18,0.0286542926876137,-2.5875733285508165e-18,0.0286542926876137,3.7417047781037085e-18,0.43697864041254647,4.0245281282942554e-18,-0.43697864041254647,0.18927432648499903,0.9635094491842309,0.18927432648499898,500.0,109.28571428571402,[1.43251382]
-9.780257343472924e-18,0.44242722841619153,-2.452546304062221e-18,0.44242722841619153,-1.437615602955494e-18,0.02503071454694685,-2.452546304062221e-18,0.02503071454694685,2.4228175459381645e-18,0.4431347302060217,2.6631966530860957e-18,-0.4431347302060216,0.19546974383343427,0.9610323399820545,0.19546974383343427,500.0,109.28571428571402,[1.41551205]
-1.0422083220967492e-17,0.4462671735474309,-2.2864399730005785e-18,0.4462671735474309,-1.208902021509786e-18,0.022749883035636412,-2.2864399730005785e-18,0.022749883035636412,1.020094434241726e-18,0.4468466709780302,1.2251232155376117e-18,-0.44684667097803016,0.1992596466698208,0.959474432394129,0.1992596466698208,500.0,109.28571428571402,[1.41903257]
-1.1100816449828105e-17,0.44862453853742923,-2.099860866848286e-18,0.44862453853742923,-1.0374391353731272e-18,0.021250389355258175,-2.099860866848286e-18,0.021250389355258175,-4.401480384417798e-19,0.44912754939512606,-2.4764980545479345e-19,-0.44912754939512617,0.20170184725002221,0.9584533007047642,0.20170184725002221,500.0,109.28571428571402,[1.43369539]
-1.173559449000978e-17,0.44996025099077197,-1.9035177902156645e-18,0.44996025099077197,-8.887703063834439e-19,0.02027841580208996,-1.9035177902156645e-18,0.02027841580208996,-1.9383757046788805e-18,0.45041696417777266,-1.799389512640531e-18,-0.45041696417777266,0.20325727064552576,0.9577958884122768,0.20325727064552576,500.0,109.28571428571402,[1.43369539]
-1.2414880947603828e-17,0.45046417450654114,-1.6952394925455774e-18,0.45046417450654114,-7.751044554257289e-19,0.019720453892362388,-1.6952394925455774e-18,0.019720453892362388,-3.473774088834244e-18,0.45089562962572666,-3.3452714334988596e-18,-0.45089562962572666,0.20412841196233533,0.9574252883956377,0.20412841196233533,500.0,109.28571428571402,[1.43369539]
-1.3102308982075715e-17,0.4501599879361895,-1.473254277366145e-18,0.4501599879361895,-6.774505754609242e-19,0.019546775382514685,-1.473254277366145e-18,0.019546775382514685,-5.0349490106144995e-18,0.45058416657331046,-4.914736907614188e-18,-0.45058416657331046,0.20436911183697257,0.9573225852626344,0.2043691118369726,500.0,109.28571428571402,[1.43369539]
-1.3788119723353697e-17,0.44891274498204187,-1.2496689249125814e-18,0.44891274498204187,-6.096450151460198e-19,0.019801955323851303,-1.2496689249125814e-18,0.019801955323851303,-6.6357343678309554e-18,0.4493492739973657,-6.549583139327954e-18,-0.4493492739973657,0.20390349580940667,0.9575211375178128,0.20390349580940667,500.0,109.28571428571402,[1.43369539]
-1.4505409391529053e-17,0.44634499568873165,-1.0082893067426298e-18,0.44634499568873165,-5.94478718391584e-19,0.020635073827285973,-1.0082893067426298e-18,0.020635073827285973,-8.291326993450463e-18,0.4468217334107993,-8.221327298053461e-18,-0.44682173341079917,0.20247037483849828,0.9581291638529305,0.20247037483849822,500.0,109.28571428571402,[1.43369539]
-1.522161803804138e-17,0.44154998639480436,-7.42518938583341e-19,0.44154998639480436,-6.509442819744142e-19,0.022407115952787784,-7.42518938583341e-19,0.022407115952787784,-1.0048662304501414e-17,0.44211816218130373,-9.987968458865272e-18,-0.44211816218130373,0.19941641194382814,0.9594092918535335,0.19941641194382811,500.0,109.28571428571402,[1.43369539]
-1.599480288514636e-17,0.4320660974548588,-4.3047408686096407e-19,0.4320660974548588,-8.76986309148472e-19,0.026042696670696967,-4.3047408686096407e-19,0.026042696670696967,-1.200840090492706e-17,0.43285024502679165,-1.1946382787827069e-17,-0.43285024502679165,0.19296337376246875,0.9620448392733114,0.19296337376246872,500.0,109.28571428571402,[1.41812901]
-1.6877616046784525e-17,0.4086053262210802,-6.718629122619917e-22,0.4086053262210802,-1.622330542890712e-18,0.03439978302033792,-6.718629122619917e-22,0.03439978302033792,-1.452650521133554e-17,0.4100507989116493,-1.454778734737175e-17,-0.4100507989116491,0.1767278978107285,0.9682636522511835,0.1767278978107285,500.0,109.28571428571402,[1.40046437]
-1.8643831632849722e-17,0.29201372202765574,8.474886591483318e-19,0.29201372202765574,-6.1479145325919186e-18,0.050698755805890325,8.474886591483318e-19,0.050698755805890325,-1.954776605009821e-17,0.29638214806683316,-1.9544083867794584e-17,-0.29638214806683316,0.1159312412172917,0.9864683951448401,0.11593124121729174,500.0,109.28571428571402,[0.95552858]
-1.7818583934593077e-17,0.29506757673705,9.256596407217709e-19,0.29506757673705,-6.049758361740425e-18,0.04445156418781008,9.256596407217709e-19,0.04445156418781008,-1.986684973061962e-17,0.29839707840429325,-2.0448314515113634e-17,-0.29839707840429336,0.02638637309235031,0.9993035167705868,0.026386373092350295,500.0,96.42857142857196,[0.9656295]
-1.4641162396252135e-17,0.4124096187496592,7.952013237800004e-19,0.4124096187496592,-1.3248750456013862e-18,0.02680758780930525,7.952013237800004e-19,0.02680758780930525,-1.519507842630141e-17,0.413279978224681,-1.5283663929015856e-17,-0.4132799782246811,0.033425716049774325,0.9988820966526131,0.033425716049774325,500.0,96.42857142857196,[1.42814551]
-1.2340629596905887e-17,0.43540762929723875,1.0574702283284165e-18,0.43540762929723875,-3.8755282386451686e-19,0.01962072556226762,1.0574702283284165e-18,0.01962072556226762,-1.3050879376457052e-17,0.43584948838083026,-1.3139466826870838e-17,-0.4358494883808302,0.04745875999549587,0.9977451238665012,0.047458759995495876,500.0,96.42857142857196,[1.45615923]
-1.0156766590454757e-17,0.44493545312807886,1.4112976933911445e-18,0.44493545312807886,3.7525229434227096e-20,0.016101558062895753,1.4112976933911445e-18,0.016101558062895753,-1.1475627856903885e-17,0.44522670362674993,-1.1581077269047914e-17,-0.4452267036267499,0.05370743125332229,0.9971113396488577,0.05370743125332227,500.0,96.42857142857196,[1.45845865]
-8.007089304359219e-18,0.45000909072289513,1.7982333678172757e-18,0.45000909072289513,2.9303039605165796e-19,0.013957426986412063,1.7982333678172757e-18,0.013957426986412063,-1.010956038809803e-17,0.4502254896175115,-1.0217366954123906e-17,-0.4502254896175115,0.05734962556202652,0.9967055938920935,0.057349625562026524,500.0,96.42857142857196,[1.44860652]
-5.871516171490746e-18,0.4529905676813291,2.193714412507145e-18,0.4529905676813291,4.769071467635922e-19,0.01247058825663486,2.193714412507145e-18,0.01247058825663486,-8.841167995760177e-18,0.4531621894859712,-8.959677486646871e-18,-0.4531621894859713,0.05980431061910145,0.9964170255785217,0.05980431061910148,500.0,96.42857142857196,[1.44860652]
-3.751153649316205e-18,0.4547522104018547,2.6014029870614847e-18,0.4547522104018547,6.051632132623011e-19,0.011351496936376182,2.6014029870614847e-18,0.011351496936376182,-7.635175459270424e-18,0.45489386602598786,-7.761379792500593e-18,-0.4548938660259879,0.061611876075469064,0.9961967443496902,0.06161187607546907,500.0,96.42857142857196,[1.43325231]
-1.6172147668441953e-18,0.4556656964197687,3.012482207258422e-18,0.4556656964197687,7.16053779560847e-19,0.01046297428030205,3.012482207258422e-18,0.01046297428030205,-6.471781535255022e-18,0.4557858057514551,-6.607614355523155e-18,-0.45578580575145494,0.06301976826475808,0.9960205909597013,0.0630197682647581,500.0,96.42857142857196,[1.43325231]
4.90669373898466e-19,0.45587873047922783,3.438084476576849e-18,0.45587873047922783,7.886877045867358e-19,0.00973385436066429,3.438084476576849e-18,0.00973385436066429,-5.342572271770051e-18,0.4559826365379136,-5.4859613691563935e-18,-0.4559826365379137,0.06415311345049018,0.9958758738262602,0.0641531134504902,500.0,96.42857142857196,[1.43325231]
2.6207992447460338e-18,0.4553997422221398,3.85485929654134e-18,0.4553997422221398,8.461265188616557e-19,0.009127091799287513,3.85485929654134e-18,0.009127091799287513,-4.253517663940854e-18,0.4554911953273126,-4.405524456604901e-18,-0.45549119532731264,0.06507509340587472,0.9957562274153415,0.06507509340587474,500.0,96.42857142857196,[1.43396022]
4.706982405515943e-18,0.4541005853623739,4.27980712382357e-18,0.4541005853623739,8.653082944294834e-19,0.008627943677206096,4.27980712382357e-18,0.008627943677206096,-3.1994637820151616e-18,0.4541825437404521,-3.3589001011027566e-18,-0.454182543740452,0.06580836030166753,0.9956598412253113,0.06580836030166752,500.0,96.42857142857196,[1.43396022]
6.804003338370311e-18,0.4516393383667588,4.71051910831338e-18,0.4516393383667588,8.38636204544532e-19,0.008243030863954025,4.71051910831338e-18,0.008243030863954025,-2.2088955468138185e-18,0.45171455535347504,-2.378327714496695e-18,-0.4517145553534751,0.06633528235424718,0.9955899058497754,0.06633528235424721,500.0,96.42857142857196,[1.43396022]
8.893974314261464e-18,0.4472006834720847,5.133939396344927e-18,0.4472006834720847,7.5037389899452e-19,0.008012016651047034,5.133939396344927e-18,0.008012016651047034,-1.3219707934680798e-18,0.447272449083013,-1.5029916261828294e-18,-0.4472724490830131,0.06657133742822176,0.9955583930970777,0.06657133742822177,500.0,96.42857142857196,[1.43396022]
1.0941073242787031e-17,0.4385602357761015,5.5724000606541065e-18,0.4385602357761015,4.643211930779887e-19,0.008049719547120096,5.5724000606541065e-18,0.008049719547120096,-6.480290341550745e-19,0.43863410536434244,-8.486945113371285e-19,-0.43863410536434244,0.06626242904720017,0.9955996087752996,0.06626242904720017,500.0,96.42857142857196,[1.43396022]
1.2898093391677705e-17,0.41715390158141746,6.033922023648222e-18,0.41715390158141746,-3.000622035090087e-19,0.008669855331040107,6.033922023648222e-18,0.008669855331040107,-5.598558201575611e-19,0.417243986171233,-8.053995915943622e-19,-0.417243986171233,0.06455325829223597,0.9958241580157171,0.06455325829223597,500.0,96.42857142857196,[1.40575241]
1.4080775603689497e-17,0.30411066619762156,6.501548347726223e-18,0.30411066619762156,-4.889721036484361e-18,0.007891650266722495,6.501548347726223e-18,0.007891650266722495,-3.0882473194799665e-18,0.30421304284841805,-3.412980972150958e-18,-0.3042130428484182,0.06091633932199211,0.9962822889157552,0.06091633932199215,500.0,96.42857142857196,[0.95388502]
1.5038194097628985e-17,0.304151669138033,5.867540667957602e-18,0.304151669138033,-4.913408526241076e-18,0.0009301984443489977,5.867540667957602e-18,0.0009301984443489977,-2.0730323202741142e-18,0.3041530915650822,-2.1087628969698206e-18,-0.3041530915650823,0.08131943336395303,0.9933651390675692,0.08131943336395302,500.0,83.57142857142804,[0.94423938]
1.5732913729200528e-17,0.4172882502857543,4.7588578000924614e-18,0.4172882502857543,-3.5674350775093756e-19,0.00015759491080413176,4.7588578000924614e-18,0.00015759491080413176,2.4800894377504106e-18,0.41728828004474555,2.4764968236878857e-18,-0.4172882800447457,0.07943620453959331,0.9936698540343708,0.07943620453959331,500.0,83.57142857142804,[1.40044438]
1.5668493316685204e-17,0.4387860681092925,3.6300627957668406e-18,0.4387860681092925,3.7573371992112536e-19,0.0007787454958430507,3.6300627957668406e-18,0.0007787454958430507,4.4193612246019304e-18,0.43878675915683674,4.4065119261679155e-18,-0.4387867591568366,0.0804177765167398,0.9935119337180642,0.08041777651673977,500.0,83.57142857142804,[1.42469688]
1.5511827841908287e-17,0.44751720885525686,2.484615321736871e-18,0.44751720885525686,6.085838652047364e-19,0.0008128611387575051,2.484615321736871e-18,0.0008128611387575051,5.776119189203807e-18,0.447517947086852,5.767125223132335e-18,-0.44751794708685194,0.08044700606973947,0.9935072009949555,0.08044700606973945,500.0,83.57142857142804,[1.42469688]
1.5325315570980136e-17,0.4520459851707826,1.3358774549005171e-18,0.4520459851707826,6.623664151563755e-19,0.0005736480608571404,1.3358774549005171e-18,0.0005736480608571404,6.913112338575176e-18,0.45204634915141295,6.909735555550104e-18,-0.45204634915141295,0.0800624548457784,0.9935693265435159,0.0800624548457784,500.0,83.57142857142804,[1.42469688]
1.5123069135729097e-17,0.45459680531468116,1.8495167838029548e-19,0.45459680531468116,6.489986416981773e-19,0.00017592100771322359,1.8495167838029548e-19,0.00017592100771322359,7.95378963724603e-18,0.45459683935385575,7.953647566322724e-18,-0.4545968393538557,0.07944275172734616,0.9936688071968317,0.07944275172734615,500.0,83.57142857142804,[1.42469688]
1.4911046873203752e-17,0.45598496006532974,-9.70536413616256e-19,0.45598496006532974,5.934414145163969e-19,-0.00034065469974155547,-9.70536413616256e-19,-0.00034065469974155547,8.92500864450429e-18,0.455985087312518,8.923561802245542e-18,-0.4559850873125181,0.07864587856576526,0.9937955783606794,0.07864587856576527,500.0,83.57142857142804,[1.42469688]
1.4683296805306478e-17,0.45655232752154007,-2.1271276842455854e-18,0.45655232752154007,5.053266233808193e-19,-0.0009694504114649599,-2.1271276842455854e-18,-0.0009694504114649599,9.861772735816363e-18,0.45655335679352516,9.852760258513407e-18,-0.45655335679352516,0.07767862449492272,0.9939477162271431,0.0776786244949227,500.0,83.57142857142804,[1.42501009]
1.4472908793177597e-17,0.4564270050187113,-3.2923843834575407e-18,0.4564270050187113,3.8017743433816253e-19,-0.0017251956161715165,-3.2923843834575407e-18,-0.0017251956161715165,1.076367122893281e-17,0.4564302654406967,1.0738833262290348e-17,-0.45643026544069654,0.07651438808912472,0.9941283100438764,0.07651438808912472,500.0,83.57142857142804,[1.42501009]
1.422996507178895e-17,0.4556005132807762,-4.458794901073192e-18,0.4556005132807762,2.387493308404622e-19,-0.0026449168188875743,-4.458794901073192e-18,-0.0026449168188875743,1.1626094944233516e-17,0.45560819053950913,1.1574425231529217e-17,-0.4556081905395091,0.07509038959271298,0.9943454464026217,0.07509038959271301,500.0,83.57142857142804,[1.42501009]
1.3995699198809017e-17,0.45392510071349956,-5.629868881228864e-18,0.45392510071349956,6.910417733106299e-20,-0.0037997560530403916,-5.629868881228864e-18,-0.0037997560530403916,1.2446463737366868e-17,0.4539410041005587,1.2352352337036014e-17,-0.4539410041005586,0.07328637935338314,0.994614605363577,0.07328637935338315,500.0,83.57142857142804,[1.43003925]
1.3758720173419914e-17,0.4510290504632317,-6.810778601899909e-18,0.4510290504632317,-1.527690275767894e-19,-0.005326864083912495,-6.810778601899909e-18,-0.005326864083912495,1.3205381218170169e-17,0.451060505744776,1.3044620901137757e-17,-0.45106050574477596,0.07086714705000698,0.9949651727261539,0.07086714705000699,500.0,83.57142857142804,[1.43351725]
1.3483757014302373e-17,0.44604001501453283,-8.007679792570928e-18,0.44604001501453283,-4.415215718489241e-19,-0.007515756177178412,-8.007679792570928e-18,-0.007515756177178412,1.3867033244929744e-17,0.4461033306141968,1.3597634582510786e-17,-0.4461033306141968,0.06732148064228327,0.9954575010959841,0.0673214806422833,500.0,83.57142857142804,[1.43351725]
1.318817813617575e-17,0.43659599888754796,-9.240920599517683e-18,0.43659599888754796,-9.106987513311253e-19,-0.011084152606957508,-9.240920599517683e-18,-0.011084152606957508,1.4319770416532606e-17,0.4367366765954402,1.3849490675499324e-17,-0.43673667659544013,0.061312172189605225,0.9962337251281872,0.06131217218960525,500.0,83.57142857142804,[1.43280934]
1.2782979422117222e-17,0.4136812245505291,-1.0563984006486478e-17,0.4136812245505291,-1.8845224113978225e-18,-0.01832472614273625,-1.0563984006486478e-17,-0.01832472614273625,1.4202747171946683e-17,0.4140868883867634,1.3262867246733079e-17,-0.4140868883867632,0.04799820251356724,0.9976935126134344,0.04799820251356729,500.0,83.57142857142804,[1.4274023]
1.1513372470146198e-17,0.2964229035466276,-1.2270806195725732e-17,0.2964229035466276,-6.65350432380774e-18,-0.03602709514183811,-1.2270806195725732e-17,-0.03602709514183811,1.1556795096682319e-17,0.2986042352870641,8.443196374149722e-18,-0.2986042352870641,0.006184679351710119,0.9999617490097474,0.006184679351710049,500.0,83.57142857142804,[0.94862601]
1.034224871132755e-17,0.29343722462342203,-1.2208277571120711e-17,0.29343722462342203,-6.647671311084306e-18,-0.04232375319339985,-1.2208277571120711e-17,-0.04232375319339985,1.0978164473818306e-17,0.2964737844718692,7.34054880960176e-18,-0.2964737844718692,0.13587068365578564,0.9813655356929032,0.1358706836557857,500.0,70.71428571428592,[0.91531739]
9.533877668916095e-18,0.4101030010984527,-9.80780623996042e-18,0.4101030010984527,-1.848438014268389e-18,-0.02607034094645628,-9.80780623996042e-18,-0.02607034094645628,1.2186724966670336e-17,0.41093081435567963,1.0944197275256529e-17,-0.4109308143556797,0.1907291264475156,0.9629355121964998,0.19072912644751566,500.0,70.71428571428592,[1.33509744]
7.854020876174777e-18,0.4336348895012119,-7.821616523195648e-18,0.4336348895012119,-8.508730783181153e-19,-0.01776278021512335,-7.821616523195648e-18,-0.01776278021512335,1.0879514358203258e-17,0.43399854118844583,1.0230475046773475e-17,-0.4339985411884458,0.20603031779840605,0.956610169450323,0.20603031779840608,500.0,70.71428571428592,[1.36291039]
6.0331055939602505e-18,0.44318784536578376,-5.955094314790584e-18,0.44318784536578376,-3.723338008083793e-19,-0.01418090557837896,-5.955094314790584e-18,-0.01418090557837896,9.02275578908316e-18,0.443414664127145,8.638115440779333e-18,-0.4434146641271449,0.21207804822781806,0.9539632083679952,0.212078048227818,500.0,70.71428571428592,[1.36578435]
4.191557635534084e-18,0.44805008887185954,-4.134017740434545e-18,0.44805008887185954,-5.292051466225945e-20,-0.012466779567795053,-4.134017740434545e-18,-0.012466779567795053,6.960339737435099e-18,0.44822349640650616,6.728808667567009e-18,-0.4482234964065062,0.21488857880049328,0.9527044648799586,0.2148885788004932,500.0,70.71428571428592,[1.36516192]
2.31637506583544e-18,0.45068327822612847,-2.3461780779597574e-18,0.45068327822612847,1.9147516719536104e-19,-0.011695769876626058,-2.3461780779597574e-18,-0.011695769876626058,4.800386916502395e-18,0.450835012289038,4.6758461784601485e-18,-0.45083501228903805,0.21614928169727174,0.9521339065717107,0.21614928169727174,500.0,70.71428571428592,[1.36516192]
4.3141666886249105e-19,0.45199416112731705,-5.662408693111234e-19,0.45199416112731705,3.882550242719791e-19,-0.011506857966306402,-5.662408693111234e-19,-0.011506857966306402,2.5808798702757426e-18,0.4521406080783321,2.5506537048794277e-18,-0.45214060807833195,0.21648109913996977,0.9519831235007798,0.21648109913996977,500.0,70.71428571428592,[1.36516192]
-1.4546142711722096e-18,0.45236016835495374,1.2068282086282816e-18,0.45236016835495374,5.520711394022936e-19,-0.011750921370022593,1.2068282086282816e-18,-0.011750921370022593,3.2610184272982947e-19,0.45251276895482906,3.8905380057662143e-19,-0.4525127689548291,0.216131977799589,0.9521417627354006,0.216131977799589,500.0,70.71428571428592,[1.36516192]
-3.358568974310016e-18,0.45191622385404856,2.9676706136112666e-18,0.45191622385404856,6.945887431643029e-19,-0.012383336271604244,2.9676706136112666e-18,-0.012383336271604244,-1.9575701981486262e-18,0.45208585512015104,-1.7974193739378486e-18,-0.4520858551201509,0.2151730879319059,0.9525760255537072,0.21517308793190587,500.0,70.71428571428592,[1.36516192]
-5.263591981208934e-18,0.45063862760564916,4.7186942684009736e-18,0.45063862760564916,8.129614101349839e-19,-0.013433777017529578,4.7186942684009736e-18,-0.013433777017529578,-4.282347557851227e-18,0.45083881715670815,-3.999620952874287e-18,-0.45083881715670804,0.21355136448877549,0.9533056327589617,0.21355136448877537,500.0,70.71428571428592,[1.36578435]
-7.203347578245918e-18,0.44833749908118287,6.457762366757961e-18,0.44833749908118287,8.911788915373107e-19,-0.015015694248859412,6.457762366757961e-18,-0.015015694248859412,-6.639275773602539e-18,0.4485888809992339,-6.2072698441504664e-18,-0.4485888809992341,0.21107081328151914,0.9544098823678202,0.2110708132815192,500.0,70.71428571428592,[1.36728207]
-9.127909521791527e-18,0.4445519021149689,8.177837934577224e-18,0.4445519021149689,9.240875225753027e-19,-0.017382845813298978,8.177837934577224e-18,-0.017382845813298978,-9.053992016018935e-18,0.44489162388452064,-8.413547334243751e-18,-0.4448916238845207,0.20728648899837362,0.9560672690545652,0.20728648899837362,500.0,70.71428571428592,[1.36728207]
-1.1100498502280155e-17,0.4382152874330952,9.859301356021776e-18,0.4382152874330952,8.90252869303906e-19,-0.02109658317451728,9.859301356021776e-18,-0.02109658317451728,-1.1553765586462935e-17,0.43872280994006835,-1.0606429359870693e-17,-0.4387228099400684,0.20117829631490505,0.9586733469663504,0.20117829631490503,500.0,70.71428571428592,[1.36999914]
-1.3118664203942267e-17,0.4264804571382194,1.1481973758765608e-17,0.4264804571382194,6.823024550426423e-19,-0.02756501181420771,1.1481973758765608e-17,-0.02756501181420771,-1.4237491950074086e-17,0.4273703431418026,-1.2741540648674415e-17,-0.4273703431418026,0.1900078631684683,0.9632206517035986,0.19000786316846827,500.0,70.71428571428592,[1.36349755]
-1.5329726563295364e-17,0.3987938164228878,1.291448729716259e-17,0.3987938164228878,-3.592383361771858e-20,-0.041233101666470456,1.291448729716259e-17,-0.041233101666470456,-1.7430475961062025e-17,0.4009197883494521,-1.4700679980669717e-17,-0.40091978834945197,0.16366184915409693,0.9728461328817233,0.16366184915409687,500.0,70.71428571428592,[1.31763075]
-1.8615481309824174e-17,0.27039256684259017,1.3642835512251013e-17,0.27039256684259017,-4.549510403792392e-18,-0.07235455361638743,1.3642835512251013e-17,-0.07235455361638743,-2.290115035972632e-17,0.2799059156801645,-1.608292807760683e-17,-0.27990591568016443,0.053077982130770564,0.9971787480817325,0.05307798213077057,500.0,70.71428571428592,[0.92158303]
-1.9334610834477003e-17,0.26496651197705967,1.3775585767339996e-17,0.26496651197705967,-4.5756785468138426e-18,-0.07673899736646311,1.3775585767339996e-17,-0.07673899736646311,-2.3517127101572547e-17,0.2758552631111094,-1.5045538489491494e-17,-0.2758552631111093,0.19479713300604554,0.961305442585888,0.1947971330060453,500.0,57.857142857142705,[0.83666614]
-1.6944789885065097e-17,0.3921977081580979,1.3704924243175632e-17,0.3921977081580979,-8.574038534311546e-20,-0.046677078334549704,1.3704924243175632e-17,-0.046677078334549704,-1.975903901623555e-17,0.39496555789880494,-1.6529493820566566e-17,-0.394965557898805,0.30280979453236995,0.9036661201298453,0.3028097945323698,500.0,57.857142857142705,[1.30272365]
-1.572487177588771e-17,0.42089570498966555,1.290688344907522e-17,0.42089570498966555,6.04769090780988e-19,-0.032327030633443284,1.290688344907522e-17,-0.032327030633443284,-1.825680044168106e-17,0.42213532354959715,-1.6311064980621255e-17,-0.42213532354959726,0.329248566159878,0.8849806570560335,0.32924856615987813,500.0,57.857142857142705,[1.33235157]
-1.4680757464223517e-17,0.4327269320005827,1.1899268588568677e-17,0.4327269320005827,7.765905952561055e-19,-0.025905521663716322,1.1899268588568677e-17,-0.025905521663716322,-1.7232490022953517e-17,0.43350166520015365,-1.5802905280770224e-17,-0.4335016652001537,0.33975212776002417,0.8770045515076148,0.33975212776002417,500.0,57.857142857142705,[1.33917591]
-1.3704192168946477e-17,0.4387357359896022,1.0820077243589472e-17,0.4387357359896022,7.823682321149382e-19,-0.022576430906882966,1.0820077243589472e-17,-0.022576430906882966,-1.6381882828272375e-17,0.43931622012717797,-1.525417652308095e-17,-0.439316220127178,0.3449379903710149,0.8729464849563294,0.34493799037101486,500.0,57.857142857142705,[1.34493721]
-1.2757217192131988e-17,0.4419489044188771,9.703528916420163e-18,0.4419489044188771,7.164513464739296e-19,-0.020788442814276144,9.703528916420163e-18,-0.020788442814276144,-1.5622441793840116e-17,0.44243755883931035,-1.4700778708883243e-17,-0.4424375588393102,0.34765622481278663,0.8707871718725777,0.3476562248127866,500.0,57.857142857142705,[1.34617672]
-1.1828683173098602e-17,0.44349502235431343,8.56351208586779e-18,0.44349502235431343,6.017655462780197e-19,-0.019930689444089617,8.56351208586779e-18,-0.019930689444089617,-1.4911903211932898e-17,0.44394263957719793,-1.4142146488907738e-17,-0.443942639577198,0.3489445943344974,0.8697559083843387,0.34894459433449737,500.0,57.857142857142705,[1.34617672]
-1.0933800722540253e-17,0.44384538557540426,7.40618155406994e-18,0.44384538557540426,4.436014787250975e-19,-0.01974108964078432,7.40618155406994e-18,-0.01974108964078432,-1.4221916759525172e-17,0.4442841848600789,-1.3566097342620275e-17,-0.4442841848600788,0.34922852413257705,0.8695279615195616,0.34922852413257693,500.0,57.857142857142705,[1.34617672]
-1.0034831586165586e-17,0.4431668281740218,6.2392699378709055e-18,0.4431668281740218,2.735006003969699e-19,-0.020124504048898085,6.2392699378709055e-18,-0.020124504048898085,-1.3563402875063866e-17,0.4436235264918184,-1.2986720335146645e-17,-0.44362352649181835,0.34865570851262173,0.8699875825798457,0.3486557085126217,500.0,57.857142857142705,[1.34617672]
-9.160043420637681e-18,0.4414251335722392,5.0554178113608e-18,0.4414251335722392,8.617226409574764e-20,-0.02109737682248541,5.0554178113608e-18,-0.02109737682248541,-1.2941787863367323e-17,0.44192900771284443,-1.2443726542077455e-17,-0.4419290077128444,0.34719187468527907,0.8711576231113649,0.3471918746852792,500.0,57.857142857142705,[1.34493721]
-8.300652395031838e-18,0.43837411394962544,3.854252116083364e-18,0.43837411394962544,-1.4694157893544452e-19,-0.022792996117965054,3.854252116083364e-18,-0.022792996117965054,-1.2340932706901599e-17,0.43896626801287686,-1.1921063639265183e-17,-0.4389662680128768,0.3446076812202357,0.8732073591581926,0.34460768122023555,500.0,57.857142857142705,[1.34493721]
-7.471428232775499e-18,0.4334218616476768,2.6265311766448486e-18,0.4334218616476768,-4.157323163221141e-19,-0.025531466096930647,2.6265311766448486e-18,-0.025531466096930647,-1.178769125556656e-17,0.43417319806178334,-1.1450863788906244e-17,-0.43417319806178345,0.3403446020165953,0.87654498102284,0.3403446020165953,500.0,57.857142857142705,[1.33917591]
-6.678543355599533e-18,0.4252089182506029,1.3610122352715938e-18,0.4252089182506029,-7.626936378477878e-19,-0.03003479090928876,1.3610122352715938e-18,-0.03003479090928876,-1.1301191233846879e-17,0.4262683577569564,-1.10749402780406e-17,-0.4262683577569563,0.3330824660213862,0.8821066498208843,0.3330824660213861,500.0,57.857142857142705,[1.33917591]
-5.988232596692897e-18,0.41015139219558905,3.3302356084870254e-21,0.41015139219558905,-1.2822125124220833e-18,-0.03812256785052607,3.3302356084870254e-21,-0.03812256785052607,-1.0970903081735706e-17,0.4119192817767795,-1.0970819015608471e-17,-0.41191928177677944,0.31917775686321104,0.8923290419164548,0.31917775686321104,500.0,57.857142857142705,[1.30184438]
-5.55214421852586e-18,0.375376321579008,-1.5892769807621126e-18,0.375376321579008,-2.3096345778188986e-18,-0.05551168332340847,-1.5892769807621126e-18,-0.05551168332340847,-1.1050979231512091e-17,0.37945873265427066,-1.1437422558824715e-17,-0.37945873265427066,0.2845676539886558,0.9154466126469556,0.28456765398865574,500.0,57.857142857142705,[1.30962736]
-6.6067465599717676e-18,0.23111312570357043,-4.07893796448727e-18,0.23111312570357043,-7.139838615368051e-18,-0.09388905425720404,-4.07893796448727e-18,-0.09388905425720404,-1.304057204686509e-17,0.24945627148217073,-1.637725144230829e-17,-0.2494562714821707,0.12319551737142759,0.9847059099036486,0.1231955173714276,500.0,57.857142857142705,[0.86758396]
-6.436089273434727e-18,0.2243180198198278,-4.277521643985925e-18,0.2243180198198278,-7.121179333604021e-18,-0.09549229497229152,-4.277521643985925e-18,-0.09549229497229152,-1.2459647962355198e-17,0.24379776950366824,-1.14697521288982e-17,-0.2437977695036683,0.2642061186814864,0.9275722363797488,0.2642061186814866,500.0,45.00000000000011,[0.82111262]
-4.414994215030836e-18,0.3670597967648372,-2.041296650731768e-18,0.3670597967648372,-2.275391626904676e-18,-0.057573976112523975,-2.041296650731768e-18,-0.057573976112523975,-9.914532951923197e-18,0.3715476512191256,-1.0087009143588732e-17,-0.37154765121912553,0.41648200390558887,0.8081370433568618,0.41648200390558865,500.0,45.00000000000011,[1.29024557]
-3.9241340726036e-18,0.40303441587219124,-7.085167004585456e-19,0.40303441587219124,-1.2182541836764473e-18,-0.04002178312281803,-7.085167004585456e-19,-0.04002178312281803,-9.258641074907317e-18,0.4050166459563955,-9.434592229053044e-18,-0.40501664595639575,0.44814532485715985,0.7735189303548694,0.4481453248571598,500.0,45.00000000000011,[1.31482374]
-3.689107245158908e-18,0.41815095536452884,3.779786945659428e-19,0.41815095536452884,-6.603261854846234e-19,-0.0320307961565802,3.779786945659428e-19,-0.0320307961565802,-8.970334717027473e-18,0.41937595707752795,-8.891392714121012e-18,-0.4193759570775281,0.46035085308498935,0.759048209356853,0.46035085308498946,500.0,45.00000000000011,[1.31234573]
-3.601743737583508e-18,0.42589428279623043,1.3718890884088207e-18,0.42589428279623043,-2.7167134217109716e-19,-0.027744564790573887,1.3718890884088207e-18,-0.027744564790573887,-8.82796204435607e-18,0.42679702552142273,-8.631626985685618e-18,-0.42679702552142273,0.46643919029101943,0.7515776496951706,0.4664391902910195,500.0,45.00000000000011,[1.34021325]
-3.5493120672762216e-18,0.4300722601440428,2.3218469431356608e-18,0.4300722601440428,1.598640271092952e-20,-0.025292348508335658,2.3218469431356608e-18,-0.025292348508335658,-8.745253288882659e-18,0.4308153338014702,-8.46017276402735e-18,-0.4308153338014702,0.46978354747029283,0.7474000515469972,0.46978354747029283,500.0,45.00000000000011,[1.3164389]
-3.518280386596295e-18,0.4321217487125403,3.251389915721207e-18,0.4321217487125403,2.797556884903076e-19,-0.023934421274744433,3.251389915721207e-18,-0.023934421274744433,-8.703767492826134e-18,0.4327840826926756,-8.323520672382563e-18,-0.4327840826926757,0.4715831101021024,0.7451300158582101,0.47158311010210247,500.0,45.00000000000011,[1.3164389]
-3.531066117324527e-18,0.4326476258374399,4.157566393095322e-18,0.4326476258374399,5.044725367801384e-19,-0.023347653078491244,4.157566393095322e-18,-0.023347653078491244,-8.683995394644279e-18,0.4332771411545354,-8.209107902600787e-18,-0.43327714115453525,0.472330448438041,0.7441827026722929,0.4723304484380409,500.0,45.00000000000011,[1.32563107]
-3.5631491445630086e-18,0.431867393816246,5.04927201773707e-18,0.431867393816246,7.150640353397075e-19,-0.02340523394245423,5.04927201773707e-18,-0.02340523394245423,-8.689726929108659e-18,0.43250115701294645,-8.138518811436489e-18,-0.43250115701294667,0.47220932620714795,0.7443364188899952,0.4722093262071481,500.0,45.00000000000011,[1.3164389]
-3.610120595646832e-18,0.42974310075956906,5.924987000367249e-18,0.42974310075956906,8.887905755396257e-19,-0.024107122189985845,5.924987000367249e-18,-0.024107122189985845,-8.716120814889154e-18,0.4304187333176056,-8.047227212142236e-18,-0.4304187333176055,0.4712108781174541,0.7456008427352772,0.471210878117454,500.0,45.00000000000011,[1.3164389]
-3.685953205483244e-18,0.4259692191057753,6.78554277382375e-18,0.4259692191057753,1.031014872688651e-18,-0.025580045385286777,6.78554277382375e-18,-0.025580045385286777,-8.759336245606527e-18,0.4267365866052468,-7.912162504096486e-18,-0.4267365866052468,0.46912918447612295,0.7482216359779604,0.46912918447612295,500.0,45.00000000000011,[1.31845846]
-3.8004482371503835e-18,0.4198070510917805,7.617332242879466e-18,0.4198070510917805,1.1341909716487684e-18,-0.028147054619642432,7.617332242879466e-18,-0.028147054619642432,-8.834566874752153e-18,0.42074958922159145,-7.80166389893721e-18,-0.42074958922159145,0.4654312285803162,0.752826369705814,0.46543122858031605,500.0,45.00000000000011,[1.30332787]
-3.977718832684785e-18,0.4095635286176138,8.406593577833962e-18,0.4095635286176138,1.1575410395702216e-18,-0.03254780609288961,8.406593577833962e-18,-0.03254780609288961,-8.966188681002204e-18,0.4108547719756597,-7.599003531259749e-18,-0.41085477197565956,0.45881872165167276,0.7609012822461594,0.45881872165167276,500.0,45.00000000000011,[1.3179023]
-4.274707278273987e-18,0.3908124786103867,9.101903532019531e-18,0.3908124786103867,1.0051212243835973e-18,-0.04065299664178514,9.101903532019531e-18,-0.04065299664178514,-9.198315826809591e-18,0.3929211874836368,-7.335872427745127e-18,-0.3929211874836365,0.4455848820613469,0.776471651611797,0.44558488206134667,500.0,45.00000000000011,[1.32005196]
-4.971105672898705e-18,0.34803939317487714,9.555455709170306e-18,0.34803939317487714,3.5996749588715127e-19,-0.05831913190636433,9.555455709170306e-18,-0.05831913190636433,-9.742370713659193e-18,0.3528916835912238,-6.5737253930040065e-18,-0.35289168359122397,0.41049460038297836,0.8142409754567977,0.4104946003829783,500.0,45.00000000000011,[0.82446867]
-7.524249918741604e-18,0.18633998131253496,9.106629292407229e-18,0.18633998131253496,-4.0922562573583185e-18,-0.09635161446802658,9.106629292407229e-18,-0.09635161446802658,-1.1784679232462312e-17,0.2097766008070277,-3.936641971077575e-18,-0.20977660080702784,0.21448618792161556,0.9528858013328285,0.21448618792161556,500.0,45.00000000000011,[0.80980504]
-7.95855779064012e-18,0.17952108216396243,9.16405909816829e-18,0.17952108216396243,-4.058460552661546e-18,-0.0948549652149121,9.16405909816829e-18,-0.0948549652149121,-1.038720225530705e-17,0.20304010285468818,-3.958262608372477e-18,-0.2030401028546882,0.35361924301830655,0.865971628827596,0.35361924301830644,500.0,32.14285714285738,[0.7285575]
-5.607746885711368e-18,0.33964898391248455,9.59217335183274e-18,0.33964898391248455,4.608119794956348e-19,-0.056587844100707954,9.59217335183274e-18,-0.056587844100707954,-6.1555662715286995e-18,0.34433067881434726,-3.1815472410381453e-18,-0.34433067881434737,0.5287579897726963,0.6639502816499702,0.5287579897726961,500.0,32.14285714285738,[0.67231783]
-5.192905882348674e-18,0.38357198968680517,9.127011849881148e-18,0.38357198968680517,1.1838162249328153e-18,-0.03930752943713626,9.127011849881148e-18,-0.03930752943713626,-3.397528147185498e-18,0.38558079975894266,-1.5747276689882713e-18,-0.3855807997589427,0.557253599355475,0.6155784694177784,0.5572535993554752,500.0,32.14285714285738,[1.24158847]
-5.1809001829380795e-18,0.4023326777475003,8.423378028890246e-18,0.4023326777475003,1.4059386212313736e-18,-0.03132755954644731,8.423378028890246e-18,-0.03132755954644731,-9.148410779683348e-19,0.40355049197171117,3.647721850506353e-19,-0.4035504919717114,0.567713006717147,0.5961575999753365,0.567713006717147,500.0,32.14285714285738,[1.23750139]
-5.302313753248613e-18,0.41205744077155065,7.632292734835677e-18,0.41205744077155065,1.4343758499200279e-18,-0.026931098988223906,7.632292734835677e-18,-0.026931098988223906,1.4785832769870056e-18,0.4129365793774069,2.449733385423992e-18,-0.41293657937740713,0.5729143212474533,0.5861214558597387,0.5729143212474533,500.0,32.14285714285738,[1.23951237]
-5.5137361547334915e-18,0.4173964445778986,6.798352350618078e-18,0.4173964445778986,1.403598527278461e-18,-0.02429850927503845,6.798352350618078e-18,-0.02429850927503845,3.826375799860552e-18,0.4181031086936093,4.583075891731431e-18,-0.4181031086936093,0.5758490106752807,0.580341135719846,0.5758490106752809,500.0,32.14285714285738,[1.23951237]
-5.763007032326346e-18,0.42012019337965395,5.937712850973951e-18,0.42012019337965395,1.3283763767341138e-18,-0.022707721992372493,5.937712850973951e-18,-0.022707721992372493,6.152988776739984e-18,0.4207334281031644,6.756092237743267e-18,-0.42073342810316433,0.5775473968233941,0.5769558118652083,0.577547396823394,500.0,32.14285714285738,[1.23012468]
-6.0584693296853874e-18,0.4209803912052395,5.062847318209378e-18,0.4209803912052395,1.2140000454848753e-18,-0.021838561829103324,5.062847318209378e-18,-0.021838561829103324,8.451401925766565e-18,0.42154645362294324,8.937048480347787e-18,-0.4215464536229431,0.5784309097960895,0.575182897159622,0.5784309097960895,500.0,32.14285714285738,[1.23012468]
-6.352168077978466e-18,0.42025391761522035,4.173542727467233e-18,0.42025391761522035,1.0812590638660408e-18,-0.02155766787198099,4.173542727467233e-18,-0.02155766787198099,1.0746423634281678e-17,0.42080647370854346,1.1125414885473027e-17,-0.4208064737085434,0.5786655617488691,0.5747106535394413,0.578665561748869,500.0,32.14285714285738,[1.23012468]
-6.687242400511447e-18,0.417906593437866,3.270558973387117e-18,0.417906593437866,9.32103510171704e-19,-0.021848523964636483,3.270558973387117e-18,-0.021848523964636483,1.3017942660052324e-17,0.41847733372104556,1.3306922226570842e-17,-0.4184773337210455,0.5782664283239194,0.5755135756409182,0.5782664283239194,500.0,32.14285714285738,[1.23951237]
-7.05216139954534e-18,0.4135822594234367,2.349831626481066e-18,0.4135822594234367,7.342129563275803e-19,-0.02280619989288553,2.349831626481066e-18,-0.02280619989288553,1.5280474368467578e-17,0.4142105842000531,1.546819427366053e-17,-0.4142105842000531,0.5771026545674675,0.5778451801151974,0.5771026545674675,500.0,32.14285714285738,[1.23951237]
-7.46849463673308e-18,0.4064086708568767,1.4098726922246758e-18,0.4064086708568767,4.961338324225679e-19,-0.02469271187753544,1.4098726922246758e-18,-0.02469271187753544,1.7528795941139785e-17,0.40715812378917376,1.7610965833530832e-17,-0.4071581237891737,0.5748069335987253,0.5824036213603595,0.5748069335987253,500.0,32.14285714285738,[1.23750139]
-7.962017059961817e-18,0.3943845137710551,4.31136875020295e-19,0.3943845137710551,1.7930545984128215e-19,-0.028118872331746158,4.31136875020295e-19,-0.028118872331746158,1.9730485206779315e-17,0.3953856543725891,1.963595442325639e-17,-0.39538565437258905,0.5704537332082505,0.5909019178658504,0.5704537332082503,500.0,32.14285714285738,[1.23750139]
-8.625111508763926e-18,0.37230255955101865,-6.255130486344104e-19,0.37230255955101865,-3.0031205729043946e-19,-0.03463596521554949,-6.255130486344104e-19,-0.03463596521554949,2.1870280683084565e-17,0.37391021105962385,2.1536273464132493e-17,-0.3739102110596239,0.561301772467444,0.6081781321700179,0.5613017724674438,500.0,32.14285714285738,[1.22385617]
-9.798007295249816e-18,0.32220775640340305,-1.8814355381416623e-18,0.32220775640340305,-1.281794941309109e-18,-0.04908016536508929,-1.8814355381416623e-18,-0.04908016536508929,2.3804894008446037e-17,0.32592437914151057,2.230980085457068e-17,-0.32592437914151073,0.5352453966896579,0.6534712929005076,0.5352453966896581,500.0,32.14285714285738,[0.67231783]
-1.3208846846442825e-17,0.14495296050769774,-3.87382841156694e-18,0.14495296050769774,-6.063997377719079e-18,-0.07923522558924936,-3.87382841156694e-18,-0.07923522558924936,2.461575352033278e-17,0.1651955863034041,1.4952602065036174e-17,-0.16519558630340417,0.3449142353002353,0.8729652573696778,0.3449142353002353,500.0,32.14285714285738,[0.32662588]
-1.3342469602594641e-17,0.13946148104914524,-3.8063451043396975e-18,0.13946148104914524,-6.11754822339515e-18,-0.07493389175201791,-3.8063451043396975e-18,-0.07493389175201791,2.505209625653818e-17,0.1583180117027884,1.476137866700753e-17,-0.15831801170278814,0.4773936125529113,0.7376928069239671,0.47739361255291113,500.0,19.285714285714306,[0.34641172]
-9.725023495443037e-18,0.3154083061852192,-2.0695968970185137e-18,0.3154083061852192,-1.4257615910209006e-18,-0.043894544582817906,-2.0695968970185137e-18,-0.043894544582817906,2.4633863812664016e-17,0.31844800306292054,2.3254051607053865e-17,-0.31844800306292076,0.6288642210429242,0.45723033908977745,0.628864221042924,500.0,19.285714285714306,[0.69394383]
-8.39991985880249e-18,0.3663777672605747,-1.0529405355952879e-18,0.3663777672605747,-5.249271623649263e-19,-0.030306243641018863,-1.0529405355952879e-18,-0.030306243641018863,2.3102153620064874e-17,0.3676290749471165,2.273596641352269e-17,-0.3676290749471165,0.6459020170482992,0.40696580783387365,0.6459020170482991,500.0,19.285714285714306,[0.87120736]
-7.55694340527215e-18,0.3884200371613185,-2.1377097403906976e-19,0.3884200371613185,-1.5085127395007055e-19,-0.023915630030029306,-2.1377097403906976e-19,-0.023915630030029306,2.1405687247418644e-17,0.38915560207728384,2.129846282181112e-17,-0.38915560207728384,0.6518123616659204,0.38766130882381206,0.6518123616659203,500.0,19.285714285714306,[0.88542384]
-6.92315100248912e-18,0.39998084892807306,5.610714396158902e-19,0.39998084892807306,7.528997935457658e-20,-0.020277774455995514,5.610714396158902e-19,-0.020277774455995514,1.9650616782734258e-17,0.4004945288591471,1.9653500726177593e-17,-0.40049452885914727,0.6547455636290332,0.37764599007032884,0.6547455636290334,500.0,19.285714285714306,[0.88628786]
-6.368040019572134e-18,0.4064470716582459,1.2998628406339516e-18,0.4064470716582459,2.1745916559529055e-19,-0.01798454454239192,1.2998628406339516e-18,-0.01798454454239192,1.7868143478717215e-17,0.406844768802501,1.7932053916598918e-17,-0.40684476880250103,0.6564501511069215,0.37168050557353666,0.6564501511069215,500.0,19.285714285714306,[0.88628786]
-5.869633922006882e-18,0.4098821371574589,2.020772871555301e-18,0.4098821371574589,3.154717963766988e-19,-0.016474546121223663,2.020772871555301e-18,-0.016474546121223663,1.6058335164177744e-17,0.41021308734688894,1.6185751154676355e-17,-0.4102130873468888,0.6575085492124794,0.3679198491859351,0.6575085492124791,500.0,19.285714285714306,[0.88713507]
-5.412196425820157e-18,0.411168741812351,2.729045547270795e-18,0.411168741812351,3.841823811390286e-19,-0.015493974924001492,2.729045547270795e-18,-0.015493974924001492,1.4248052047966668e-17,0.41146056615731397,1.4423316501141255e-17,-0.41146056615731397,0.6581586501943163,0.36558772182444943,0.6581586501943163,500.0,19.285714285714306,[0.88829884]
-4.9645262783064585e-18,0.41064009372735477,3.421802382646326e-18,0.41064009372735477,4.134844271581071e-19,-0.014929334077548168,3.421802382646326e-18,-0.014929334077548168,1.2429358159287155e-17,0.41091139141232114,1.2657142251259718e-17,-0.4109113914123212,0.6585005198670387,0.3643544025666208,0.6585005198670387,500.0,19.285714285714306,[0.88829884]
-4.569491287530734e-18,0.4082725510170859,4.1177090183968814e-18,0.4082725510170859,4.286780806494811e-19,-0.014750904892135578,4.1177090183968814e-18,-0.014750904892135578,1.0596216734028787e-17,0.4085389395261313,1.0871506198701719e-17,-0.40853893952613124,0.6585587060718842,0.3641440117781032,0.6585587060718842,500.0,19.285714285714306,[0.88628786]
-4.214068321928949e-18,0.4036780638987355,4.797090860255312e-18,0.4036780638987355,4.0290313276232877e-19,-0.01500326986834489,4.797090860255312e-18,-0.01500326986834489,8.764296227354549e-18,0.4039567766231605,9.104029794757996e-18,-0.40395677662316043,0.658291855132678,0.3651077470171718,0.6582918551326779,500.0,19.285714285714306,[0.88628786]
-3.91426498071523e-18,0.3958905403474119,5.4596723536800616e-18,0.3958905403474119,3.368378715989435e-19,-0.01583551460006842,5.4596723536800616e-18,-0.01583551460006842,6.9090426099614155e-18,0.3962071219188455,7.324791030450519e-18,-0.39620712191884533,0.6575588343508759,0.36774006952497623,0.657558834350876,500.0,19.285714285714306,[0.88628786]
-3.70508092996792e-18,0.3826868430427582,6.099285316240898e-18,0.3826868430427582,2.0999799647006227e-19,-0.017608628197894764,6.099285316240898e-18,-0.017608628197894764,5.0445642743770895e-18,0.3830917430917095,5.578367258881229e-18,-0.3830917430917095,0.6559862106164109,0.3733151255470959,0.655986210616411,500.0,19.285714285714306,[0.88842845]
-3.711592495749937e-18,0.35829461906982846,6.6975269438624716e-18,0.35829461906982846,-1.0025098151897675e-19,-0.021247230110317546,6.6975269438624716e-18,-0.021247230110317546,3.1259585482297447e-18,0.35892405720674986,3.8855178531120074e-18,-0.35892405720674986,0.6524308300466064,0.38557492658287923,0.6524308300466064,500.0,19.285714285714306,[0.7529567]
-4.248254042284541e-18,0.3030026628979069,7.171014432269715e-18,0.3030026628979069,-9.27626808696567e-19,-0.029609300434868355,7.171014432269715e-18,-0.029609300434868355,1.0874314855969115e-18,0.3044459301673532,2.4333742555753268e-18,-0.3044459301673533,0.6415487807337178,0.42051197828142756,0.6415487807337179,500.0,19.285714285714306,[0.69181664]
-7.327682026696952e-18,0.1151521934678323,7.228143247685384e-18,0.1151521934678323,-5.531982104685186e-18,-0.04591527861265578,7.228143247685384e-18,-0.04591527861265578,-1.819846978453414e-18,0.12396870762628319,1.6595766139218476e-18,-0.12396870762628323,0.5334606787599417,0.6563835833062589,0.5334606787599419,500.0,19.285714285714306,[0.30366724]
-7.443804949809596e-18,0.11207449282988612,7.465900184741807e-18,0.11207449282988612,-5.50661412965941e-18,-0.03966067341431675,7.465900184741807e-18,-0.03966067341431675,-2.3274777942098565e-18,0.11888507458362178,2.3858857013355384e-18,-0.11888507458362176,0.635995447919246,0.437057868539162,0.6359954479192463,500.0,6.428571428571418,[0.30945124]
-4.3149975915502195e-18,0.2991381015157231,7.31821142906868e-18,0.2991381015157231,-8.515228836192383e-19,-0.02199489285824106,7.31821142906868e-18,-0.02199489285824106,-7.059622568670568e-19,0.29994562688973575,3.3007402821960782e-19,-0.29994562688973564,0.6949633455839808,0.18453155987375366,0.6949633455839808,500.0,6.428571428571418,[0.33843589]
-3.719731952977459e-18,0.35485452843551696,6.784263034943251e-18,0.35485452843551696,1.3023131564034869e-20,-0.014788303052875658,6.784263034943251e-18,-0.014788303052875658,5.724751583356994e-20,0.3551625406182032,6.169669466110923e-19,-0.3551625406182031,0.6987547392068317,0.15324369113273403,0.6987547392068318,500.0,6.428571428571418,[0.28238041]
-3.7110498652681025e-18,0.37916384006863185,6.161170626973899e-18,0.37916384006863185,3.7441503246600245e-19,-0.011251446880810981,6.161170626973899e-18,-0.011251446880810981,7.115242193058633e-19,0.379330743115428,1.0744997362584886e-18,-0.37933074311542797,0.7000031652134292,0.1413900186801086,0.7000031652134292,500.0,6.428571428571418,[0.3478803]
-3.892288446200921e-18,0.39204957122051876,5.499932991851819e-18,0.39204957122051876,5.488707323758862e-19,-0.00909167385172739,5.499932991851819e-18,-0.00909167385172739,1.3309369143202717e-18,0.39215497552322204,1.5836846090520668e-18,-0.392154975523222,0.7006362921915829,0.13497248655952887,0.7006362921915829,500.0,6.428571428571418,[0.3470417]
-4.164146317600149e-18,0.39938380046940775,4.83079330033802e-18,0.39938380046940775,6.554976220564217e-19,-0.0075912562032628954,4.83079330033802e-18,-0.0075912562032628954,1.9367838472888105e-18,0.3994559390572772,2.117779555076941e-18,-0.39945593905727717,0.7010291854360255,0.13082875193857577,0.7010291854360253,500.0,6.428571428571418,[0.3470417]
-4.51685613079276e-18,0.4034241736717623,4.1421358686807254e-18,0.4034241736717623,7.287527371041178e-19,-0.006460665548094776,4.1421358686807254e-18,-0.006460665548094776,2.5329990892047818e-18,0.4034759027526532,2.6639712739404698e-18,-0.40347590275265316,0.7013028304432025,0.12786195690941501,0.7013028304432025,500.0,6.428571428571418,[0.3470417]
-4.914604273977658e-18,0.4051426199883235,3.454741748613953e-18,0.4051426199883235,7.577834678822789e-19,-0.005562737978540896,3.454741748613953e-18,-0.005562737978540896,3.116869487659012e-18,0.40518080727598754,3.210073021997008e-18,-0.40518080727598754,0.7015074795854958,0.12559662484004072,0.701507479585496,500.0,6.428571428571418,[0.3470417]
-5.3378560498087914e-18,0.4049144897397849,2.7608360627651626e-18,0.4049144897397849,7.653802946279659e-19,-0.004826320068645946,2.7608360627651626e-18,-0.004826320068645946,3.6993833099086546e-18,0.40494325203247344,3.76388624629501e-18,-0.40494325203247344,0.701667135185687,0.12380009208648135,0.7016671351856871,500.0,6.428571428571418,[0.3470417]
-5.795836176477351e-18,0.4027313743155957,2.0620636597824167e-18,0.4027313743155957,7.442177058364092e-19,-0.004214376381783886,2.0620636597824167e-18,-0.004214376381783886,4.275928196858115e-18,0.40275342435094924,4.317869215577285e-18,-0.4027534243509492,0.7017937360357188,0.12235646334401921,0.7017937360357187,500.0,6.428571428571418,[0.3470417]
-6.281490457719485e-18,0.3981984087124026,1.3646478330042578e-18,0.3981984087124026,7.024351587351307e-19,-0.0037121713423097207,1.3646478330042578e-18,-0.0037121713423097207,4.8389073217617055e-18,0.3982157115398188,4.86343699005252e-18,-0.39821571153981894,0.701892079468641,0.12122300754548943,0.7018920794686412,500.0,6.428571428571418,[0.3470417]
-6.85233772460968e-18,0.3903139580281594,6.623144174844712e-19,0.3903139580281594,6.066608786912909e-19,-0.0033263307143899666,6.623144174844712e-19,-0.0033263307143899666,5.404328283833553e-18,0.390328131586271,5.4147307678698575e-18,-0.39032813158627094,0.7019604425694576,0.12042870976383627,0.7019604425694577,500.0,6.428571428571418,[0.34617768]
-7.517602695339127e-18,0.3767634353651625,-4.283389365983343e-20,0.3767634353651625,4.25150982517555e-19,-0.003096520783736698,-4.283389365983343e-20,-0.003096520783736698,5.947230080909256e-18,0.3767761599001761,5.945626399512181e-18,-0.3767761599001761,0.7019862492228078,0.12012748146942684,0.7019862492228081,500.0,6.428571428571418,[0.3478803]
-8.395578814947811e-18,0.35153724018725174,-7.555959887523824e-19,0.35153724018725174,8.546430088897882e-20,-0.003137563027016932,-7.555959887523824e-19,-0.003137563027016932,6.466798767266065e-18,0.3515512416991556,6.4521669830965206e-18,-0.3515512416991555,0.7019260641500741,0.12082880837603555,0.701926064150074,500.0,6.428571428571418,[0.28094274]
-9.860681115901734e-18,0.2942002459426649,-1.4845691694897456e-18,0.2942002459426649,-7.596826745687006e-19,-0.003763184334412799,-1.4845691694897456e-18,-0.003763184334412799,6.887337390688024e-18,0.29422431284490974,6.846641741711447e-18,-0.29422431284490963,0.7015905561194422,0.12466508383674628,0.7015905561194422,500.0,6.428571428571418,[0.28171633]
-1.392823920773529e-17,0.10281072436165031,-2.226887668639733e-18,0.10281072436165031,-5.4165374696748354e-18,-0.002992667241577314,-2.226887668639733e-18,-0.002992667241577314,6.539511251831926e-18,0.10285427118494422,6.392637952311753e-18,-0.10285427118494421,0.7000595774141435,0.14083030973999036,0.7000595774141436,500.0,6.428571428571418,[0.12737925]
-1.4163740836851588e-17,0.10275331143165599,-1.7558674532045813e-18,0.10275331143165599,-5.4241342964205224e-18,0.003975297296160934,-1.7558674532045813e-18,0.003975297296160934,6.028624653184474e-18,0.10283018038865709,6.1331783760014614e-18,-0.10283018038865707,0.6990747258818681,0.1502965577329754,0.699074725881868,500.0,6.428571428571418,[0.12737925]
-1.0537883957231547e-17,0.294028135442883,-6.963983946247187e-19,0.294028135442883,-7.727058061327355e-19,0.00476847979224031,-6.963983946247187e-19,0.00476847979224031,5.349793920409157e-18,0.29406679994781343,5.368492788680306e-18,-0.2940667999478135,0.7012844494817783,0.1280634289330053,0.7012844494817783,500.0,6.428571428571418,[0.28171633]
-9.525335478127836e-18,0.35125068278695226,3.8255448969352424e-19,0.35125068278695226,7.108459312035699e-20,0.0041655081180862865,3.8255448969352424e-19,0.0041655081180862865,3.904226316801286e-18,0.35127538145475273,3.893328473142725e-18,-0.35127538145475273,0.7016724102003438,0.12374028255697966,0.7016724102003438,500.0,6.428571428571418,[0.28094274]
-9.104254224224042e-18,0.37636277672999685,1.4788376350253656e-18,0.37636277672999685,3.9937603463040266e-19,0.004147205745071855,1.4788376350253656e-18,0.004147205745071855,2.362070487426824e-18,0.37638562542079823,2.328068293815506e-18,-0.37638562542079845,0.7017456427153563,0.12290689915550962,0.7017456427153564,500.0,6.428571428571418,[0.3478803]
-8.883946248599119e-18,0.3897996380664133,2.58261586388755e-18,0.3897996380664133,5.697620059265255e-19,0.0043998559622837625,2.58261586388755e-18,0.0043998559622837625,7.938683949242922e-19,0.3898244689205587,7.34309757012299e-19,-0.3898244689205588,0.7017223019953426,0.12317313735029496,0.7017223019953426,500.0,6.428571428571418,[0.34617768]
-8.787358022832527e-18,0.3975709606781164,3.684664458088886e-18,0.3975709606781164,6.630944488021087e-19,0.004808625735378935,3.684664458088886e-18,0.004808625735378935,-7.954962863697966e-19,0.3976000398088301,-8.858089018953143e-19,-0.3976000398088302,0.7016517496566447,0.1239743699622541,0.7016517496566449,500.0,6.428571428571418,[0.3470417]
-8.748288628140422e-18,0.40199142377277547,4.796158214114659e-18,0.40199142377277547,7.070475178307264e-19,0.0053338319084365576,4.796158214114659e-18,0.0053338319084365576,-2.3892020115185634e-18,0.402026808247523,-2.5175505292126775e-18,-0.402026808247523,0.7015484097878033,0.125138553005894,0.7015484097878033,500.0,6.428571428571418,[0.3470417]
-8.7276686698307e-18,0.40406275339861264,5.912976531743435e-18,0.40406275339861264,7.189853884310917e-19,0.00596883040563157,5.912976531743435e-18,0.00596883040563157,-3.986706150040174e-18,0.40410683688905746,-4.1624738665716085e-18,-0.4041068368890576,0.7014146027337326,0.12662981538231768,0.7014146027337327,500.0,6.428571428571418,[0.3470417]
-8.75480019392244e-18,0.40417990442555835,7.025233361884288e-18,0.40417990442555835,7.092180397580655e-19,0.0067283383267918075,7.025233361884288e-18,0.0067283383267918075,-5.594520267716645e-18,0.4042359034995448,-5.8291056594514784e-18,-0.40423590349954475,0.7012455364305124,0.1284888916310144,0.7012455364305124,500.0,6.428571428571418,[0.3470417]
-8.827512678488301e-18,0.4023513739429567,8.141865150284934e-18,0.4023513739429567,6.658076012112826e-19,0.007649373051459815,8.141865150284934e-18,0.007649373051459815,-7.20721805972963e-18,0.4024240810660632,-7.51688292377496e-18,-0.40242408106606314,0.7010287921896923,0.1308329661901863,0.7010287921896923,500.0,6.428571428571418,[0.3470417]
-8.937124035818928e-18,0.39820189865793043,9.269078233081358e-18,0.39820189865793043,5.920098556817517e-19,0.00880307078774277,9.269078233081358e-18,0.00880307078774277,-8.821001112706284e-18,0.39829919175172174,-9.229646234343914e-18,-0.3982991917517217,0.7007391957855409,0.13389980948331037,0.7007391957855409,500.0,6.428571428571418,[0.3470417]
-9.098827919405694e-18,0.39075963497513416,1.0401412391050098e-17,0.39075963497513416,4.92165847024151e-19,0.010326579622052315,1.0401412391050098e-17,0.010326579622052315,-1.0451605710619816e-17,0.3908960610860523,-1.099929115308263e-17,-0.39089606108605235,0.7003238950436526,0.1381770026515776,0.7003238950436527,500.0,6.428571428571418,[0.34617768]
-9.36363159454107e-18,0.3777670213000564,1.1549923720258538e-17,0.3777670213000564,2.8867941633610623e-19,0.01250941473345271,1.1549923720258538e-17,0.01250941473345271,-1.2097946592506557e-17,0.37797408355453527,-1.2859930055297208e-17,-0.3779740835545352,0.6996554748191427,0.14479099803233456,0.6996554748191428,500.0,6.428571428571418,[0.3478803]
-9.849828506265038e-18,0.35335206277045933,1.2734045174837387e-17,0.35335206277045933,-6.837144071118306e-20,0.016069297017701503,1.2734045174837387e-17,0.016069297017701503,-1.3773589520412379e-17,0.35371726360298245,-1.4932082583583086e-17,-0.3537172636029825,0.6983384556126804,0.1569930024714245,0.6983384556126805,500.0,6.428571428571418,[0.29972953]
-1.088516746560581e-17,0.2975313113028414,1.4004071817571702e-17,0.2975313113028414,-9.409212555015192e-19,0.023298892393335963,1.4004071817571702e-17,0.023298892393335963,-1.556644063239451e-17,0.2984421545163224,-1.7716060343457082e-17,-0.2984421545163224,0.6943353887477923,0.18920025334259943,0.6943353887477927,500.0,6.428571428571418,[0.397407]
-1.4473040211497416e-17,0.11036480654148968,1.566519938008844e-17,0.11036480654148968,-5.602117094462332e-18,0.04098776786259905,1.566519938008844e-17,0.04098776786259905,-1.8215562644711936e-17,0.11773014752941897,-2.79716321431026e-17,-0.11773014752941897,0.6311379996718282,0.45092089188735357,0.6311379996718283,500.0,6.428571428571418,[0.30945124]
-1.4481722299206773e-17,0.11334110952545037,1.604683818084387e-17,0.11334110952545037,-5.476226822676662e-18,0.04728389102422228,1.604683818084387e-17,0.04728389102422228,-1.8958966404825593e-17,0.12280868641448234,-3.0017255203931305e-17,-0.12280868641448232,0.5260542921532665,0.6682318186185473,0.5260542921532666,500.0,19.28571428571425,[0.30366724]
-1.1208575232779343e-17,0.301093007170867,1.4584686433134924e-17,0.301093007170867,-5.534830914714819e-19,0.031042641299042727,1.4584686433134924e-17,0.031042641299042727,-1.753564665097295e-17,0.3026890228369981,-2.041824378389923e-17,-0.30268902283699817,0.6399558626828018,0.4253386740420176,0.6399558626828018,500.0,19.28571428571425,[0.69394383]
-1.0420675773155233e-17,0.35628803444449,1.3535713882938054e-17,0.35628803444449,5.751883107448733e-19,0.022744373049224057,1.3535713882938054e-17,0.022744373049224057,-1.697890777661046e-17,0.3570132630501567,-1.8658933185084363e-17,-0.3570132630501566,0.6511921283273165,0.38974045723927553,0.6511921283273165,500.0,19.28571428571425,[0.75444669]
-1.0207964624275997e-17,0.380585122399963,1.2609138420800042e-17,0.380585122399963,1.1872754942545121e-18,0.019168965577124664,1.2609138420800042e-17,0.019168965577124664,-1.655402810933382e-17,0.3810675591460022,-1.7794601273727706e-17,-0.3810675591460022,0.654833364970501,0.3773413948175063,0.6548333649705009,500.0,19.28571428571425,[0.88712646]
-1.019928253656664e-17,0.3936955597489936,1.1724989879460486e-17,0.3936955597489936,1.634403011286376e-18,0.017458482817447652,1.1724989879460486e-17,0.017458482817447652,-1.6164419423376445e-17,0.39408246901931654,-1.7186544141658243e-17,-0.3940824690193165,0.6564247172621602,0.3717703338549032,0.6564247172621603,500.0,19.28571428571425,[0.88628786]
-1.0292614979442224e-17,0.40139176434954854,1.0869532924847945e-17,0.40139176434954854,2.0109885656797175e-18,0.016688287604143804,1.0869532924847945e-17,0.016688287604143804,-1.57986864786198e-17,0.4017385311751938,-1.669254607955363e-17,-0.40173853117519387,0.6571488059273387,0.3692030521766389,0.6571488059273387,500.0,19.28571428571425,[0.88628786]
-1.0433698904719268e-17,0.4058969309892905,1.0026488642507376e-17,0.4058969309892905,2.3387373767079283e-18,0.016497358476097693,1.0026488642507376e-17,0.016497358476097693,-1.5441092991090675e-17,0.40623205366294496,-1.624654427373118e-17,-0.4062320536629449,0.6573913861400981,0.3683383374800953,0.6573913861400982,500.0,19.28571428571425,[0.88628786]
-1.0618193268543095e-17,0.40817720422012654,9.193788253726782e-18,0.40817720422012654,2.624161010153026e-18,0.016736573873727376,9.193788253726782e-18,0.016736573873727376,-1.509923578753476e-17,0.40852018671050955,-1.5838894630552773e-17,-0.4085201867105096,0.6572979963860355,0.36867151760585737,0.6572979963860356,500.0,19.28571428571425,[0.88628786]
-1.0843927548986367e-17,0.40862068230448995,8.372143961013572e-18,0.40862068230448995,2.9084993826344538e-18,0.017361315273524924,8.372143961013572e-18,0.017361315273524924,-1.4759549105906183e-17,0.4089893363830085,-1.5465816249392577e-17,-0.4089893363830085,0.6569109791811497,0.3700485520340895,0.6569109791811495,500.0,19.28571428571425,[0.88628786]
-1.1084855482921012e-17,0.4072510520333863,7.55941915684552e-18,0.4072510520333863,3.1385747069324035e-18,0.01840126684631105,7.55941915684552e-18,0.01840126684631105,-1.443722659969632e-17,0.40766656228325737,-1.5110370430246203e-17,-0.4076665622832574,0.6562043835863226,0.37254746533051153,0.6562043835863224,500.0,19.28571428571425,[0.88628786]
-1.1364852811547761e-17,0.40373514709814956,6.7541894362078134e-18,0.40373514709814956,3.355626899666318e-18,0.019969893537977113,6.7541894362078134e-18,0.019969893537977113,-1.411164831059545e-17,0.4042287293727186,-1.4773008987173692e-17,-0.4042287293727187,0.6550737674885008,0.37650593394638887,0.6550737674885007,500.0,19.28571428571425,[0.88628786]
-1.1703454232212668e-17,0.3971903105226614,5.972157168668542e-18,0.3971903105226614,3.52709813192611e-18,0.022320971734064596,5.972157168668542e-18,0.022320971734064596,-1.3812116284622648e-17,0.3978170038500629,-1.4466180297385907e-17,-0.39781700385006286,0.6532711303149061,0.3827187748127467,0.6532711303149059,500.0,19.28571428571425,[0.88628786]
-1.2137558617680497e-17,0.38555314918516603,5.2252263104229586e-18,0.38555314918516603,3.615004269983345e-18,0.026015875013011995,5.2252263104229586e-18,0.026015875013011995,-1.3540801043705255e-17,0.38642988574810244,-1.4247348234957994e-17,-0.3864298857481025,0.650189098380501,0.3930754033188827,0.650189098380501,500.0,19.28571428571425,[0.88842845]
-1.2758327888899494e-17,0.3634368369301126,4.541410160095784e-18,0.3634368369301126,3.537950741562806e-18,0.03246273255904151,4.541410160095784e-18,0.03246273255904151,-1.332591937289868e-17,0.3648837670313179,-1.4140688633867117e-17,-0.3648837670313179,0.6440019974975606,0.41294412992353235,0.6440019974975607,500.0,19.28571428571425,[0.86965517]
-1.3867464593769797e-17,0.31239570897529056,4.0441910667095465e-18,0.31239570897529056,2.9529950821449063e-18,0.0461065313051623,4.0441910667095465e-18,0.0461065313051623,-1.3283594195315567e-17,0.31577981445172904,-1.4608599269778372e-17,-0.315779814451729,0.6261745262623143,0.46455454504324073,0.6261745262623142,500.0,19.28571428571425,[0.69394383]
-1.7273013497764913e-17,0.13637978089142952,4.25615609867626e-18,0.13637978089142952,-1.4325444720438354e-18,0.07720094528671523,4.25615609867626e-18,0.07720094528671523,-1.4353661505493763e-17,0.1567144874896916,-3.0211231191183346e-17,-0.15671448748969186,0.4657753566203712,0.7524005810273755,0.4657753566203714,500.0,19.28571428571425,[0.34523972]
-1.656759387137969e-17,0.1418059981404787,4.327308520606846e-18,0.1418059981404787,-1.4021571650610874e-18,0.08156936411296596,4.327308520606846e-18,0.08156936411296596,-1.4227771233708093e-17,0.1635924884290568,-1.5459462566829027e-17,-0.1635924884290567,0.3314090736134032,0.8833663180433198,0.3314090736134034,500.0,32.142857142857125,[0.32662588]
-1.2259107845611489e-17,0.3190035781566688,3.866310011883081e-18,0.3190035781566688,3.049583307911498e-18,0.05150222192191722,3.866310011883081e-18,0.05150222192191722,-1.2415385424379909e-17,0.3231342781873384,-1.3656072029876596e-17,-0.32313427818733853,0.5311102203933874,0.660184722321999,0.5311102203933874,500.0,32.142857142857125,[0.67231783]
-1.0205794102348658e-17,0.3690429943228576,4.144849021089899e-18,0.3690429943228576,3.7137630176772764e-18,0.03714397501374333,4.144849021089899e-18,0.03714397501374333,-1.1732756278231746e-17,0.3709075444616924,-1.2621747808906682e-17,-0.37090754446169255,0.5580403093831506,0.6141514684563699,0.5580403093831505,500.0,32.142857142857125,[1.22580266]
-8.621313095391082e-18,0.3910716663658637,4.618768918162356e-18,0.3910716663658637,3.854846942954321e-18,0.0307113817529609,4.618768918162356e-18,0.0307113817529609,-1.1256326715180804e-17,0.39227571579610876,-1.1970664927649809e-17,-0.3922757157961088,0.5674336184713464,0.5966893473634575,0.5674336184713465,500.0,32.142857142857125,[1.23750139]
-7.225667496112012e-18,0.4030447206378577,5.170997176644595e-18,0.4030447206378577,3.83097120175359e-18,0.02736836966279048,5.170997176644595e-18,0.02736836966279048,-1.0845012809950036e-17,0.4039728635589871,-1.1515334588143449e-17,-0.403972863558987,0.57186178210392,0.5881736175125992,0.5718617821039202,500.0,32.142857142857125,[1.23750139]
-5.91250173007183e-18,0.41016941185007927,5.757919871559145e-18,0.41016941185007927,3.722445105386633e-18,0.025563665099212,5.757919871559145e-18,0.025563665099212,-1.0471683038447703e-17,0.4109652629976707,-1.1160724197253971e-17,-0.41096526299767067,0.5741636233304276,0.5836713692551232,0.5741636233304275,500.0,32.142857142857125,[1.23951237]
-4.640575880651091e-18,0.41444706562103706,6.370414027930161e-18,0.41444706562103706,3.583531702036928e-18,0.0246864438152331,6.370414027930161e-18,0.0246864438152331,-1.0116802703327753e-17,0.41518163580550005,-1.0858314963644392e-17,-0.4151816358055001,0.5752962880840002,0.5814364641416485,0.5752962880840002,500.0,32.142857142857125,[1.23951237]
-3.4120604697771357e-18,0.4167499320230419,6.99688091920842e-18,0.4167499320230419,3.4077194259224574e-18,0.02447467176863285,6.99688091920842e-18,0.02447467176863285,-9.773860238808168e-18,0.41746798128646034,-1.055967832713185e-17,-0.41746798128646034,0.5756391303586532,0.5807574219929243,0.5756391303586533,500.0,32.142857142857125,[1.23951237]
-2.192227146612536e-18,0.41743417221691287,7.633115159159707e-18,0.41743417221691287,3.1993493208978996e-18,0.024833260431917883,7.633115159159707e-18,0.024833260431917883,-9.448281949707297e-18,0.41817218816905893,-1.0335953054733984e-17,-0.41817218816905877,0.5753268187507685,0.581376042894993,0.5753268187507685,500.0,32.142857142857125,[1.23951237]
-1.0223158277767371e-18,0.4165339652968056,8.291529420055991e-18,0.4165339652968056,2.9801266062366456e-18,0.025778708399277327,8.291529420055991e-18,0.025778708399277327,-9.13464153120679e-18,0.4173309071379873,-1.0136825235641336e-17,-0.41733090713798743,0.5743428390198788,0.5833186149379862,0.5743428390198788,500.0,32.142857142857125,[1.23951237]
1.3891340334970526e-19,0.4137724308671816,8.961237177855461e-18,0.4137724308671816,2.7131524091739308e-18,0.02744436159059771,8.961237177855461e-18,0.02744436159059771,-8.842706331979675e-18,0.4146815857122813,-9.958708912448771e-18,-0.41468158571228125,0.5725139566016506,0.586903347232444,0.5725139566016507,500.0,32.142857142857125,[1.23951237]
1.2371974985833124e-18,0.40839786506674264,9.660653954535386e-18,0.40839786506674264,2.4071088174191114e-18,0.03015038478212042,9.660653954535386e-18,0.03015038478212042,-8.568135308171273e-18,0.4095092940258904,-9.932310071038851e-18,-0.4095092940258904,0.5694012311643826,0.5929287275018563,0.5694012311643827,500.0,32.142857142857125,[1.2383486]
2.2725364579240844e-18,0.3986397686567893,1.0397173090410764e-17,0.3986397686567893,2.0337790459167785e-18,0.03461884472365637,1.0397173090410764e-17,0.03461884472365637,-8.344571549655341e-18,0.4001401374078075,-1.0084928360587974e-17,-0.4001401374078077,0.563931518565346,0.6032930338874846,0.563931518565346,500.0,32.142857142857125,[1.23750139]
3.1667914919878124e-18,0.3798479970820293,1.1226990754756611e-17,0.3798479970820293,1.4911485640819924e-18,0.04266940111294423,1.1226990754756611e-17,0.04266940111294423,-8.214340234014993e-18,0.3822370713033558,-1.0630481060849424e-17,-0.3822370713033558,0.5529863825324429,0.6232271828694296,0.5529863825324429,500.0,32.142857142857125,[1.2624541]
3.633453706365728e-18,0.33589624385634026,1.2292750935485246e-17,0.33589624385634026,4.210812539037941e-19,0.06001899408927326,1.2292750935485246e-17,0.06001899408927326,-8.356509420255707e-18,0.3412163042533084,-1.2152520247130352e-17,-0.3412163042533082,0.5232162930057331,0.6726733393458358,0.5232162930057332,500.0,32.142857142857125,[0.67231783]
2.1878861027578578e-18,0.1757423012926502,1.4246220670090476e-17,0.1757423012926502,-4.430035253699194e-18,0.09835454834939579,1.4246220670090476e-17,0.09835454834939579,-9.967036690341352e-18,0.2013925858730907,-2.0418738622822217e-17,-0.20139258587309097,0.3387407902598262,0.8777866221515893,0.3387407902598262,500.0,32.142857142857125,[0.7398483]
2.30943533068885e-18,0.18253873871782395,1.4158518018463928e-17,0.18253873871782395,-4.549413959702847e-18,0.0999266319143068,1.4158518018463928e-17,0.0999266319143068,-1.0318661242570294e-17,0.2081002712598697,-1.767494854983758e-17,-0.2081002712598697,0.19849110792449035,0.9597929777560453,0.19849110792449043,500.0,45.0,[0.79377699]
3.3599679435209963e-18,0.3442281482002937,1.1875230694118492e-17,0.3442281482002937,7.379774552953092e-20,0.06198783983403186,1.1875230694118492e-17,0.06198783983403186,-8.798210632469223e-18,0.34976493577929313,-1.2441230771675415e-17,-0.3497649357792931,0.40347141679227644,0.8212317770661743,0.40347141679227655,500.0,45.0,[0.82069953]
2.5329990892047818e-18,0.38699259180647594,1.0491455136629558e-17,0.38699259180647594,9.072781656277625e-19,0.04441302787817625,1.0491455136629558e-17,0.04441302787817625,-8.787358022832527e-18,0.38953277546106624,-1.0969433208580162e-17,-0.3895327754610661,0.43973137244075194,0.7831172582587781,0.43973137244075217,500.0,45.0,[1.31918794]
1.321847853749539e-18,0.4057368433776231,9.353864245868044e-18,0.4057368433776231,1.2263448889466167e-18,0.036397406544120235,9.353864245868044e-18,0.036397406544120235,-9.069525873386616e-18,0.4073661219065423,-1.0749287113824454e-17,-0.40736612190654237,0.45332615670754844,0.7674573547041729,0.45332615670754844,500.0,45.0,[1.31482374]
-2.1705219273391446e-20,0.4159755157068277,8.313743355406103e-18,0.4159755157068277,1.3761109019330177e-18,0.032084608116913306,8.313743355406103e-18,0.032084608116913306,-9.462390342235001e-18,0.4172110398174732,-1.0678915847125695e-17,-0.4172110398174734,0.4600680122916498,0.7593911035375782,0.4600680122916498,500.0,45.0,[1.32173342]
-1.426032906261818e-18,0.4221348004480071,7.306858581956542e-18,0.4221348004480071,1.4520791693898878e-18,0.02960396383494205,7.306858581956542e-18,0.02960396383494205,-9.916029425048882e-18,0.4231715779964662,-1.0870517632368417e-17,-0.4231715779964663,0.4637963145723634,0.7548416768953519,0.46379631457236353,500.0,45.0,[1.3388844]
-2.8781120756517058e-18,0.425907762542574,6.329784570602781e-18,0.425907762542574,1.4824664763726358e-18,0.02821581633303744,6.329784570602781e-18,0.02821581633303744,-1.0392458988099824e-17,0.42684136922908644,-1.1206601690240841e-17,-0.42684136922908655,0.46585450108526694,0.7523025771836714,0.46585450108526694,500.0,45.0,[1.34021325]
-4.349725942387646e-18,0.4280330899777272,5.37263527225389e-18,0.4280330899777272,1.47161386673594e-18,0.02759710279206754,5.37263527225389e-18,0.02759710279206754,-1.0892764292351497e-17,0.42892181828207004,-1.1527952963357516e-17,-0.42892181828206993,0.46679367907827274,0.7511373525162631,0.46679367907827274,500.0,45.0,[1.34021325]
-5.843045028396977e-18,0.42881629887130795,4.4289499927355246e-18,0.42881629887130795,1.4542496913172269e-18,0.027621079266836844,4.4289499927355246e-18,0.027621079266836844,-1.14169453378039e-17,0.42970494783927227,-1.1961611273496486e-17,-0.4297049478392723,0.46682639055221553,0.7510966929550288,0.4668263905522154,500.0,45.0,[1.34021325]
-7.353728289825022e-18,0.4282953302455885,3.503001947092134e-18,0.4282953302455885,1.39564559927907e-18,0.028287768906336122,3.503001947092134e-18,0.028287768906336122,-1.1957405297711348e-17,0.42922847969336336,-1.2405040737569713e-17,-0.4292284796933635,0.4659611142590235,0.7521705125814083,0.4659611142590235,500.0,45.0,[1.34021325]
-8.890457814381136e-18,0.4262526732400817,2.5956559526541422e-18,0.4262526732400817,1.3109952441128433e-18,0.029723962696147622,2.5956559526541422e-18,0.029723962696147622,-1.2521740998819527e-17,0.4272877899059108,-1.2895500204455281e-17,-0.42728778990591104,0.4640066015357589,0.7545831613960592,0.4640066015357589,500.0,45.0,[1.34991395]
-1.045323360206532e-17,0.4220834467903897,1.7151192954593005e-18,0.4220834467903897,1.1785934065451555e-18,0.032252773395711455,1.7151192954593005e-18,0.032252773395711455,-1.3131657660401826e-17,0.42331392304786153,-1.3395854844679087e-17,-0.42331392304786136,0.46045104137834186,0.7589266611387435,0.4604510413783418,500.0,45.0,[1.34075101]
-1.2063760872150966e-17,0.4143507966395789,8.724141571698774e-19,0.4143507966395789,9.74564345375276e-19,0.03661391640816209,8.724141571698774e-19,0.03661391640816209,-1.3795837370167605e-17,0.41596533695801796,-1.3924028760182452e-17,-0.41596533695801796,0.4540485067744243,0.7666028352359722,0.45404850677442443,500.0,45.0,[1.31683472]
-1.3791496326312926e-17,0.39924689733228524,1.2819645133346823e-19,0.39924689733228524,6.012345738729431e-19,0.0446781433018702,1.2819645133346823e-19,0.0446781433018702,-1.4607612570992443e-17,0.40173899676078084,-1.446594752388692e-17,-0.4017389967607807,0.44129242728400864,0.7813590642230855,0.44129242728400864,500.0,45.0,[1.31482374]
-1.5823104850302364e-17,0.36328702794631196,-3.73889359186725e-19,0.36328702794631196,-2.8867941633610623e-19,0.062302001712706015,-3.73889359186725e-19,0.062302001712706015,-1.5792717543319616e-17,0.36859056430065384,-1.5572473341516765e-17,-0.36859056430065396,0.4082918221261042,0.8164530457839516,0.4082918221261042,500.0,45.0,[1.29681917]
-1.9352373504155813e-17,0.22056273232984153,2.341789673168249e-20,0.22056273232984153,-4.968324691679302e-18,0.10029088639870806,2.341789673168249e-20,0.10029088639870806,-1.8859665026649828e-17,0.24229358387593317,-2.091100424847276e-17,-0.24229358387593322,0.24819445073031512,0.9363754745044076,0.24819445073031493,500.0,45.0,[0.81811279]
-1.8822766153885062e-17,0.2273757049158714,-2.0554673079876129e-19,0.2273757049158714,-5.037781393354155e-18,0.09876331227490959,-2.0554673079876129e-19,0.09876331227490959,-1.822153158001212e-17,0.24789897748377424,-1.7122607016326114e-17,-0.2478989774837739,0.10652535413691133,0.9885872231887339,0.10652535413691128,500.0,57.8571428571429,[0.86951357]
-1.4833346851435714e-17,0.37167113092523335,-9.153497940450549e-19,0.37167113092523335,-4.731737801599335e-19,0.06047814229340058,-9.153497940450549e-19,0.06047814229340058,-1.3268400541824193e-17,0.37655947107794663,-1.3080487719689699e-17,-0.3765594710779466,0.27516034879442186,0.9211805278568714,0.2751603487944219,500.0,57.8571428571429,[1.30962736]
-1.2302518284158272e-17,0.4064790906147496,-7.321017846091919e-19,0.4064790906147496,2.8433837248142795e-19,0.043178793241581484,-7.321017846091919e-19,0.043178793241581484,-1.022532879969471e-17,0.4087660202277007,-1.0036853147148325e-17,-0.4087660202277007,0.31085424859307514,0.8981866578074232,0.31085424859307526,500.0,57.8571428571429,[1.30144742]
-1.0062539655144274e-17,0.42157091330186064,-3.137506403171291e-19,0.42157091330186064,5.339483941254296e-19,0.03517888757879449,-3.137506403171291e-19,0.03517888757879449,-7.590315179904989e-18,0.4230361557520189,-7.479776563269634e-18,-0.42303615575201875,0.32511166587710427,0.8880342388789007,0.32511166587710444,500.0,57.8571428571429,[1.31963181]
-7.909381903223843e-18,0.42981974197632133,2.0242660552821127e-19,0.42981974197632133,6.142577054369779e-19,0.030761622565295535,2.0242660552821127e-19,0.030761622565295535,-5.105067573101668e-18,0.4309191200392961,-5.1941794917988376e-18,-0.43091912003929606,0.33250312004000837,0.8825436818239196,0.3325031200400084,500.0,57.8571428571429,[1.33917591]
-5.7996345898501944e-18,0.4348095191841797,7.516788749616375e-19,0.4348095191841797,6.185987492916562e-19,0.02810737815746777,7.516788749616375e-19,0.02810737815746777,-2.6957882337552176e-18,0.43571704428455005,-2.8079359454237996e-18,-0.43571704428455,0.3367972090377483,0.8792811154396339,0.33679720903774824,500.0,57.8571428571429,[1.33917591]
-3.6985693641859024e-18,0.43789972073144345,1.3210127115235902e-18,0.43789972073144345,5.838703984542299e-19,0.026494098491146187,1.3210127115235902e-18,0.026494098491146187,-3.3208985488288913e-19,0.4387004703342987,-4.981491670458491e-19,-0.4387004703342987,0.3393585123657973,0.8773092956134377,0.3393585123657973,500.0,57.8571428571429,[1.34493721]
-1.632232489359037e-18,0.4396822603928022,1.9146568176018053e-18,0.4396822603928022,5.10072652924699e-19,0.02560161701097807,1.9146568176018053e-18,0.02560161701097807,2.0033917389340305e-18,0.44042698929300517,1.787163731599069e-18,-0.44042698929300494,0.3407640556432296,0.8762189890450651,0.3407640556432295,500.0,57.8571428571429,[1.34493721]
4.167402100491158e-19,0.4404033278745829,2.5224941022205115e-18,0.4404033278745829,4.1891073197645496e-19,0.025296578560355845,2.5224941022205115e-18,0.025296578560355845,4.308486025768202e-18,0.44112924193468245,4.0046248716002054e-18,-0.4411292419346824,0.34125053351463286,0.8758402518450251,0.3412505335146328,500.0,57.8571428571429,[1.34493721]
2.4570308217479117e-18,0.4400971404434659,3.145435750060876e-18,0.4400971404434659,2.9519098211812367e-19,0.025562470159682275,3.145435750060876e-18,0.025562470159682275,6.594045615256322e-18,0.4408388967720301,6.2313553939701725e-18,-0.44083889677203014,0.34085287320394037,0.8761498945141962,0.34085287320394037,500.0,57.8571428571429,[1.34493721]
4.484298301882673e-18,0.43859686572268103,3.7818546645462634e-18,0.43859686572268103,1.3891340334970526e-19,0.026494362441863654,3.7818546645462634e-18,0.026494362441863654,8.840535810052336e-18,0.4393963607757355,8.359167480580969e-18,-0.43939636077573546,0.339417579763075,0.8772635938505332,0.3394175797630751,500.0,57.8571428571429,[1.34493721]
6.4811784750346866e-18,0.4354312140274573,4.438195907429913e-18,0.4354312140274573,-6.294513589283519e-20,0.028354270221534014,4.438195907429913e-18,0.028354270221534014,1.1043615566301568e-17,0.43635341959152907,1.0445276050686344e-17,-0.43635341959152907,0.33650325931500946,0.8795061756126283,0.3365032593150094,500.0,57.8571428571429,[1.34493721]
8.456353428913307e-18,0.4294716188241955,5.137892477952033e-18,0.4294716188241955,-3.3426037681022827e-19,0.031753001943575145,5.137892477952033e-18,0.031753001943575145,1.3164215489311914e-17,0.4306438487984054,1.2368691736590768e-17,-0.43064384879840545,0.33103322874564417,0.8836481216708766,0.33103322874564417,500.0,57.8571428571429,[1.33917591]
1.0366412724971755e-17,0.4176913493409511,5.908334497543364e-18,0.4176913493409511,-7.813878938420922e-19,0.03824183341036175,5.908334497543364e-18,0.03824183341036175,1.509815052657109e-17,0.41943831624787237,1.4099601087830257e-17,-0.41943831624787214,0.32004854623063705,0.8917050275238507,0.32004854623063705,500.0,57.8571428571429,[1.29122652]
1.2055078784441609e-17,0.389046264839813,6.880757996095777e-18,0.389046264839813,-1.7364175418713157e-18,0.05265691919558709,6.880757996095777e-18,0.05265691919558709,1.6561082305597673e-17,0.3925936160013054,1.4707383196877233e-17,-0.39259361600130543,0.2924998624854559,0.9104326778471754,0.292499862485456,500.0,57.8571428571429,[1.30554105]
1.2623755529404467e-17,0.2618707953409536,8.586788230984344e-18,0.2618707953409536,-6.485519518889365e-18,0.08278194298169848,8.586788230984344e-18,0.08278194298169848,1.5768841802118886e-17,0.27464370288854056,1.0306693335610948e-17,-0.27464370288854023,0.1782423384803093,0.9677082915559534,0.17824233848030913,500.0,57.8571428571429,[0.87262253]
1.3635218747544508e-17,0.267349213022954,8.402353217369468e-18,0.267349213022954,-6.617921356457053e-18,0.07846534061748782,8.402353217369468e-18,0.07846534061748782,1.6463408818867412e-17,0.2786259345111492,1.2179275505877212e-17,-0.2786259345111491,0.0361329916160195,0.9986935535156684,0.03613299161601961,500.0,70.71428571428567,[0.92513066]
1.4607612570992443e-17,0.3958180970530273,6.71473002585689e-18,0.3958180970530273,-2.1249409668650226e-18,0.04742560696690283,6.71473002585689e-18,0.04742560696690283,1.9144003399131256e-17,0.3986491617335459,1.7424202673812043e-17,-0.39864916173354586,0.1524831398233026,0.9764721112961979,0.15248313982330264,500.0,70.71428571428567,[1.31820843]
1.446435812378806e-17,0.42357252645053545,5.7346376324479214e-18,0.42357252645053545,-1.4282034281891572e-18,0.03383610113644203,5.7346376324479214e-18,0.03383610113644203,1.9552061521471015e-17,0.42492183622850577,1.865217961092073e-17,-0.42492183622850555,0.1796544767016896,0.9671858859609584,0.17965447670168957,500.0,70.71428571428567,[1.34520456]
1.41561440101059e-17,0.43537625413587944,4.944041977617195e-18,0.43537625413587944,-1.245879586292669e-18,0.027443475316736046,4.944041977617195e-18,0.027443475316736046,1.9452217512813414e-17,0.4362403317012884,1.8807211981632147e-17,-0.43624033170128845,0.19109280715802535,0.9627912951958651,0.19109280715802537,500.0,70.71428571428567,[1.36579125]
1.378281423860357e-17,0.4417830973597041,4.218443280188742e-18,0.4417830973597041,-1.230685932801295e-18,0.023802763222604002,4.218443280188742e-18,0.023802763222604002,1.9152685486840612e-17,0.4424238653709417,1.8675568092573003e-17,-0.4424238653709416,0.19729624467352103,0.9602855740223595,0.19729624467352103,500.0,70.71428571428567,[1.35395754]
1.3370415072409132e-17,0.44564030650269165,3.5236558198069706e-18,0.44564030650269165,-1.2892900248394519e-18,0.021505784803529878,3.5236558198069706e-18,0.021505784803529878,1.877935571533828e-17,0.44615891962374654,1.842350040069184e-17,-0.4461589196237463,0.20109976417692335,0.9587063000189221,0.20109976417692338,500.0,70.71428571428567,[1.36999914]
1.2949333818505338e-17,0.4480144374979433,2.8475043250357124e-18,0.4480144374979433,-1.3847929896423743e-18,0.019991096071594196,2.8475043250357124e-18,0.019991096071594196,1.834525132987045e-17,0.44846023249418954,1.8081214628995517e-17,-0.44846023249418937,0.20355842201706906,0.9576679683751783,0.203558422017069,500.0,70.71428571428567,[1.36999914]
1.2532593608456223e-17,0.4493664162057745,2.1868686706044176e-18,0.4493664162057745,-1.5237063929920795e-18,0.019004843021387063,2.1868686706044176e-18,0.019004843021387063,1.7874248071637856e-17,0.44976811811408907,1.7687230941224915e-17,-0.44976811811408873,0.20513204326896697,0.9569961805820321,0.20513204326896697,500.0,70.71428571428567,[1.36999914]
1.2107171310697749e-17,0.4498861051321245,1.5325750099295668e-18,0.4498861051321245,-1.6864955375425156e-18,0.018433480014838785,1.5325750099295668e-18,0.018433480014838785,1.7368516462567835e-17,0.45026359032949853,1.7235835927581694e-17,-0.45026359032949853,0.20602279918317595,0.9566134080355854,0.20602279918317604,500.0,70.71428571428567,[1.36867169]
1.1655702749811207e-17,0.4495971826377051,8.868616937487286e-19,0.4495971826377051,-1.8796719890756992e-18,0.01824724104339812,8.868616937487286e-19,0.01824724104339812,1.6843250156151762e-17,0.4499673193038111,1.6763319573551036e-17,-0.44996731930381106,0.20628473748178877,0.9565005040062127,0.2062847374817888,500.0,70.71428571428567,[1.36867169]
1.1199893145069986e-17,0.44836470249433635,2.5374757906799188e-19,0.44836470249433635,-2.0923831379549354e-18,0.018490663005988586,2.5374757906799188e-19,0.018490663005988586,1.6270232367334228e-17,0.4487458201044729,1.623866840063105e-17,-0.44874582010447267,0.205842780936736,0.9566909109385653,0.20584278093673594,500.0,70.71428571428567,[1.36867169]
1.073540145261941e-17,0.44581121534704043,-3.642746253367149e-19,0.44581121534704043,-2.357186813090311e-18,0.019312787676999843,-3.642746253367149e-19,0.019312787676999843,1.563209892069652e-17,0.44622933957446365,1.5657814987226025e-17,-0.44622933957446376,0.20443754788583923,0.9572933604850973,0.20443754788583923,500.0,70.71428571428567,[1.36999914]
1.0229669843549389e-17,0.4410299686341694,-9.608629257089476e-19,0.4410299686341694,-2.6914471899005393e-18,0.021074561779836912,-9.608629257089476e-19,0.021074561779836912,1.4909315118892584e-17,0.4415332041734443,1.4986335192860728e-17,-0.4415332041734444,0.20141985277961738,0.9585718991356228,0.20141985277961738,500.0,70.71428571428567,[1.36999914]
9.708744580987994e-18,0.43155934429308124,-1.510496732199914e-18,0.43155934429308124,-3.1993493208978996e-18,0.024700562111102012,-1.510496732199914e-18,0.024700562111102012,1.398250225591877e-17,0.43226564218692953,1.4145109989882632e-17,-0.43226564218692953,0.19502283517789973,0.9612139135064304,0.1950228351778997,500.0,70.71428571428567,[1.34393806]
9.061929046640929e-18,0.4081113417186156,-1.94283756860178e-18,0.4081113417186156,-4.2238356706019754e-18,0.03304871784183552,-1.94283756860178e-18,0.03304871784183552,1.2495694735691457e-17,0.40944729207842845,1.2831709004887786e-17,-0.40944729207842834,0.17890895149368527,0.9674622339661949,0.17890895149368524,500.0,70.71428571428567,[1.32953764]
7.53605213172151e-18,0.2915320127390142,-1.9555893849248973e-18,0.2915320127390142,-9.035882783512859e-18,0.049339372332863604,-1.9555893849248973e-18,0.049339372332863604,8.493252301678073e-18,0.2956776760492101,9.365539181731992e-18,-0.29567767604921025,0.11889547913681266,0.9857625120086762,0.11889547913681257,500.0,70.71428571428567,[0.91330266]
7.164892882146516e-18,0.29459665968448834,-2.035271279741824e-18,0.29459665968448834,-9.066270090495607e-18,0.04308482948672912,-2.035271279741824e-18,0.04308482948672912,7.388456640662448e-18,0.29773057355461285,8.091726545052216e-18,-0.29773057355461285,0.02334509611659523,0.999454857897351,0.023345096116595243,500.0,83.57142857142856,[0.95139024]
7.69015918856259e-18,0.41194826943667057,-1.6035748170371373e-18,0.41194826943667057,-4.304144981913524e-18,0.025434456201610008,-1.6035748170371373e-18,0.025434456201610008,9.437429340070601e-18,0.41273270800136413,9.620860546140394e-18,-0.412732708001364,0.03571924162985995,0.9987233208225266,0.03571924162985993,500.0,83.57142857142856,[1.43094994]
7.355898811752361e-18,0.4349556976145253,-7.900360671463341e-19,0.4349556976145253,-3.340433246174944e-18,0.018241724672825504,-7.900360671463341e-19,0.018241724672825504,8.962085037983328e-18,0.4353380518704717,9.023534569631314e-18,-0.4353380518704717,0.04965811283846469,0.9975310239078506,0.04965811283846469,500.0,83.57142857142856,[1.45571626]
6.9000892070111415e-18,0.44449278436121165,1.1425763083133716e-19,0.44449278436121165,-2.882453119506384e-18,0.014717171951021981,1.1425763083133716e-19,0.014717171951021981,7.920234512860539e-18,0.44473636066710204,7.911934972465952e-18,-0.444736360667102,0.05587510253495247,0.9968730841152337,0.05587510253495247,500.0,83.57142857142856,[1.44816355]
6.429085948778547e-18,0.44957552536971024,1.0531270648234186e-18,0.44957552536971024,-2.6002852689522953e-18,0.012568096808497081,1.0531270648234186e-18,0.012568096808497081,6.6613317950038356e-18,0.4497511646108754,6.600034388487177e-18,-0.44975116461087544,0.059504382101707665,0.9964529376851613,0.059504382101707665,500.0,83.57142857142856,[1.44816355]
5.929865905490543e-18,0.4525659412396526,2.0096828610828025e-18,0.4525659412396526,-2.3940856858550765e-18,0.011076712644962234,2.0096828610828025e-18,0.011076712644962234,5.311267156198887e-18,0.45270147418928475,5.213379826247219e-18,-0.45270147418928475,0.06195441685111875,0.9961542553567072,0.06195441685111876,500.0,83.57142857142856,[1.43280934]
5.415452208711166e-18,0.45433635311498055,2.9713088609068303e-18,0.45433635311498055,-2.2312965413046407e-18,0.009953431835157898,2.9713088609068303e-18,0.009953431835157898,3.898257381501104e-18,0.4544453680775252,3.768324125915367e-18,-0.4544453680775253,0.0637619130647575,0.9959261201939854,0.06376191306475752,500.0,83.57142857142856,[1.43280934]
4.903209033859128e-18,0.455258432915749,3.940396029856086e-18,0.455258432915749,-2.0923831379549354e-18,0.009061031783045258,3.940396029856086e-18,0.009061031783045258,2.4396666463291986e-18,0.45534859507620845,2.2835050845818393e-18,-0.4553485950762085,0.06517284251950543,0.9957434414525941,0.06517284251950546,500.0,83.57142857142856,[1.43351725]
4.371431161661037e-18,0.45547987923149913,4.9148247176109036e-18,0.45547987923149913,-1.983857041587978e-18,0.008328299682696973,4.9148247176109036e-18,0.008328299682696973,9.46347560319867e-19,0.4555560129779278,7.673904560647727e-19,-0.45555601297792775,0.06631183765959467,0.995593029491677,0.06631183765959467,500.0,83.57142857142856,[1.43351725]
3.876552162227712e-18,0.45500911460756194,5.879214741451777e-18,0.45500911460756194,-1.907888774131108e-18,0.0077181366179887734,5.879214741451777e-18,0.0077181366179887734,-5.795293545995516e-19,0.4550745697232611,-7.777836902517769e-19,-0.45507456972326105,0.06724221732728877,0.9954682156743225,0.06724221732728879,500.0,83.57142857142856,[1.43351725]
3.3208985488288917e-18,0.4537179838906012,6.8638177507409975e-18,0.4537179838906012,-1.8666488575116644e-18,0.007215731882366993,6.8638177507409975e-18,0.007215731882366993,-2.1423051422837357e-18,0.45377535818106085,-2.3592345558365373e-18,-0.45377535818106085,0.06798743627567608,0.9953669760532152,0.06798743627567609,500.0,83.57142857142856,[1.43351725]
2.7847796327761225e-18,0.4512645529591899,7.841502221386823e-18,0.4512645529591899,-1.8579667698023078e-18,0.006827606811491663,7.841502221386823e-18,0.006827606811491663,-3.772367109715433e-18,0.451316200653411,-4.008496638703885e-18,-0.45131620065341094,0.06853178154495512,0.9952923137634235,0.06853178154495514,500.0,83.57142857142856,[1.43351725]
2.2312965413046407e-18,0.4468334825498256,8.825325199358405e-18,0.4468334825498256,-1.9252529495498213e-18,0.00659324715025039,8.825325199358405e-18,0.00659324715025039,-5.5001025638773925e-18,0.4468821231998317,-5.7589160394202624e-18,-0.4468821231998317,0.068795249165601,0.9952559607379832,0.06879524916560104,500.0,83.57142857142856,[1.43351725]
1.6517671867050892e-18,0.4382003405811889,9.81835593831862e-18,0.4382003405811889,-2.1683514054118055e-18,0.006627066879306368,9.81835593831862e-18,0.006627066879306368,-7.449231254627944e-18,0.438250449515905,-7.744270760764283e-18,-0.438250449515905,0.06853640458258697,0.9952916770946011,0.068536404582587,500.0,83.57142857142856,[1.43351725]
9.637117357385802e-19,0.41680088801181053,1.0826444673149752e-17,0.41680088801181053,-2.9215225141984887e-18,0.0072415067102112795,1.0826444673149752e-17,0.0072415067102112795,-9.984400865760065e-18,0.4168637903043006,-1.0357579147345508e-17,-0.41686379030430065,0.0669526963903902,0.9955072440178991,0.06695269639039024,500.0,83.57142857142856,[1.40926475]
-4.861969117239684e-19,0.3037635382374147,1.1854373334972968e-17,0.3037635382374147,-7.468765951973997e-18,0.006450732519643123,1.1854373334972968e-17,0.006450732519643123,-1.5130708355481177e-17,0.30383202450129126,-1.5627889569046174e-17,-0.30383202450129126,0.06423463344105015,0.9958653642603441,0.0642346334410502,500.0,83.57142857142856,[0.95040322]
