stress_11,stress_12,stress_13,stress_21,stress_22,stress_23,stress_31,stress_32,stress_33,e1,e2,e3,anev1,anev2,anev3,temp,miss,velo
2.840127941923271e-17,0.293203135426412,-1.875885445744646e-17,0.293203135426412,-5.641186489154437e-18,-0.04376985021324114,-1.875885445744646e-17,-0.04376985021324114,1.7295803978001974e-17,0.29645215197661934,1.2165490153711747e-17,-0.29645215197661906,0.13244047155870223,0.9823029283202904,0.13244047155870223,1000.0,109.28571428571416,[0.70599641]
2.6862379372749257e-17,0.40987777185592167,-1.648328266026461e-17,0.40987777185592167,-1.0331684374134328e-18,-0.027505284047732607,-1.648328266026461e-17,-0.027505284047732607,1.814339279062791e-17,0.41079962087631167,1.5979178783488714e-17,-0.4107996208763115,0.1883306408673897,0.9638792141243406,0.1883306408673898,1000.0,109.28571428571416,[1.18242489]
2.4453100033402803e-17,0.43341800545490045,-1.4619016289712252e-17,0.43341800545490045,-2.1488167080657534e-19,-0.019193104714060806,-1.4619016289712252e-17,-0.019193104714060806,1.6480772994286125e-17,0.4338427626699205,1.520149432383128e-17,-0.4338427626699206,0.20378712548184066,0.9575706840623814,0.20378712548184072,1000.0,109.28571428571416,[1.21434093]
2.1915759900343343e-17,0.4429793316964045,-1.2882352868403857e-17,0.4429793316964045,1.0201453058493981e-19,-0.015608339216046466,-1.2882352868403857e-17,-0.015608339216046466,1.425924380165451e-17,0.44325422565755246,1.3362895137981591e-17,-0.44325422565755257,0.20989560294052367,0.9549280976767142,0.20989560294052367,1000.0,109.28571428571416,[1.21639312]
1.9326327241027744e-17,0.44785010566321626,-1.1180807813591703e-17,0.44785010566321626,2.3007532429794933e-19,-0.013891837888508314,-1.1180807813591703e-17,-0.013891837888508314,1.1842367635562373e-17,0.4480655089409075,1.1159478761649185e-17,-0.4480655089409076,0.21273738376879148,0.9536695502606863,0.21273738376879156,1000.0,109.28571428571416,[1.2148954]
1.672387145014811e-17,0.45049202738925753,-9.510642062111904e-18,0.45049202738925753,2.973615040454628e-19,-0.013118582995255805,-9.510642062111904e-18,-0.013118582995255805,9.321306416957957e-18,0.4506829971954643,8.77313010757402e-18,-0.4506829971954643,0.21401600805718102,0.9530972125604696,0.2140160080571811,1000.0,109.28571428571416,[1.21427297]
1.413009774697783e-17,0.4518118622260944,-7.857357205777933e-18,0.4518118622260944,3.1255515753683683e-19,-0.01292738605586483,-7.857357205777933e-18,-0.01292738605586483,6.7481526720974014e-18,0.4519967656504289,6.305571684500528e-18,-0.45199676565042896,0.2143582228922894,0.9529433900064155,0.21435822289228942,1000.0,109.28571428571416,[1.21427297]
1.149508412718811e-17,0.4521870503894143,-6.209905627123687e-18,0.4521870503894143,3.017025479001411e-19,-0.013169028657859601,-6.209905627123687e-18,-0.013169028657859601,4.125076922908044e-18,0.4523787703414809,3.7692358181144674e-18,-0.45237877034148066,0.21401439139590536,0.9530979385933434,0.21401439139590533,1000.0,109.28571428571416,[1.21427297]
8.862241029325727e-18,0.45175252202015975,-4.56378942817083e-18,0.45175252202015975,2.6046263128069735e-19,-0.013798821094675383,-4.56378942817083e-18,-0.013798821094675383,1.4824664763726358e-18,0.4519632159979149,1.2115775739289386e-18,-0.4519632159979149,0.21305660040211072,0.9535270158994923,0.21305660040211072,1000.0,109.28571428571416,[1.2148954]
6.2250568876086675e-18,0.45048458194525604,-2.9411631940605243e-18,0.45048458194525604,1.9534697346052304e-19,-0.01484638526437449,-2.9411631940605243e-18,-0.01484638526437449,-1.1992133648548774e-18,0.4507291578385077,-1.3879537111288773e-18,-0.4507291578385077,0.21143175406327822,0.9542500860610131,0.21143175406327824,1000.0,109.28571428571416,[1.21639312]
3.5639970046908755e-18,0.44819335396695326,-1.3251545082482198e-18,0.44819335396695326,9.116192094824407e-20,-0.016425125597423172,-1.3251545082482198e-18,-0.016425125597423172,-3.919962600774495e-18,0.44849422213785306,-4.003760768370347e-18,-0.44849422213785306,0.20894285754724207,0.9553458873936631,0.20894285754724207,1000.0,109.28571428571416,[1.21639312]
9.15960253337119e-19,0.4444179061399277,2.732822764140442e-19,0.4444179061399277,-5.2092526256139477e-20,-0.01878875652409744,2.732822764140442e-19,-0.01878875652409744,-6.691719101986584e-18,0.4448148970858772,-6.652952310343342e-18,-0.4448148970858772,0.2051423811235082,0.9569917486237564,0.2051423811235082,1000.0,109.28571428571416,[1.21911019]
-1.7798279804180986e-18,0.43809169352011523,1.830042496491013e-18,0.43809169352011523,-2.582921093533582e-19,-0.022498587117880095,1.830042496491013e-18,-0.022498587117880095,-9.543784914510219e-18,0.4386690305385411,-9.327248155101211e-18,-0.438669030538541,0.19900403865359229,0.959580525646034,0.19900403865359226,1000.0,109.28571428571416,[1.20444737]
-4.549413959702847e-18,0.4263675227704164,3.32975974699026e-18,0.4263675227704164,-6.511565782017434e-19,-0.028962680554361707,3.32975974699026e-18,-0.028962680554361707,-1.2594453483385388e-17,0.4273500922408648,-1.210609324326794e-17,-0.4273500922408649,0.18777230022003713,0.9640970524486384,0.18777230022003713,1000.0,109.28571428571416,[1.21331223]
-7.473106995828675e-18,0.3986918039421288,4.647083207132469e-18,0.3986918039421288,-1.5519231780474886e-18,-0.04262596403658659,4.647083207132469e-18,-0.04262596403658659,-1.6145427356512227e-17,0.40096399756172274,-1.5111618554840445e-17,-0.40096399756172263,0.16126589189456056,0.9736460466837544,0.16126589189456053,1000.0,109.28571428571416,[1.1679112]
-1.1497254649115449e-17,0.27030174378737054,5.249593810497852e-18,0.27030174378737054,-6.241335802063711e-18,-0.0737420950298831,5.249593810497852e-18,-0.0737420950298831,-2.1981960819127187e-17,0.28018017287789937,-1.7791976905761573e-17,-0.2801801728778994,0.04964501364281882,0.9975323279176515,0.049645013642818855,1000.0,109.28571428571416,[0.70448218]
2.8199420879990167e-17,0.2961862277096596,-1.7945553108391458e-17,0.2961862277096596,-5.6802558838465415e-18,-0.03743423857880638,-1.7945553108391458e-17,-0.03743423857880638,1.679766919567764e-17,0.2985424654933587,1.2553178539448445e-17,-0.2985424654933589,0.009560628433636247,0.9999085902060789,0.009560628433636151,1000.0,96.42857142857144,[0.69044486]
2.6002852689522956e-17,0.41343680844470326,-1.459910005530866e-17,0.41343680844470326,-1.1460355776350684e-18,-0.019742414550620924,-1.459910005530866e-17,-0.019742414550620924,1.6931156294208998e-17,0.41390790945478545,1.5561655868624645e-17,-0.4139079094547854,0.045565502423684213,0.997921625167906,0.04556550242368426,1000.0,96.42857142857144,[1.15706677]
2.2933734684265402e-17,0.4363445989504105,-1.1636100223654925e-17,0.4363445989504105,-4.1239916619443753e-19,-0.012505284834248936,-1.1636100223654925e-17,-0.012505284834248936,1.45414116522086e-17,0.4365237578666025,1.3881005524695773e-17,-0.43652375786660247,0.059008923626789285,0.9965118633838814,0.059008923626789306,1000.0,96.42857142857144,[1.19227689]
1.9753920060713555e-17,0.44578182480721695,-8.770943450757025e-18,0.44578182480721695,-1.7581227611447071e-19,-0.008938284176975432,-8.770943450757025e-18,-0.008938284176975432,1.1575393438499658e-17,0.4458714256963331,1.1226472460779888e-17,-0.4458714256963331,0.06506885054942675,0.9957570433475994,0.0650688505494268,1000.0,96.42857142857144,[1.19023262]
1.654371813017896e-17,0.4507641278844452,-5.935190467093547e-18,0.4507641278844452,-1.1503766214897466e-19,-0.006750002394049371,-5.935190467093547e-18,-0.006750002394049371,8.402090380729829e-18,0.45081466426874817,8.225843729235492e-18,-0.45081466426874817,0.06864109848154633,0.9952772474032013,0.06864109848154633,1000.0,96.42857142857144,[1.19023262]
1.3311810980370975e-17,0.45365346680932445,-3.1132236891091846e-18,0.45365346680932445,-1.3023131564034868e-19,-0.005223105693549839,-3.1132236891091846e-18,-0.005223105693549839,5.131113836229738e-18,0.4536835337338187,5.06054913268904e-18,-0.45368353373381864,0.0710760981521831,0.9949353629974778,0.07107609815218312,1000.0,96.42857142857144,[1.19023262]
1.0071221742853631e-17,0.4553221785973709,-3.0584010532413135e-19,0.4553221785973709,-1.9968801731520133e-19,-0.004068232139626992,-3.0584010532413135e-19,-0.004068232139626992,1.799362677764151e-18,0.4553403527422077,1.7945579007935202e-18,-0.4553403527422077,0.07288976845851268,0.9946728926175322,0.07288976845851268,1000.0,96.42857142857144,[1.19023262]
6.821950417626932e-18,0.4561419792555709,2.4984742247980435e-18,0.4561419792555709,-2.9519098211812367e-19,-0.003148299066099697,2.4984742247980435e-18,-0.003148299066099697,-1.5779694411755583e-18,0.4561528439308466,-1.5430852602264058e-18,-0.4561528439308465,0.07431929539284086,0.9944613037542605,0.07431929539284085,1000.0,96.42857142857144,[1.18558725]
3.574849614327571e-18,0.4562606241784741,5.305383006911491e-18,0.4562606241784741,-4.102286442670984e-19,-0.0023921916765542567,5.305383006911491e-18,-0.0023921916765542567,-4.992200432880033e-18,0.4562668953110099,-4.9363293985108936e-18,-0.45626689531100995,0.07548572650889085,0.9942855777827869,0.07548572650889082,1000.0,96.42857142857144,[1.18558725]
3.1906672331885426e-19,0.4556865994917041,8.104779748292038e-18,0.4556865994917041,-5.513125695441427e-19,-0.0017628836886737632,8.104779748292038e-18,-0.0017628836886737632,-8.434648209639916e-18,0.4556900094529312,-8.371811942569748e-18,-0.45569000945293114,0.07645193287078547,0.994137919969177,0.07645193287078544,1000.0,96.42857142857144,[1.18558725]
-2.9497392992538975e-18,0.4542918177434653,1.0893374751643561e-17,0.4542918177434653,-7.249543237312743e-19,-0.0012456188210383458,1.0893374751643561e-17,-0.0012456188210383458,-1.1922676946873921e-17,0.45429352541601237,-1.1862873166476683e-17,-0.4542935254160124,0.07724393078563084,0.994015467844223,0.07724393078563081,1000.0,96.42857142857144,[1.18558725]
-6.212033756044633e-18,0.45173441528826164,1.3683428074415017e-17,0.45173441528826164,-9.44177038392528e-19,-0.0008469580671330228,1.3683428074415017e-17,-0.0008469580671330228,-1.54758213419281e-17,0.4517352092695398,-1.5424478543508876e-17,-0.4517352092695399,0.077853283144416,0.9939203854470796,0.07785328314441595,1000.0,96.42857142857144,[1.18558725]
-9.506886041745453e-18,0.44719912534936107,1.6473311825160897e-17,0.44719912534936107,-1.2480501082200082e-18,-0.0006064138564982937,1.6473311825160897e-17,-0.0006064138564982937,-1.9120127657930525e-17,0.44719953650579614,-1.9075433398163984e-17,-0.4471995365057961,0.07821794195248559,0.9938631229266107,0.07821794195248552,1000.0,96.42857142857144,[1.18551303]
-1.281693198093765e-17,0.43846158985868444,1.926216118655078e-17,0.43846158985868444,-1.7103712787432462e-18,-0.0006384148862482877,1.926216118655078e-17,-0.0006384148862482877,-2.2983656688594202e-17,0.43846205463525834,-2.2927542465424676e-17,-0.43846205463525834,0.0781476598356726,0.9938741804295032,0.07814765983567253,1000.0,96.42857142857144,[1.18558725]
-1.6226821928787445e-17,0.41695764497687354,2.2022403747226436e-17,0.41695764497687354,-2.6805945802638436e-18,-0.0012554052197337965,2.2022403747226436e-17,-0.0012554052197337965,-2.743973820542147e-17,0.4169595349034801,-2.7307026239603284e-17,-0.41695953490348003,0.07705487126905555,0.994044814697717,0.07705487126905547,1000.0,96.42857142857144,[1.15290688]
-2.0413758726624655e-17,0.30381578022993627,2.4771624126239826e-17,0.30381578022993627,-7.466595430046657e-18,-0.00047154311094678864,2.4771624126239826e-17,-0.00047154311094678864,-3.450478707891038e-17,0.30381614616348224,-3.44278586142418e-17,-0.3038161461634822,0.07808016832886204,0.9938847894134779,0.07808016832886192,1000.0,96.42857142857144,[0.68212884]
-1.251522943303751e-17,0.26488854516043236,5.678174387232628e-18,0.26488854516043236,-6.281490457719485e-18,-0.07812051045406856,5.678174387232628e-18,-0.07812051045406856,-2.2492033472051886e-17,0.2761679842248459,-1.7739534633209132e-17,-0.2761679842248458,0.19147526282710253,0.9626393132687777,0.19147526282710248,1000.0,122.14285714285735,[0.67921381]
-1.002347026045217e-17,0.3921345237980764,6.329485699907708e-18,0.3921345237980764,-1.6506819257414197e-18,-0.04805186029045781,6.329485699907708e-18,-0.04805186029045781,-1.8162927487973962e-17,0.3950676727242027,-1.64303846591881e-17,-0.39506767272420273,0.3005878787949,0.9051485260680509,0.30058787879489984,1000.0,122.14285714285735,[1.17289393]
-8.697281362847952e-18,0.4208479303981683,6.241259494652203e-18,0.4208479303981683,-8.258835933525446e-19,-0.03369450567567345,6.241259494652203e-18,-0.03369450567567345,-1.6092249569292418e-17,0.42219462364311255,-1.504207767442423e-17,-0.4221946236431126,0.3272205011478056,0.8864837772103659,0.32722050114780565,1000.0,122.14285714285735,[1.20096949]
-7.557757350994902e-18,0.4326952053787285,5.953686535782962e-18,0.4326952053787285,-5.122431748520381e-19,-0.027265076944701344,5.953686535782962e-18,-0.027265076944701344,-1.4508853823298512e-17,0.43355337062297244,-1.3736273510741416e-17,-0.43355337062297256,0.3378065734138897,0.8785063676016999,0.3378065734138896,1000.0,122.14285714285735,[1.20519134]
-6.476837431180008e-18,0.4387207060768686,5.593193366616534e-18,0.4387207060768686,-3.5813611801095886e-19,-0.023927416079914235,5.593193366616534e-18,-0.023927416079914235,-1.3090417743782383e-17,0.43937271101064923,-1.2440580512230083e-17,-0.4393727110106492,0.3430398115473696,0.8744411789177648,0.3430398115473696,1000.0,122.14285714285735,[1.20616369]
-5.428475340275201e-18,0.4419512300946445,5.19363504205864e-18,0.4419512300946445,-2.8867941633610623e-19,-0.022130169714049384,5.19363504205864e-18,-0.022130169714049384,-1.1760973063287155e-17,0.44250495386350436,-1.1231209935939982e-17,-0.4425049538635043,0.3457898501448508,0.8722721817607181,0.3457898501448508,1000.0,122.14285714285735,[1.2021619]
-4.399647946716446e-18,0.4435153722033556,4.767754899831119e-18,0.4435153722033556,-2.6480367513537564e-19,-0.021262431901345795,4.767754899831119e-18,-0.021262431901345795,-1.0474938821338712e-17,0.44402474749842524,-1.0002296910838019e-17,-0.44402474749842524,0.3471015840742373,0.871229579770057,0.34710158407423736,1000.0,122.14285714285735,[1.2021619]
-3.3925257724310834e-18,0.44388443738357236,4.3319802299113926e-18,0.44388443738357236,-2.6914471899005393e-19,-0.02106208345693689,4.3319802299113926e-18,-0.02106208345693689,-9.226888713118704e-18,0.4443838488411542,-8.814971492961035e-18,-0.44438384884115406,0.34740346829155244,0.8709888979992804,0.34740346829155244,1000.0,122.14285714285735,[1.20340142]
-2.4201319489831463e-18,0.4432252683658398,3.874288375686308e-18,0.4432252683658398,-2.9953202597280196e-19,-0.02143394714804235,3.874288375686308e-18,-0.02143394714804235,-8.000543824172087e-18,0.4437432282393904,-7.599540951665514e-18,-0.4437432282393904,0.34684442485470696,0.8714343864539745,0.34684442485470685,1000.0,122.14285714285735,[1.2021619]
-1.4282034281891572e-18,0.4415036565646545,3.404997794912005e-18,0.4415036565646545,-3.5162455222894143e-19,-0.022394429602881093,3.404997794912005e-18,-0.022394429602881093,-6.8110978079902366e-18,0.4420712490506467,-6.45965580451559e-18,-0.44207124905064665,0.34539030629025286,0.872588719066119,0.34539030629025275,1000.0,122.14285714285735,[1.20411006]
-4.710032582325944e-19,0.43847342141554413,2.9225484249532075e-18,0.43847342141554413,-4.362749073951681e-19,-0.024076782021601302,2.9225484249532075e-18,-0.024076782021601302,-5.646612793972785e-18,0.43913395760333673,-5.29835354404254e-18,-0.4391339576033365,0.34281082341273506,0.8746207627893161,0.342810823412735,1000.0,122.14285714285735,[1.20616369]
4.623211705232378e-19,0.43354266168036704,2.4132473247448674e-18,0.43354266168036704,-5.686767449628559e-19,-0.02680107241491677,2.4132473247448674e-18,-0.02680107241491677,-4.5233676965747774e-18,0.4343702763535817,-4.189936588049854e-18,-0.4343702763535817,0.33854481623054017,0.8779378194421626,0.3385448162305402,1000.0,122.14285714285735,[1.20519134]
1.350064638804948e-18,0.4253519244102522,1.8601203345270896e-18,0.4253519244102522,-7.79217371914753e-19,-0.03128926984189893,1.8601203345270896e-18,-0.03128926984189893,-3.4728350837426314e-18,0.4265012051644683,-3.177967853664919e-18,-0.42650120516446843,0.33126571817103384,0.883473852430992,0.33126571817103384,1000.0,122.14285714285735,[1.20534421]
2.1509872299930923e-18,0.41031732243737684,1.2204437824566634e-18,0.41031732243737684,-1.1579734482354337e-18,-0.03936093783665575,1.2204437824566634e-18,-0.03936093783665575,-2.5742390058242255e-18,0.4122009079557677,-2.366339595354974e-18,-0.41220090795576797,0.31731238583460725,0.8936586034901127,0.3173123858346073,1000.0,122.14285714285735,[1.17775196]
2.700129277609896e-18,0.37556589703421744,3.4499428602902263e-19,0.37556589703421744,-2.0457169165171438e-18,-0.056732930657464056,3.4499428602902263e-19,-0.056732930657464056,-2.0847863112092484e-18,0.37982676108470953,-2.1266534561024413e-18,-0.3798267610847097,0.2825546293068915,0.9166928400039407,0.2825546293068915,1000.0,122.14285714285735,[1.12192869]
1.7320764980166376e-18,0.231327069316301,-1.4242354427907403e-18,0.231327069316301,-6.72536219186034e-18,-0.09509213500567598,-1.4242354427907403e-18,-0.09509213500567598,-3.506478173616388e-18,0.2501094303268201,-4.139034611555163e-18,-0.2501094303268201,0.1203156030303223,0.9854178359127156,0.12031560303032227,1000.0,122.14285714285735,[0.69327419]
2.144475664211075e-18,0.22455923767157035,-1.9172152355376435e-18,0.22455923767157035,-6.709083277405297e-18,-0.09667701824104742,-1.9172152355376435e-18,-0.09667701824104742,-2.402767773564433e-18,0.24448578093544981,-5.1408349378134e-19,-0.24448578093544965,0.2615330407789406,0.9290860762931721,0.26153304077894046,1000.0,135.00000000000023,[0.64764662]
4.521197174647438e-18,0.36733141563018457,-9.852473829863983e-19,0.36733141563018457,-1.9849423025516478e-18,-0.058740280196464864,-9.852473829863983e-19,-0.058740280196464864,6.229397931463345e-19,0.37199837288143445,3.476170905378904e-19,-0.3719983728814342,0.4147748457115932,0.8098911375795194,0.4147748457115932,1000.0,135.00000000000023,[1.09612253]
5.387235423655757e-18,0.40333744806990135,-9.593537346813446e-19,0.40333744806990135,-1.058129439577833e-18,-0.04116876164897446,-9.593537346813446e-19,-0.04116876164897446,1.7722311536724116e-18,0.405433057299538,1.624914550634878e-18,-0.40543305729953805,0.44664424853910556,0.775253397602278,0.44664424853910556,1000.0,135.00000000000023,[1.11344491]
5.9515711247639345e-18,0.41848640460077974,-1.1772368303405686e-18,0.41848640460077974,-6.392187076013781e-19,-0.03315753145996369,-1.1772368303405686e-18,-0.03315753145996369,2.5362548720957905e-18,0.41979791891838375,2.3749056297686847e-18,-0.4197979189183839,0.45894566858933405,0.7607481492361172,0.45894566858933417,1000.0,135.00000000000023,[1.11605046]
6.413892295287173e-18,0.42626314144231153,-1.4891815285853413e-18,0.42626314144231153,-3.9286446884838522e-19,-0.028850130442675613,-1.4891815285853413e-18,-0.028850130442675613,3.1689620139151515e-18,0.42723833603602046,2.987248858984197e-18,-0.42723833603602035,0.4650952144029178,0.753241583477046,0.4650952144029178,1000.0,135.00000000000023,[1.13943919]
6.830632505336289e-18,0.43047550637075643,-1.8407552092066107e-18,0.43047550637075643,-2.127111488792362e-19,-0.02637581207346159,-1.8407552092066107e-18,-0.02637581207346159,3.734382975986998e-18,0.43128279011304615,3.5381293227668414e-18,-0.43128279011304604,0.4684857633565387,0.749027488857707,0.4684857633565386,1000.0,135.00000000000023,[1.11433986]
7.2083033206933e-18,0.43256034346190536,-2.223665800153839e-18,0.43256034346190536,-8.030931131154835e-20,-0.024994847297676797,-2.223665800153839e-18,-0.024994847297676797,4.26290506529408e-18,0.4332818864518984,4.012972499053675e-18,-0.43328188645189836,0.47032371870163214,0.7467202951931441,0.47032371870163203,1000.0,135.00000000000023,[1.11865663]
7.544734219430867e-18,0.43312250964702764,-2.6142919182646557e-18,0.43312250964702764,1.3023131564034869e-20,-0.024384106299006673,-2.6142919182646557e-18,-0.024384106299006673,4.7642956305094224e-18,0.4338083597660846,4.4803225117089874e-18,-0.4338083597660846,0.47110480255431186,0.7457348925861825,0.4711048025543119,1000.0,135.00000000000023,[1.11865663]
7.894188249732469e-18,0.4323794834739576,-3.0273185009537146e-18,0.4323794834739576,7.813878938420921e-20,-0.024416782736823746,-3.0273185009537146e-18,-0.024416782736823746,5.249407281269721e-18,0.43306835142783606,4.916503672469746e-18,-0.43306835142783606,0.47101421679981165,0.7458493246929434,0.47101421679981176,1000.0,135.00000000000023,[1.11865663]
8.191549753777932e-18,0.43029328580330084,-3.4551148070702145e-18,0.43029328580330084,1.334870985313574e-19,-0.025092842230861143,-3.4551148070702145e-18,-0.025092842230861143,5.7106431908292895e-18,0.4310243178042559,5.315354215885438e-18,-0.43102431780425565,0.47004359943846374,0.7470729745171257,0.47004359943846363,1000.0,135.00000000000023,[1.1188095]
8.486740735896055e-18,0.42655835816347504,-3.902191452494406e-18,0.42655835816347504,1.4325444720438354e-19,-0.026539023512457387,-3.902191452494406e-18,-0.026539023512457387,6.151259142079136e-18,0.4273831450678817,5.669613662757728e-18,-0.4273831450678819,0.46798679272609534,0.7496510679428696,0.46798679272609534,1000.0,135.00000000000023,[1.11433986]
8.724412886939692e-18,0.4204359680745665,-4.379536704483444e-18,0.4204359680745665,1.0201453058493981e-19,-0.029078392908656103,-4.379536704483444e-18,-0.029078392908656103,6.559317264418896e-18,0.4214403352610522,5.9634093819047955e-18,-0.42144033526105207,0.4643095859862273,0.7542103265817807,0.4643095859862273,1000.0,135.00000000000023,[1.10798199]
8.90673672883618e-18,0.41023300875630503,-4.892797311488923e-18,0.41023300875630503,1.0852609636695723e-21,-0.03345062610985273,-4.892797311488923e-18,-0.03345062610985273,6.916368121466185e-18,0.4115945406105282,6.123717828812186e-18,-0.41159454061052825,0.45771061745323843,0.7622348596995221,0.45771061745323843,1000.0,135.00000000000023,[1.12260159]
8.95557347220131e-18,0.3915232643760286,-5.498983388508608e-18,0.3915232643760286,-2.734857628447322e-19,-0.041526443861315224,-5.498983388508608e-18,-0.041526443861315224,7.167063404073856e-18,0.39371933161508427,6.0596885829574075e-18,-0.3937193316150842,0.44447502625663027,0.777742825147449,0.4444750262566304,1000.0,135.00000000000023,[1.06263286]
8.62673940020943e-18,0.3487921800631501,-6.3577639548223874e-18,0.3487921800631501,-1.0527031347594851e-18,-0.059162380277518904,-6.3577639548223874e-18,-0.059162380277518904,7.109544572999368e-18,0.3537741823724659,4.863853344777667e-18,-0.35377418237246583,0.40934275904947215,0.8153999087733154,0.4093427590494723,1000.0,135.00000000000023,[0.65319895]
6.408465990468825e-18,0.18713541353985963,-8.110155181502714e-18,0.18713541353985963,-5.640101228190767e-18,-0.09716387109856081,-8.110155181502714e-18,-0.09716387109856081,5.5559935035063754e-18,0.21085654091725964,-4.034652800303654e-18,-0.21085654091725975,0.21334776253539292,0.9533968032473588,0.21334776253539298,1000.0,135.00000000000023,[0.6052745]
6.2934283283198506e-18,0.18036203054570377,-8.416198773257533e-18,0.18036203054570377,-5.754596259857907e-18,-0.09563808362856784,-8.416198773257533e-18,-0.09563808362856784,6.114902899796205e-18,0.20414971247276928,-4.397836761497944e-19,-0.20414971247276922,0.35272041805359916,0.8667044556111319,0.35272041805359927,1000.0,147.8571428571427,[0.50483899]
8.901310424017832e-18,0.3405383854814875,-7.422099730536205e-18,0.3405383854814875,-1.4097539918067744e-18,-0.057343881745848285,-7.422099730536205e-18,-0.057343881745848285,8.181239774623071e-18,0.34533275656968887,5.670799180148233e-18,-0.34533275656968865,0.5279420400173541,0.66524762665088,0.527942040017354,1000.0,147.8571428571427,[0.58449027]
9.595877440766358e-18,0.38451047789490495,-7.319779970305233e-18,0.38451047789490495,-8.454182906985969e-19,-0.04003602756571717,-7.319779970305233e-18,-0.04003602756571717,8.78084645705051e-18,0.38658917614725197,7.273340858915059e-18,-0.38658917614725213,0.5565446061512309,0.6168599539019718,0.5565446061512309,1000.0,147.8571428571427,[0.9309769]
9.862851637829073e-18,0.4033208189290581,-7.456081964461109e-18,0.4033208189290581,-8.068915264883271e-19,-0.032028099478716404,-7.456081964461109e-18,-0.032028099478716404,9.111308420487894e-18,0.4045905116754772,7.945055131113437e-18,-0.4045905116754772,0.5670645633813723,0.5973906275747778,0.5670645633813725,1000.0,147.8571428571427,[0.98159346]
9.985486126723735e-18,0.41309573031307656,-7.681137956802086e-18,0.41309573031307656,-9.246423410464756e-19,-0.027603305193273885,-7.681137956802086e-18,-0.027603305193273885,9.342469005749513e-18,0.41401693789081523,8.35389728348024e-18,-0.4140169378908152,0.5723100225955626,0.5873010097669962,0.5723100225955625,1000.0,147.8571428571427,[0.985039]
1.0034322870088866e-17,0.41848530315054056,-7.945331172645398e-18,0.41848530315054056,-1.1221598364343378e-18,-0.02494205241158595,-7.945331172645398e-18,-0.02494205241158595,9.529676521982514e-18,0.4192279271846073,8.596683507104418e-18,-0.41922792718460716,0.5752815328131001,0.5814656619340647,0.5752815328131002,1000.0,147.8571428571427,[0.95394832]
1.0036493392016205e-17,0.4212599632375533,-8.23957255142031e-18,0.4212599632375533,-1.3679714447054959e-18,-0.023322321889403044,-8.23957255142031e-18,-0.023322321889403044,9.694093557978455e-18,0.4219050690916354,8.791753814373998e-18,-0.42190506909163555,0.577012952479179,0.5780243120687241,0.5770129524791788,1000.0,147.8571428571427,[0.95394832]
1.002347026045217e-17,0.4221713325785307,-8.547752750697354e-18,0.4221713325785307,-1.6528524476687588e-18,-0.022423990381246442,-8.547752750697354e-18,-0.022423990381246442,9.834634852773664e-18,0.4227664478122058,8.926044005729335e-18,-0.4227664478122059,0.5779273766343347,0.5761943202367685,0.5779273766343346,1000.0,147.8571428571427,[0.95580167]
9.977889299978048e-18,0.42149620524363085,-8.869091739158892e-18,0.42149620524363085,-1.9502139517142214e-18,-0.022113751821175816,-8.869091739158892e-18,-0.022113751821175816,9.962695646486674e-18,0.4220759043754921,9.038629528808147e-18,-0.42207590437549203,0.5781917403668888,0.5756636368080031,0.5781917403668887,1000.0,147.8571428571427,[0.95394832]
9.910603120230534e-18,0.4192003132554038,-9.207930560659601e-18,0.4192003132554038,-2.2676527835875713e-18,-0.022375147544149935,-9.207930560659601e-18,-0.022375147544149935,1.0081531722008492e-17,0.41979703412607755,9.09658091584371e-18,-0.41979703412607755,0.5778217505363361,0.5764061495284801,0.5778217505363361,1000.0,147.8571428571427,[0.95394832]
9.800991762899908e-18,0.41492740542779916,-9.559656856103886e-18,0.41492740542779916,-2.641525185571739e-18,-0.023303307305903583,-9.559656856103886e-18,-0.023303307305903583,1.0184631513557101e-17,0.4155812747302732,9.1140996407333e-18,-0.4155812747302731,0.5766871620226505,0.5786742039494441,0.5766871620226505,1000.0,147.8571428571427,[0.96516866]
9.649055227986167e-18,0.40780514220583786,-9.932579654744843e-18,0.40780514220583786,-3.0365601763474633e-18,-0.025160309581181966,-9.932579654744843e-18,-0.025160309581181966,1.0260599781013971e-17,0.40858056144136945,9.056532502793113e-18,-0.40858056144136945,0.574421605893922,0.5831634739629152,0.574421605893922,1000.0,147.8571428571427,[0.96315768]
9.409212555015192e-18,0.3958321121333312,-1.0344130960811414e-17,0.3958321121333312,-3.512447108916571e-18,-0.028557031099502597,-1.0344130960811414e-17,-0.028557031099502597,1.0313234937751946e-17,0.3968608887521572,8.803285596115642e-18,-0.3968608887521569,0.5701017778353072,0.5915808700575468,0.5701017778353071,1000.0,147.8571428571427,[0.98159346]
8.992472344966076e-18,0.37380098674256035,-1.0833956713882652e-17,0.37380098674256035,-4.174998927236845e-18,-0.03504482195098119,-1.0833956713882652e-17,-0.03504482195098119,1.0289359196551215e-17,0.37544016465382046,8.231726103404985e-18,-0.37544016465382046,0.5609943092556386,0.6087452422529293,0.5609943092556388,1000.0,147.8571428571427,[0.92286246]
8.089535223192992e-18,0.32375661235652614,-1.1522012164849161e-17,0.32375661235652614,-5.336228158363287e-18,-0.049459924637909145,-1.1522012164849161e-17,-0.049459924637909145,1.0067423329480788e-17,0.3275127908796259,6.456383291333001e-18,-0.3275127908796258,0.5350447359850659,0.6537998630998194,0.5350447359850656,1000.0,147.8571428571427,[0.58449027]
4.9390226456602236e-18,0.14655174159430773,-1.2949469476125797e-17,0.14655174159430773,-1.028773130510571e-17,-0.07958616086967915,-1.2949469476125797e-17,-0.07958616086967915,8.714645538266666e-18,0.16676741278289114,-2.2016667386737933e-18,-0.16676741278289103,0.34661157456948144,0.8716196606025644,0.3466115745694815,1000.0,147.8571428571427,[0.25787322]
4.558096047412204e-18,0.1411115137569778,-1.2734113003647616e-17,0.1411115137569778,-1.0304552850042589e-17,-0.07526009020991266,-1.2734113003647616e-17,-0.07526009020991266,8.906194098354345e-18,0.15992667223821658,-4.680830554537451e-18,-0.15992667223821636,0.4790014102924878,0.7356053954910985,0.47900141029248805,1000.0,160.7142857142859,[0.27577916]
7.405820816081161e-18,0.3171109655338695,-1.1270062049252247e-17,0.3171109655338695,-5.371499139682548e-18,-0.04420010924367189,-1.1270062049252247e-17,-0.04420010924367189,1.0161298402838206e-17,0.3201765358657244,7.04983977058603e-18,-0.32017653586572437,0.6287955865510186,0.4574190864709519,0.628795586551019,1000.0,160.7142857142859,[0.5811952]
7.978838604898696e-18,0.36813245071234685,-1.0516517882009302e-17,0.36813245071234685,-4.252595086139219e-18,-0.030591565727083617,-1.0516517882009302e-17,-0.030591565727083617,1.0310521785342772e-17,0.36940133345876397,8.544619023522182e-18,-0.36940133345876397,0.6457931427552962,0.4073112244224009,0.6457931427552963,1000.0,160.7142857142859,[0.77641086]
8.038527957900522e-18,0.39022605031565716,-9.945738443929337e-18,0.39022605031565716,-3.636709489256737e-18,-0.02418114693814284,-9.945738443929337e-18,-0.02418114693814284,1.0281219739323693e-17,0.39097454931517195,9.027247667308418e-18,-0.390974549315172,0.6517043211019834,0.3880244266976056,0.6517043211019836,1000.0,160.7142857142859,[0.79018621]
7.912637686114852e-18,0.4018374055190165,-9.445365310867435e-18,0.4018374055190165,-3.1925664398749647e-18,-0.020523969542209013,-9.445365310867435e-18,-0.020523969542209013,1.0196569384157467e-17,0.4023611981789794,9.234796947206302e-18,-0.40236119817897953,0.6546447194493992,0.3779954795947101,0.6546447194493993,1000.0,160.7142857142859,[0.79105022]
7.701011798199285e-18,0.40835329386611013,-8.970088837590391e-18,0.40835329386611013,-2.8143529940361184e-18,-0.018211946704012206,-8.970088837590391e-18,-0.018211946704012206,1.00847875048995e-17,0.4087592049288328,9.283067866043223e-18,-0.4087592049288328,0.6563582213691415,0.3720050678179996,0.6563582213691413,1000.0,160.7142857142859,[0.79105022]
7.444890210773266e-18,0.4118370562533289,-8.521808230784629e-18,0.4118370562533289,-2.493929694512677e-18,-0.016683729168799157,-8.521808230784629e-18,-0.016683729168799157,9.960525124559335e-18,0.4121748509096419,9.266422621864574e-18,-0.412174850909642,0.6574261447826387,0.36821424240851114,0.6574261447826388,1000.0,160.7142857142859,[0.7930612]
7.126908748418081e-18,0.4131712991481877,-8.084753292071823e-18,0.4131712991481877,-2.1889713637215273e-18,-0.015685556737661442,-8.084753292071823e-18,-0.015685556737661442,9.813743579223025e-18,0.4134689336939013,9.19435904848532e-18,-0.41346893369390136,0.6580860751291604,0.3658489243419937,0.6580860751291606,1000.0,160.7142857142859,[0.7930612]
6.807842025099228e-18,0.4126891420741343,-7.654515148787067e-18,0.4126891420741343,-1.931221884850004e-18,-0.015103975544354224,-7.654515148787067e-18,-0.015103975544354224,9.663977566236624e-18,0.4129654441513594,9.099272572680737e-18,-0.4129654441513592,0.658438063675949,0.36458007708229767,0.6584380636759488,1000.0,160.7142857142859,[0.7930612]
6.4355975145605646e-18,0.41036685626984865,-7.234180011795796e-18,0.41036685626984865,-1.6889373747107721e-18,-0.01490930862104472,-7.234180011795796e-18,-0.01490930862104472,9.507971302709123e-18,0.41063760690949386,8.977431310770322e-18,-0.4106376069094939,0.6585068470217389,0.36433153150801545,0.6585068470217391,1000.0,160.7142857142859,[0.79189743]
6.028624653184474e-18,0.40581630714464434,-6.8258844886202345e-18,0.40581630714464434,-1.484636998299975e-18,-0.015146178683075247,-6.8258844886202345e-18,-0.015146178683075247,9.347623995326944e-18,0.40609885726657236,8.824358727699909e-18,-0.40609885726657236,0.6582515453762072,0.3652530711981352,0.6582515453762073,1000.0,160.7142857142859,[0.79105022]
5.564132960733897e-18,0.39807132030965336,-6.4273393569151414e-18,0.39807132030965336,-1.309367352667339e-18,-0.015963709810224606,-6.4273393569151414e-18,-0.015963709810224606,9.161501740057612e-18,0.3983912851506364,8.641041608002126e-18,-0.39839128515063654,0.6575321144945934,0.3678356111315735,0.6575321144945934,1000.0,160.7142857142859,[0.79105022]
5.006851455889572e-18,0.3849086788891521,-6.0574688547345045e-18,0.3849086788891521,-1.2247169975011124e-18,-0.017722927652686616,-6.0574688547345045e-18,-0.017722927652686616,8.969410549488098e-18,0.38531648452768646,8.402022236714508e-18,-0.38531648452768646,0.6559779529733271,0.37334414475902433,0.6559779529733272,1000.0,160.7142857142859,[0.79319081]
4.247711411802706e-18,0.360555953596119,-5.728143023868461e-18,0.360555953596119,-1.3001426344761476e-18,-0.021348486038948337,-5.728143023868461e-18,-0.021348486038948337,8.724412886939692e-18,0.3611874216106671,8.022077298058014e-18,-0.3611874216106671,0.6524555758084158,0.38549117135547595,0.652455575808416,1000.0,160.7142857142859,[0.78694513]
2.9274914494986713e-18,0.3053018660670702,-5.52635231343615e-18,0.3053018660670702,-1.886997500580469e-18,-0.02969839708221414,-5.52635231343615e-18,-0.02969839708221414,8.358679942183046e-18,0.3067429285465081,7.21477620795668e-18,-0.3067429285465081,0.6416795231224974,0.4201128172414747,0.6416795231224974,1000.0,160.7142857142859,[0.5811952]
-9.067355351459277e-19,0.11748756630478967,-5.737011640805949e-18,0.11748756630478967,-6.278777305310311e-18,-0.04599312967888562,-5.737011640805949e-18,-0.04599312967888562,7.123110335045238e-18,0.12616931565908232,2.8250235382563832e-18,-0.1261693156590822,0.5363660592438084,0.6516309545920413,0.5363660592438084,1000.0,160.7142857142859,[0.25242592]
-1.685410276578846e-18,0.11444646443394718,-5.3302083514554324e-18,0.11444646443394718,-6.1040502901595095e-18,-0.0397312721103336,-5.3302083514554324e-18,-0.0397312721103336,6.945127537003428e-18,0.12114688277019803,2.643449303978827e-18,-0.12114688277019812,0.6378329035482746,0.4316692881157456,0.6378329035482747,1000.0,173.57142857142813,[0.25508973]
9.002239693639102e-19,0.30154728663295355,-4.861477358365521e-18,0.30154728663295355,-1.388048772533383e-18,-0.022061968869392507,-4.861477358365521e-18,-0.022061968869392507,7.537408707926097e-18,0.3023532644872396,6.792802154884413e-18,-0.3023532644872396,0.6950106717397123,0.18417473316344965,0.6950106717397122,1000.0,173.57142857142813,[0.34657186]
9.3875073357418e-19,0.35729937618519814,-4.7845764447679976e-18,0.35729937618519814,-4.772435087736944e-19,-0.01485244958272924,-4.7845764447679976e-18,-0.01485244958272924,7.291597099654939e-18,0.35760794102052484,6.885986581196862e-18,-0.35760794102052496,0.6987661613098165,0.15313949071577315,0.6987661613098167,1000.0,173.57142857142813,[0.28569726]
4.048023394487505e-19,0.38164274796498543,-4.7979556775857365e-18,0.38164274796498543,-6.64722340247613e-20,-0.011313265784058807,-4.7979556775857365e-18,-0.011313265784058807,6.92206574152545e-18,0.3818103941185548,6.631573101162454e-18,-0.38181039411855483,0.7000062379663008,0.14135958975794038,0.7000062379663008,1000.0,173.57142857142813,[0.33464597]
-3.3588826825573263e-19,0.39456088813994733,-4.8450458290874616e-18,0.39456088813994733,1.8720751623300122e-19,-0.009151774075192073,-4.8450458290874616e-18,-0.009151774075192073,6.515092880149361e-18,0.39466701080595457,6.28643015635498e-18,-0.3946670108059545,0.7006358419075296,0.13497716128684262,0.7006358419075296,1000.0,173.57142857142813,[0.33380737]
-1.1807639284724947e-18,0.40192582980603,-4.901479399198279e-18,0.40192582980603,3.521671827107762e-19,-0.007650252182140395,-4.901479399198279e-18,-0.007650252182140395,6.099437931063914e-18,0.40199863062418023,5.910293223578152e-18,-0.40199863062418023,0.7010267282308529,0.1308550824839905,0.7010267282308529,1000.0,173.57142857142813,[0.33380737]
-2.076104223499892e-18,0.4059951766537505,-4.9752432303226956e-18,0.4059951766537505,4.688327363052552e-19,-0.0065191755648241695,-4.9752432303226956e-18,-0.0065191755648241695,5.6753722095100284e-18,0.40604751337270256,5.513706333754947e-18,-0.40604751337270256,0.7012989700883181,0.12790429666797123,0.7012989700883183,1000.0,173.57142857142813,[0.33380737]
-3.0088860217738892e-18,0.40774081915029187,-5.057400876712994e-18,0.40774081915029187,5.613512334580863e-19,-0.005621382491422997,-5.057400876712994e-18,-0.005621382491422997,5.238012041151191e-18,0.40777956734302656,5.0972159902600954e-18,-0.4077795673430264,0.7015024762243991,0.12565250376364406,0.701502476224399,1000.0,173.57142857142813,[0.33380737]
-3.988876671967513e-18,0.4075380725382843,-5.136099253781595e-18,0.4075380725382843,6.286374132055998e-19,-0.004885720018052342,-5.136099253781595e-18,-0.004885720018052342,4.7995666118286835e-18,0.4075673574126301,4.675267073112355e-18,-0.40756735741263017,0.7016610923208166,0.1238685716649556,0.7016610923208166,1000.0,173.57142857142813,[0.33380737]
-4.997084107216546e-18,0.40537849687320326,-5.219477818756021e-18,0.40537849687320326,6.738114008183457e-19,-0.0042751514822542925,-5.219477818756021e-18,-0.0042751514822542925,4.354880931965076e-18,0.40540103927761945,4.243809121523569e-18,-0.4054010392776195,0.7017866754950317,0.12243742971518758,0.7017866754950318,1000.0,173.57142857142813,[0.33380737]
-6.047074089566857e-18,0.4008671996686645,-5.3084861749794836e-18,0.4008671996686645,6.685207536204565e-19,-0.0037749383694226295,-5.3084861749794836e-18,-0.0037749383694226295,3.9001565881875255e-18,0.4008849734398756,3.7992795972532124e-18,-0.4008849734398756,0.7018839755559327,0.1213168154692372,0.7018839755559327,1000.0,173.57142857142813,[0.33380737]
-7.159466577328169e-18,0.39300252248783674,-5.3991902514586796e-18,0.39300252248783674,6.31214907994315e-19,-0.0033917017951604457,-5.3991902514586796e-18,-0.0033917017951604457,3.4438043529644707e-18,0.39301715779704843,3.3498092347720454e-18,-0.39301715779704843,0.7019512391985914,0.12053595138017703,0.7019512391985913,1000.0,173.57142857142813,[0.33380737]
-8.386896727238455e-18,0.3794698589183186,-5.4914543905731506e-18,0.3794698589183186,5.205182897000186e-19,-0.003165101700043885,-5.4914543905731506e-18,-0.003165101700043885,2.966018213708941e-18,0.3794830585102057,2.8736621762124657e-18,-0.3794830585102058,0.7019758722135073,0.12024869920365445,0.7019758722135074,1000.0,173.57142857142813,[0.33464597]
-9.811301742054768e-18,0.35425959297998355,-5.5877373866937104e-18,0.35425959297998355,2.265482261660232e-19,-0.003209951541555283,-5.5877373866937104e-18,-0.003209951541555283,2.4624571265662596e-18,0.3542741353912853,2.3602122447386727e-18,-0.3542741353912853,0.7019144602817877,0.12096355192640851,0.7019144602817877,1000.0,173.57142857142813,[0.26604727]
-1.1820391101048064e-17,0.2969365867912845,-5.7059630029234645e-18,0.2969365867912845,-5.579597929466189e-19,-0.0038399685482493856,-5.7059630029234645e-18,-0.0038399685482493856,1.8621721560365274e-18,0.2969614148904019,1.7122592200863552e-18,-0.296961414890402,0.7015781471028804,0.12480467545479934,0.7015781471028805,1000.0,173.57142857142813,[0.28876764]
-1.645743988356723e-17,0.10555910487120669,-5.837449151553056e-18,0.10555910487120669,-5.1460361744801945e-18,-0.0030744239934327494,-5.837449151553056e-18,-0.0030744239934327494,4.971851789811228e-19,0.10560386689937924,1.4273580946331602e-19,-0.10560386689937926,0.7000579226366895,0.14084676037170782,0.7000579226366896,1000.0,173.57142857142813,[0.12748378]
-1.67018949156338e-17,0.10551470519658135,-5.0899926200281955e-18,0.10551470519658135,-5.1411525001436814e-18,0.003887045198294291,-5.0899926200281955e-18,0.003887045198294291,3.02652151243352e-19,0.10558627814775488,6.543919999052019e-19,-0.10558627814775487,0.6992697457631574,0.1484710251889524,0.6992697457631574,1000.0,173.57142857142813,[0.12748378]
-1.253801991327457e-17,0.29680366161976207,-4.0822260720456536e-18,0.29680366161976207,-5.175338220499273e-19,0.004672589311421028,-4.0822260720456536e-18,0.004672589311421028,1.2734180832457844e-18,0.296840439700812,1.3984091942043263e-18,-0.2968404397008121,0.7013273489886682,0.1275927079462373,0.7013273489886683,1000.0,173.57142857142813,[0.28876764]
-1.1002104334441207e-17,0.35403856871544465,-3.0576379791262333e-18,0.35403856871544465,2.867802096496845e-19,0.004061932282953777,-3.0576379791262333e-18,0.004061932282953777,1.4857222592636445e-18,0.3540618694973408,1.5543240871795852e-18,-0.3540618694973408,0.701706122166772,0.12335735173609672,0.701706122166772,1000.0,173.57142857142813,[0.26604727]
-1.0054942828398587e-17,0.3791612337990156,-2.019416295350714e-18,0.3791612337990156,5.975718181205583e-19,0.004035913456219851,-2.019416295350714e-18,0.004035913456219851,1.5926204641850976e-18,0.37918271296753203,1.6343828801779266e-18,-0.3791827129675322,0.7017781672650663,0.12253492522611488,0.7017781672650664,1000.0,173.57142857142813,[0.33464597]
-9.320763786476122e-18,0.39260686458012206,-9.707065817934818e-19,0.39260686458012206,7.404871212737951e-19,0.004280832263863633,-9.707065817934818e-19,0.004280832263863633,1.6829684394105895e-18,0.39263020214994365,1.702900458864443e-18,-0.3926302021499438,0.7017556799944366,0.12279222773079833,0.7017556799944367,1000.0,173.57142857142813,[0.33380737]
-8.69239768851144e-18,0.4003851447862111,7.941057957600949e-20,0.4003851447862111,8.016687081006673e-19,0.004681872020667587,7.941057957600949e-20,0.004681872020667587,1.7502546191581027e-18,0.40041251740060907,1.746832641286034e-18,-0.40041251740060907,0.7016868928824723,0.12357592287288031,0.7016868928824723,1000.0,173.57142857142813,[0.33380737]
-8.123720943548584e-18,0.40481074643670084,1.129264904305862e-18,0.40481074643670084,8.159127582488304e-19,0.005199366058886862,1.129264904305862e-18,0.005199366058886862,1.8058742435461683e-18,0.4048441352397897,1.7752833877910987e-18,-0.40484413523978985,0.7015859095937824,0.12471737216173845,0.7015859095937825,1000.0,173.57142857142813,[0.33380737]
-7.595198854241502e-18,0.40688539139298435,2.1926510766764695e-18,0.40688539139298435,8.010582488086032e-19,0.005826686862304439,2.1926510766764695e-18,0.005826686862304439,1.8587128867148306e-18,0.40692710896278894,1.7940226826962976e-18,-0.40692710896278883,0.7014549790884398,0.12618171271651543,0.7014549790884398,1000.0,173.57142857142813,[0.33380737]
-7.086754092762307e-18,0.4070040333572228,3.2481775856617516e-18,0.4070040333572228,7.453029668000788e-19,0.006578568093950447,3.2481775856617516e-18,0.006578568093950447,1.907481801269732e-18,0.4070571958917003,1.8002424949086705e-18,-0.40705719589170025,0.7012893705331334,0.1280095213430749,0.7012893705331336,1000.0,173.57142857142813,[0.33380737]
-6.635828162357601e-18,0.4051751712795998,4.313607100940518e-18,0.4051751712795998,6.840535511629773e-19,0.007492043632101747,4.313607100940518e-18,0.007492043632101747,1.954012365087065e-18,0.40524443258265536,1.7916189697920636e-18,-0.4052444325826554,0.7010768607958137,0.13031680825348022,0.7010768607958138,1000.0,173.57142857142813,[0.33380737]
-6.205793505503533e-18,0.4010235467432945,5.379553810897283e-18,0.4010235467432945,5.861087491917984e-19,0.008638266051657937,5.379553810897283e-18,0.008638266051657937,1.992199985246188e-18,0.4011165724361816,1.75773630356448e-18,-0.4011165724361816,0.7007926957191941,0.13333864876040494,0.7007926957191941,1000.0,173.57142857142813,[0.33380737]
-5.862308410502112e-18,0.3935773240258675,6.4564463951048105e-18,0.3935773240258675,4.386828301583099e-19,0.010154399606730658,6.4564463951048105e-18,0.010154399606730658,2.013633889278662e-18,0.3937082953389931,1.6763954076428265e-18,-0.39370829533899304,0.7003849452902215,0.1375567403714825,0.7003849452902213,1000.0,173.57142857142813,[0.33380737]
-5.5926210610302235e-18,0.3805789523717841,7.550109652641543e-18,0.3805789523717841,2.213593221834781e-19,0.01232997537872212,7.550109652641543e-18,0.01232997537872212,2.0260465615506328e-18,0.38077863291057257,1.5303938367345797e-18,-0.3807786329105727,0.699728539175491,0.14408311117777448,0.6997285391754913,1000.0,173.57142857142813,[0.33464597]
-5.55653613398821e-18,0.35615645067048846,8.675448964555381e-18,0.35615645067048846,-1.844943638238273e-19,0.01588272983563079,8.675448964555381e-18,0.01588272983563079,1.9946418224144446e-18,0.35651041844696724,1.207312593328862e-18,-0.3565104184469673,0.6984358896327101,0.15612372063824984,0.6984358896327101,1000.0,173.57142857142813,[0.28569726]
-6.069457596942542e-18,0.3003263874532076,9.897215408811517e-18,0.3003263874532076,-1.0754597005914315e-18,0.023105344074392485,9.897215408811517e-18,0.023105344074392485,1.8627826153285915e-18,0.3012138707388661,3.1062358993931187e-19,-0.3012138707388662,0.6945173615259691,0.1878597058392601,0.6945173615259691,1000.0,173.57142857142813,[0.34413331]
-9.10859526807872e-18,0.11314882176178985,1.150163808597652e-17,0.11314882176178985,-5.767483733801483e-18,0.04078739982047954,1.150163808597652e-17,0.04078739982047954,8.69226203089098e-19,0.12027579910437901,-6.626126353335588e-18,-0.120275799104379,0.6341762150783574,0.4423133012444676,0.6341762150783574,1000.0,173.57142857142813,[0.25508973]
-9.307740654912087e-18,0.11611537509787978,1.1694314300034263e-17,0.11611537509787978,-5.8610196631077546e-18,0.04707832103561538,1.1694314300034263e-17,0.04707832103561538,5.781727783949646e-19,0.12529624354167124,-7.762228855505468e-18,-0.1252962435416712,0.5307714092656598,0.6607294621948464,0.5307714092656599,1000.0,160.7142857142859,[0.25242592]
-6.8983256579451785e-18,0.3038587751428925,9.921362465253165e-18,0.3038587751428925,-1.3469105991292833e-18,0.030833873566926764,9.921362465253165e-18,0.030833873566926764,1.2600558076306028e-18,0.3054191922431859,-7.912587890352968e-19,-0.30541919224318576,0.6404388530501256,0.423882237192925,0.6404388530501256,1000.0,160.7142857142859,[0.5811952]
-6.999390585186907e-18,0.35904350015141295,8.557634560487642e-18,0.35904350015141295,-6.407787702366531e-19,0.02253310636840769,8.557634560487642e-18,0.02253310636840769,1.0733570074743217e-18,0.3597498796158071,-2.54643980118635e-20,-0.35974987961580707,0.6514877417350009,0.3887511347096719,0.6514877417350009,1000.0,160.7142857142859,[0.79022929]
-7.671031464077913e-18,0.38332849086292575,7.319211904019562e-18,0.38332849086292575,-4.268467027732887e-19,0.01895590945573801,7.319211904019562e-18,0.01895590945573801,7.603948770761088e-19,0.38379689734355904,1.966051612860083e-20,-0.38379689734355904,0.6550769631599289,0.3764948136088072,0.6550769631599287,1000.0,160.7142857142859,[0.79319081]
-8.522418690076693e-18,0.3964250494077084,6.124945803010788e-18,0.3964250494077084,-3.9968126427643473e-19,0.017244355620840823,6.124945803010788e-18,0.017244355620840823,4.044292809924891e-19,0.39679993397010793,-1.4115452908255155e-19,-0.3967999339701079,0.6566463146931721,0.3709868391193284,0.6566463146931723,1000.0,160.7142857142859,[0.79105022]
-9.483145958165182e-18,0.4041056107737066,4.954360435373335e-18,0.4041056107737066,-4.445669794457059e-19,0.016473814658412352,4.954360435373335e-18,0.016473814658412352,2.1942620109194165e-20,0.40444125806869685,-3.9726662421035324e-19,-0.4044412580686968,0.6573596827763104,0.3684514824511601,0.6573596827763101,1000.0,160.7142857142859,[0.79105022]
-1.0516043080337697e-17,0.408593390543817,3.796348833432147e-18,0.408593390543817,-5.306078252216342e-19,0.016283270142614017,3.796348833432147e-18,0.016283270142614017,-3.5959443743088985e-19,0.40891772238755975,-6.795042861781251e-19,-0.40891772238755986,0.6575971764036536,0.3676029205159885,0.6575971764036537,1000.0,160.7142857142859,[0.79105022]
-1.156996713368131e-17,0.41085455767993373,2.6485709032343126e-18,0.41085455767993373,-6.433223506202537e-19,0.01652360360415539,2.6485709032343126e-18,0.01652360360415539,-7.643967768796403e-19,0.4111866936592688,-1.0025767826453066e-18,-0.41118669365926874,0.6575022444132472,0.36794238296652526,0.6575022444132472,1000.0,160.7142857142859,[0.7930612]
-1.2659162168344186e-17,0.4112772383848861,1.513413371039776e-18,0.4112772383848861,-7.852880504302797e-19,0.01715019765751327,1.513413371039776e-18,0.01715019765751327,-1.1643493563969924e-18,0.41163466337662846,-1.308620023504493e-18,-0.4116346633766285,0.6571165401217919,0.36931789206147436,0.6571165401217918,1000.0,160.7142857142859,[0.7930612]
-1.3776980960923846e-17,0.40988515083195853,3.8547536783402555e-19,0.40988515083195853,-9.602863808219981e-19,0.01819273566112993,3.8547536783402555e-19,0.01819273566112993,-1.5834974892092502e-18,0.41028869409645347,-1.6483483598877063e-18,-0.41028869409645363,0.6564142683407241,0.37180723048029024,0.6564142683407241,1000.0,160.7142857142859,[0.79189743]
-1.4946756622139185e-17,0.4063451634243385,-7.334329250099428e-19,0.4063451634243385,-1.1554637822569478e-18,0.01976467981098172,-7.334329250099428e-19,0.01976467981098172,-2.002408221185705e-18,0.40682555771040607,-1.9561732245389103e-18,-0.40682555771040607,0.6552920565422917,0.3757454474310337,0.6552920565422917,1000.0,160.7142857142859,[0.79105022]
-1.615851831688649e-17,0.3997746571097745,-1.8284358015487053e-18,0.3997746571097745,-1.4097031201991024e-18,0.022119801826831237,-1.8284358015487053e-18,0.022119801826831237,-2.4443468342350236e-18,0.4003861412437949,-2.2970573651667083e-18,-0.4003861412437949,0.6535046532240955,0.38192058916600713,0.6535046532240953,1000.0,160.7142857142859,[0.79105022]
-1.7460899302100208e-17,0.38811027976123186,-2.888286397186108e-18,0.38811027976123186,-1.7290411587588743e-18,0.025819468737362253,-2.888286397186108e-18,0.025819468737362253,-2.918368474522824e-18,0.38896816607817813,-2.611431610970642e-18,-0.3889681660781783,0.6504518531324792,0.39220501464546165,0.6504518531324792,1000.0,160.7142857142859,[0.79018621]
-1.8966427573950822e-17,0.3659652491418715,-3.891042091812957e-18,0.3659652491418715,-2.218680382601982e-18,0.032271801333100696,-3.891042091812957e-18,0.032271801333100696,-3.444923528333255e-18,0.36738540082691823,-2.8932834641389612e-18,-0.3673854008269182,0.6443315212694,0.41191477443437496,0.6443315212693997,1000.0,160.7142857142859,[0.77874666]
-2.094418002261816e-17,0.314893947157908,-4.698618265354536e-18,0.314893947157908,-3.2282783084607166e-18,0.04592177635722201,-4.698618265354536e-18,0.04592177635722201,-4.14688388539678e-18,0.31822477512049563,-3.206061776946084e-18,-0.3182247751204958,0.626738800151031,0.4630301855932197,0.6267388001510311,1000.0,160.7142857142859,[0.5811952]
-2.52197012466149e-17,0.13884643866740567,-4.800102883359559e-18,0.13884643866740567,-8.03242336497988e-18,0.07702305591513123,-4.800102883359559e-18,0.07702305591513123,-5.954114705147535e-18,0.15877935846049712,-9.974939999755809e-18,-0.15877935846049723,0.47034831254927834,0.7466893127426509,0.4703483125492782,1000.0,160.7142857142859,[0.27577916]
-2.517588383520674e-17,0.14424219820611728,-4.856294813333935e-18,0.14424219820611728,-8.020595716196138e-18,0.0814022950144406,-4.856294813333935e-18,0.0814022950144406,-6.87214373719665e-18,0.16562652377246476,-5.762817043196634e-18,-0.16562652377246484,0.3365252027720211,0.8794893835621327,0.33652520277202136,1000.0,147.85714285714295,[0.26463694]
-2.134796492991347e-17,0.3214103180864962,-5.264098577635334e-18,0.3214103180864962,-3.1972042347743964e-18,0.05135020141820026,-5.264098577635334e-18,0.05135020141820026,-6.402598798383987e-18,0.32548646017638333,-5.2597415608771514e-18,-0.3254864601763834,0.5318749118805132,0.6589523171096626,0.5318749118805128,1000.0,147.85714285714295,[0.58449027]
-1.9744695342522364e-17,0.37141879268598943,-4.934880848935594e-18,0.37141879268598943,-2.1803231904172854e-18,0.037008020152331796,-4.934880848935594e-18,0.037008020152331796,-7.072204812968112e-18,0.37325797126908533,-6.1891420912260506e-18,-0.37325797126908555,0.5584742245496206,0.6133621124811994,0.5584742245496208,1000.0,147.85714285714295,[0.91872615]
-1.8622399848467567e-17,0.3934151035512215,-4.40382789714683e-18,0.3934151035512215,-1.6767790604771614e-18,0.030592475877175604,-4.40382789714683e-18,0.030592475877175604,-7.939277451332428e-18,0.39460276644052317,-7.334506550580066e-18,-0.394602766440523,0.5677563711873791,0.5960750002745276,0.5677563711873791,1000.0,147.85714285714295,[0.98159346]
-1.768236036749903e-17,0.40535444214632355,-3.7983285868307164e-18,0.40535444214632355,-1.3327682921964641e-18,0.027267459617764278,-3.7983285868307164e-18,0.027267459617764278,-8.871380961504132e-18,0.40627052332376207,-8.415994180324795e-18,-0.4062705233237621,0.572124921009506,0.5876615943889246,0.572124921009506,1000.0,147.85714285714295,[0.98302802]
-1.6841452692680685e-17,0.4124441312825979,-3.1542897944024156e-18,0.4124441312825979,-1.0690329208222007e-18,0.025481658654778215,-3.1542897944024156e-18,0.025481658654778215,-9.8428082244063e-18,0.4132305365740238,-9.48363267406447e-18,-0.41323053657402375,0.574386606623809,0.5832324170194684,0.5743866066238091,1000.0,147.85714285714295,[0.96516866]
-1.603473073821793e-17,0.4166855673451131,-2.4891180882870328e-18,0.4166855673451131,-8.527861952097599e-19,0.02462420731724482,-2.4891180882870328e-18,0.02462420731724482,-1.083492327442842e-17,0.41741252211657615,-1.055068167206481e-17,-0.4174125221165762,0.5754885166895858,0.5810558788247828,0.5754885166895857,1000.0,147.85714285714295,[0.96516866]
-1.525951526610671e-17,0.4189510735303772,-1.7994050707705442e-18,0.4189510735303772,-6.683893353006372e-19,0.02443302802400662,-1.7994050707705442e-18,0.02443302802400662,-1.1838721837012546e-17,0.419662930064924,-1.1614558515887595e-17,-0.419662930064924,0.5758060388227233,0.5804264047323908,0.5758060388227231,1000.0,147.85714285714295,[0.95394832]
-1.4508311192816677e-17,0.4195968861600861,-1.1070043366487178e-18,0.4195968861600861,-4.968248384267794e-19,0.024812986834299097,-1.1070043366487178e-18,0.024812986834299097,-1.2856654227928213e-17,0.4203299075617617,-1.2741611766862022e-17,-0.42032990756176186,0.5754721874742191,0.5810882229810497,0.5754721874742191,1000.0,147.85714285714295,[0.95394832]
-1.3784883017315565e-17,0.4186572612003811,-3.9604182467756626e-19,0.4186572612003811,-3.63274150385832e-19,0.025780535299452872,-3.9604182467756626e-19,0.025780535299452872,-1.388953439289817e-17,0.41945028114918514,-1.385562875804987e-17,-0.41945028114918503,0.5744699924502469,0.5830681397130414,0.5744699924502469,1000.0,147.85714285714295,[0.95394832]
-1.3103406960941303e-17,0.4158553965359091,3.323919050534417e-19,0.4158553965359091,-2.6014044443210795e-19,0.02746897090982903,3.323919050534417e-19,0.02746897090982903,-1.4942788636740768e-17,0.41676162874103845,-1.4999653936011403e-17,-0.4167616287410385,0.5726267564349002,0.5866832157388612,0.5726267564349,1000.0,147.85714285714295,[0.985039]
-1.246937715732247e-17,0.41043966767389367,1.0845667781898813e-18,0.41043966767389367,-2.0148124148563972e-19,0.030198408870734012,1.0845667781898813e-18,0.030198408870734012,-1.6016281301835548e-17,0.41154910362990754,-1.6125463638475384e-17,-0.41154910362990754,0.5695055690381453,0.5927282797952845,0.5695055690381452,1000.0,147.85714285714295,[0.98360443]
-1.1886015474944959e-17,0.40063965553516057,1.873591772133734e-18,0.40063965553516057,-2.1227026161274543e-19,0.03469086545977652,1.873591772133734e-18,0.03469086545977652,-1.7133862693579405e-17,0.40213876924972103,-1.7421010181412834e-17,-0.4021387692497211,0.5640389321719896,0.603092170392357,0.5640389321719897,1000.0,147.85714285714295,[0.98159346]
-1.146795260309637e-17,0.3818052962285634,2.759057676146962e-18,0.3818052962285634,-4.0103996013134136e-19,0.042765949236461945,2.759057676146962e-18,0.042765949236461945,-1.8351143957759125e-17,0.3841929341389251,-1.9006893109197913e-17,-0.38419293413892525,0.5531269253232609,0.622977695399178,0.553126925323261,1000.0,147.85714285714295,[0.96754373]
-1.1440312362927911e-17,0.33781036414277965,3.8772961594899155e-18,0.33781036414277965,-1.0967028360951355e-18,0.06014054876736374,3.8772961594899155e-18,0.06014054876736374,-1.9835992921091067e-17,0.3431220303744966,-2.050401250196047e-17,-0.3431220303744966,0.5235170440634332,0.6722051838167944,0.5235170440634335,1000.0,147.85714285714295,[0.57807094]
-1.3348167222653906e-17,0.1776127324154142,5.890162735352858e-18,0.1776127324154142,-5.585136575751479e-18,0.09850153696276337,5.890162735352858e-18,0.09850153696276337,-2.279556739782822e-17,0.20309809329507794,-1.8187080955150764e-17,-0.20309809329507772,0.3411379089419475,0.8759279959936381,0.3411379089419474,1000.0,147.85714285714295,[0.52030504]
-1.2541852241052529e-17,0.18436723995102017,5.900040305842507e-18,0.18436723995102017,-5.555567453792122e-18,0.10010301517987796,5.900040305842507e-18,0.10010301517987796,-2.2850826681661942e-17,0.2097901161047867,-1.577794883692646e-17,-0.20979011610478668,0.20082982538856012,0.9588194629171859,0.20082982538856,1000.0,134.9999999999996,[0.60839583]
-9.636405154878394e-18,0.3460164270836239,3.751169546693602e-18,0.3460164270836239,-1.0029676596588155e-18,0.062197565874819664,3.751169546693602e-18,0.062197565874819664,-1.9391451377449197e-17,0.3515620926841646,-2.040702217520998e-17,-0.35156209268416483,0.403653959165298,0.8210523506454138,0.40365395916529806,1000.0,134.9999999999996,[0.65437648]
-8.621228309378296e-18,0.38874020978662194,2.5069936293453656e-18,0.38874020978662194,-2.27071779794981e-19,0.0446564007819986,2.5069936293453656e-18,0.0446564007819986,-1.7436930296285412e-17,0.3912967477960293,-1.7929153942662504e-17,-0.3912967477960293,0.43967118426445556,0.7831848437342123,0.4396711842644555,1000.0,134.9999999999996,[1.06176885]
-7.97715984184552e-18,0.40744344923688247,1.5072330006202065e-18,0.40744344923688247,3.740122989052657e-20,0.03667465529492616,1.5072330006202065e-18,0.03667465529492616,-1.579186544389111e-17,0.40909069247179114,-1.594990783248559e-17,-0.40909069247179125,0.45316209921779066,0.7676511080334935,0.45316209921779077,1000.0,134.9999999999996,[1.11751576]
-7.476939323606633e-18,0.41764084417531,6.013596332418034e-19,0.41764084417531,1.130398917226884e-19,0.032395887928628936,6.013596332418034e-19,0.032395887928628936,-1.425071008946753e-17,0.4188954144868977,-1.4328181772693524e-17,-0.41889541448689777,0.45983429625096495,0.7596741669839506,0.45983429625096495,1000.0,134.9999999999996,[1.11605046]
-7.034169807632005e-18,0.4237586705325489,-2.5963490783086734e-19,0.4237586705325489,1.357731414011184e-19,0.029949357807998175,-2.5963490783086734e-19,0.029949357807998175,-1.2762202609683845e-17,0.42481569519572226,-1.2701063336207995e-17,-0.42481569519572226,0.46350607708021535,0.7551981415624768,0.46350607708021524,1000.0,134.9999999999996,[1.13882646]
-6.631063188438989e-18,0.42749007558570246,-1.0989486056088228e-18,0.42749007558570246,1.1157097405115907e-19,0.02859533740797552,-1.0989486056088228e-18,0.02859533740797552,-1.1304095154784823e-17,0.4284453968077444,-1.1104936566875e-17,-0.42844539680774446,0.46551409018489137,0.7527238960459979,0.4655140901848913,1000.0,134.9999999999996,[1.13943919]
-6.246355134020683e-18,0.4295738274935658,-1.913307660173337e-18,0.4295738274935658,4.300558533572647e-20,0.028010695967988417,-1.913307660173337e-18,0.028010695967988417,-9.86185540217883e-18,0.43048608845824843,-9.590638202009341e-18,-0.43048608845824843,0.46640662996072696,0.7516180619552427,0.46640662996072696,1000.0,134.9999999999996,[1.13688974]
-5.8952732122735755e-18,0.4303155201728179,-2.7160383130841576e-18,0.4303155201728179,-4.292185914809962e-20,0.028068624057322012,-2.7160383130841576e-18,0.028068624057322012,-8.454772169774836e-18,0.431229978733012,-8.067995293530906e-18,-0.43122997873301205,0.46639486579449524,0.7516326618242912,0.4663948657944952,1000.0,134.9999999999996,[1.13688974]
-5.552890335438383e-18,0.4297531698975502,-3.5046605734672736e-18,0.4297531698975502,-1.669712146311391e-19,0.02876908200173009,-3.5046605734672736e-18,0.02876908200173009,-7.051758665984603e-18,0.4307150416646891,-6.590618277085422e-18,-0.430715041664689,0.46548651556959336,0.7527580007185292,0.4654865155695934,1000.0,134.9999999999996,[1.13943919]
-5.249576853295295e-18,0.42766933836149995,-4.2763319902440115e-18,0.42766933836149995,-3.0825226738791254e-19,0.03023880080283803,-4.2763319902440115e-18,0.03023880080283803,-5.678742453518299e-18,0.4287370383446677,-5.0810750941732855e-18,-0.4287370383446676,0.46348985743466253,0.7552180507048231,0.4634898574346625,1000.0,134.9999999999996,[1.14750767]
-4.9641447412489184e-18,0.4234592142296635,-5.0160359007246895e-18,0.4234592142296635,-4.941689165762365e-19,0.032800836223616146,-5.0160359007246895e-18,0.032800836223616146,-4.351845592707313e-18,0.42472767860474137,-3.5617011352174594e-18,-0.4247276786047412,0.4598927709272243,0.7596033691985309,0.45989277092722414,1000.0,134.9999999999996,[1.13882646]
-4.737876308925091e-18,0.41568601005355194,-5.717626908720013e-18,0.41568601005355194,-7.579562193833317e-19,0.03719484977640902,-5.717626908720013e-18,0.03719484977640902,-3.0839725146977778e-18,0.417346757270416,-2.133079230886569e-18,-0.41734675727041604,0.45344926453076545,0.7673118850852085,0.45344926453076545,1000.0,134.9999999999996,[1.12620322]
-4.616327080994099e-18,0.40054196417945936,-6.322100573237698e-18,0.40054196417945936,-1.1901015180432083e-18,0.045291542337460855,-6.322100573237698e-18,0.045291542337460855,-1.9525752421703306e-18,0.40309451605801516,-5.764125494647742e-19,-0.40309451605801505,0.44065400010411715,0.7820793466039627,0.4406540001041171,1000.0,134.9999999999996,[1.11344491]
-4.794335314839745e-18,0.3645424164230031,-6.690951788570864e-18,0.3645424164230031,-2.137751073571931e-18,0.06294741411430016,-6.690951788570864e-18,0.06294741411430016,-1.2002074808548013e-18,0.36993722483037494,6.235102816606476e-19,-0.3699372248303748,0.40762997350021796,0.817114196063453,0.4076299735002179,1000.0,134.9999999999996,[1.10422734]
-6.476515244331419e-18,0.22177896826697294,-6.150901716043982e-18,0.22177896826697294,-6.89277482367055e-18,0.10096781574103435,-6.150901716043982e-18,0.10096781574103435,-2.3326794160943197e-18,0.24368096064542755,9.60980779199144e-19,-0.24368096064542777,0.24788796015484507,0.9365378360859425,0.24788796015484502,1000.0,134.9999999999996,[0.65872337]
-5.940413285481207e-18,0.22855561153974358,-6.521160644145698e-18,0.22855561153974358,-6.93995876969892e-18,0.09947341417003394,-6.521160644145698e-18,0.09947341417003394,-2.0754958838581474e-18,0.24926417250168434,2.185828914053218e-18,-0.24926417250168417,0.10601706511877254,0.9886964973171514,0.10601706511877239,1000.0,122.14285714285755,[0.6936661]
-3.776394445322801e-18,0.37281741994092993,-7.664787769105044e-18,0.37281741994092993,-2.3022237503887624e-18,0.06122287421643827,-7.664787769105044e-18,0.06122287421643827,1.7596913023812608e-19,0.377810890444854,2.7750796792623063e-18,-0.37781089044485394,0.2742101584682854,0.9217470249399213,0.27421015846828534,1000.0,122.14285714285755,[1.12192869]
-3.0720600799012485e-18,0.4075922235160634,-7.914041689495341e-18,0.4075922235160634,-1.4626339681566702e-18,0.0439573263785915,-7.914041689495341e-18,0.0439573263785915,5.14523918596e-19,0.4099556893288865,2.1699219588762546e-18,-0.4099556893288865,0.309836636135542,0.8988896026856822,0.3098366361355422,1000.0,122.14285714285755,[1.1766473]
-2.65533682705469e-18,0.4226513950434888,-7.929431145684994e-18,0.4226513950434888,-1.1324396105721434e-18,0.035990356878130625,-7.929431145684994e-18,0.035990356878130625,4.3891387204315365e-19,0.4241809843927737,1.81409754504442e-18,-0.4241809843927735,0.32404711406994535,0.8888120924728014,0.32404711406994535,1000.0,122.14285714285755,[1.18891554]
-2.3324632117617136e-18,0.43086811775046463,-7.852446240943554e-18,0.43086811775046463,-9.735840071024299e-19,0.031605131667142204,-7.852446240943554e-18,0.031605131667142204,2.1448317654647792e-19,0.43202571594932376,1.3423124387685341e-18,-0.4320257159493238,0.33139537702550587,0.8833765947613996,0.33139537702550587,1000.0,122.14285714285755,[1.20519134]
-2.0508634274932956e-18,0.4358263712680303,-7.73179786439842e-18,0.4358263712680303,-8.862242089150887e-19,0.0289820041974713,-7.73179786439842e-18,0.0289820041974713,-7.62883346551398e-20,0.43678894498368587,9.394887615550025e-19,-0.4367889449836859,0.3356476153061639,0.8801598472314963,0.3356476153061639,1000.0,122.14285714285755,[1.20616369]
-1.8039750368597466e-18,0.43888566541769136,-7.591079843757809e-18,0.43888566541769136,-8.607277300886828e-19,0.027398896752808315,-7.591079843757809e-18,0.027398896752808315,-4.2159738875663305e-19,0.4397400673720793,5.202255021883446e-19,-0.43974006737207944,0.33816779737478647,0.8782283766978672,0.33816779737478647,1000.0,122.14285714285755,[1.20616369]
-1.5695671473083978e-18,0.4406379450199744,-7.430691733106976e-18,0.4406379450199744,-8.517851903462971e-19,0.02653562540356188,-7.430691733106976e-18,0.02653562540356188,-7.856261346562666e-19,0.4414362219018554,8.206442749912486e-20,-0.4414362219018553,0.33953263892963703,0.87717454032989,0.339532638929637,1000.0,122.14285714285755,[1.20616369]
-1.3492761288860318e-18,0.4413294279562369,-7.257974941328089e-18,0.4413294279562369,-8.665880333099825e-19,0.026258821905243212,-7.257974941328089e-18,0.026258821905243212,-1.1879166884762114e-18,0.4421099294384039,-3.2050819634990053e-19,-0.4421099294384041,0.3399785045328312,0.8768290785046077,0.3399785045328311,1000.0,122.14285714285755,[1.20616369]
-1.1300873286298928e-18,0.4409943569086738,-7.068164891936971e-18,0.4409943569086738,-9.062212549871184e-19,0.02655196426866498,-7.068164891936971e-18,0.02655196426866498,-1.6083864232627817e-18,0.4417929714604107,-7.744511037488609e-19,-0.4417929714604108,0.339539820572758,0.877168980579477,0.33953982057275794,1000.0,122.14285714285755,[1.20616369]
-9.418284658383367e-19,0.4394659222590408,-6.865898982398621e-18,0.4394659222590408,-9.84930230307318e-19,0.027510117977333857,-6.865898982398621e-18,0.027510117977333857,-2.065486895048679e-18,0.44032613301746687,-1.2216542891747987e-18,-0.4403261330174669,0.33806222847909256,0.8783096602858808,0.3380622284790926,1000.0,122.14285714285755,[1.20616369]
-7.573722557202634e-19,0.4362728545339103,-6.644766992711927e-18,0.4362728545339103,-1.0985093080800718e-18,0.029395296328449574,-6.644766992711927e-18,0.029395296328449574,-2.5708825395430326e-18,0.4372620347679454,-1.6603788962128537e-18,-0.4372620347679454,0.3351026995138213,0.88057501756358,0.3351026995138214,1000.0,122.14285714285755,[1.20616369]
-6.299092033974e-19,0.43028660498011173,-6.3749573659122224e-18,0.43028660498011173,-1.3052910001463291e-18,0.0328183096461083,-6.3749573659122224e-18,0.0328183096461083,-3.1587622565769133e-18,0.43153632972594397,-2.1796412262809427e-18,-0.4315363297259439,0.32958105449280933,0.8847330993236411,0.32958105449280933,1000.0,122.14285714285755,[1.21154407]
-5.572475904392107e-19,0.4184804582710114,-6.04125962378372e-18,0.4184804582710114,-1.6598120545370959e-18,0.03933043877258172,-6.04125962378372e-18,0.03933043877258172,-3.918928211418498e-18,0.42032460952073636,-2.7502083760502675e-18,-0.4203246095207364,0.3185293252673285,0.8927923262940161,0.3185293252673285,1000.0,122.14285714285755,[1.17120083]
-6.788646471804322e-19,0.389810286887864,-5.494857091726941e-18,0.389810286887864,-2.5425907718575655e-18,0.05376784624264041,-5.494857091726941e-18,0.05376784624264041,-5.162577925574877e-18,0.39350100514887026,-3.424859836738455e-18,-0.39350100514886993,0.290865501740377,0.9114793029985037,0.2908655017403768,1000.0,122.14285714285755,[1.12000189]
-1.93404949837644e-18,0.2626105319358027,-4.221996741471519e-18,0.2626105319358027,-7.222163051742878e-18,0.08391422638470422,-4.221996741471519e-18,0.08391422638470422,-8.669813874180546e-18,0.27569165542930146,-7.497403825734136e-18,-0.2756916554293018,0.17611523836994972,0.9684868845925544,0.1761152383699497,1000.0,122.14285714285755,[0.704115]
-1.9841919463384856e-18,0.2680673192011554,-3.687110137123347e-18,0.2680673192011554,-7.184969680061824e-18,0.07961850457771402,-3.687110137123347e-18,0.07961850457771402,-9.263426185503966e-18,0.2796411877654749,-5.9116627165293236e-18,-0.2796411877654749,0.03384925171567656,0.9988535710085725,0.03384925171567651,1000.0,109.28571428571402,[0.70617802]
-1.2796752909894418e-18,0.39651697976541633,-3.493270897430832e-18,0.39651697976541633,-2.457595178645523e-18,0.04859906177737052,-3.493270897430832e-18,0.04859906177737052,-6.48217683033525e-18,0.3994841474300679,-5.447471303184354e-18,-0.3994841474300679,0.15061248490208015,0.9770525875219006,0.15061248490208015,1000.0,109.28571428571402,[1.16421537]
-1.7065474295665666e-18,0.4242526689828861,-2.589531090577319e-18,0.4242526689828861,-1.5275513061938107e-18,0.035028763708395805,-2.589531090577319e-18,0.035028763708395805,-5.96993895460901e-18,0.42569630187028995,-5.503767552125374e-18,-0.4256963018702899,0.17783085653687872,0.9678596865903236,0.17783085653687863,1000.0,109.28571428571402,[1.21969682]
-2.2652702966282655e-18,0.4360381447618517,-1.50265707301448e-18,0.4360381447618517,-1.112466013131775e-18,0.028654292687626925,-1.50265707301448e-18,0.028654292687626925,-5.973745846583132e-18,0.43697864041253276,-5.77525145393837e-18,-0.4369786404125328,0.18927432648497697,0.9635094491842394,0.18927432648497697,1000.0,109.28571428571402,[1.21792862]
-2.908664715359388e-18,0.4424272284161782,-3.5078954248113756e-19,0.4424272284161782,-8.574600241646259e-19,0.025030714546959022,-3.5078954248113756e-19,0.025030714546959022,-6.158789729752333e-18,0.4431347302060089,-6.101582942173297e-18,-0.44313473020600913,0.19546974383341448,0.9610323399820624,0.19546974383341448,1000.0,109.28571428571402,[1.20092685]
-3.596003724517849e-18,0.44626717354741874,8.406609342733215e-19,0.44626717354741874,-6.795100807027708e-19,0.022749883035647556,8.406609342733215e-19,0.022749883035647556,-6.422787937766236e-18,0.44684667097801867,-6.4977194155493e-18,-0.4468466709780188,0.19925964666980295,0.9594744323941364,0.19925964666980295,1000.0,109.28571428571402,[1.20444737]
-4.270328080713554e-18,0.4486245385374182,2.0435202963952438e-18,0.4486245385374182,-5.409041591275623e-19,0.0212503893552683,2.0435202963952438e-18,0.0212503893552683,-6.75325731997974e-18,0.44912754939511523,-6.932366302827973e-18,-0.4491275493951153,0.2017018472500061,0.958453300704771,0.20170184725000617,1000.0,109.28571428571402,[1.21911019]
-4.9690729282421445e-18,0.4499602509907622,3.265097230664987e-18,0.4499602509907622,-4.427277853589597e-19,0.020278415802099044,3.265097230664987e-18,0.020278415802099044,-7.124154262827674e-18,0.45041696417776333,-7.413869064730264e-18,-0.45041696417776333,0.2032572706455115,0.9577958884122829,0.2032572706455115,1000.0,109.28571428571402,[1.21911019]
-5.681941005850677e-18,0.45046417450653253,4.491258504902662e-18,0.45046417450653253,-3.6870191246377463e-19,0.019720453892370426,4.491258504902662e-18,0.019720453892370426,-7.519469577358174e-18,0.45089562962571816,-7.900200686440364e-18,-0.45089562962571833,0.20412841196232268,0.9574252883956431,0.20412841196232268,1000.0,109.28571428571402,[1.21911019]
-6.397515876917425e-18,0.450159987936182,5.72775241205799e-18,0.450159987936182,-3.334782258422711e-19,0.019546775382521708,5.72775241205799e-18,0.019546775382521708,-7.945987734331914e-18,0.45058416657330336,-8.437431122915824e-18,-0.45058416657330336,0.20436911183696158,0.957322585262639,0.20436911183696152,1000.0,109.28571428571402,[1.21911019]
-7.130465521654483e-18,0.44891274498203554,6.973036111654543e-18,0.44891274498203554,-3.074831655172358e-19,0.019801955323857305,6.973036111654543e-18,0.019801955323857305,-8.411032125603345e-18,0.44934927399735963,-9.011658928566905e-18,-0.44934927399735947,0.2039034958093972,0.9575211375178168,0.20390349580939723,1000.0,109.28571428571402,[1.21911019]
-7.859078361837503e-18,0.44634499568872643,8.237063879027913e-18,0.44634499568872643,-3.4470879562659247e-19,0.02063507382729096,8.237063879027913e-18,0.02063507382729096,-8.93685219066543e-18,0.4468217334107941,-9.695897951032361e-18,-0.44682173341079423,0.20247037483849026,0.9581291638529339,0.20247037483849029,1000.0,109.28571428571402,[1.21911019]
-8.608321758581843e-18,0.4415499863948004,9.52345528205522e-18,0.4415499863948004,-4.45155248648486e-19,0.022407115952791736,9.52345528205522e-18,0.022407115952791736,-9.564957571640794e-18,0.4421181621813002,-1.0522727562888544e-17,-0.44211816218129996,0.19941641194382181,0.9594092918535361,0.19941641194382187,1000.0,109.28571428571402,[1.21911019]
-9.410747181846631e-18,0.43206609745485597,1.085027159615406e-17,0.43206609745485597,-7.184338819135433e-19,0.026042696670699906,1.085027159615406e-17,0.026042696670699906,-1.038217073536074e-17,0.4328502450267889,-1.168360755190471e-17,-0.432850245026789,0.1929633737624639,0.9620448392733133,0.19296337376246384,1000.0,109.28571428571402,[1.20453584]
-1.0343952910184562e-17,0.4086053262210786,1.2305028148853977e-17,0.4086053262210786,-1.5004333611119318e-18,0.034399783020339816,1.2305028148853977e-17,0.034399783020339816,-1.1768060644043542e-17,0.41005079891164775,-1.3824168576279521e-17,-0.41005079891164764,0.17672789781072515,0.9682636522511848,0.17672789781072515,1000.0,109.28571428571402,[1.18464981]
-1.2134523278422733e-17,0.2920137220276552,1.4172436768527095e-17,0.2920137220276552,-6.085734789181701e-18,0.05069875580589123,1.4172436768527095e-17,0.05069875580589123,-1.5662804175227218e-17,0.29638214806683294,-2.0482222158566772e-17,-0.29638214806683294,0.11593124121728937,0.9864683951448404,0.11593124121728954,1000.0,109.28571428571402,[0.70397464]
-1.1846316544107913e-17,0.2950675767370499,1.41325927741213e-17,0.2950675767370499,-6.241032427111709e-18,0.04445156418781041,1.41325927741213e-17,0.04445156418781041,-1.5349437191617948e-17,0.298397078404293,-1.9230272309178307e-17,-0.29839707840429314,0.02638637309235119,0.9993035167705867,0.026386373092351107,1000.0,96.42857142857196,[0.69230016]
-9.769640015021711e-18,0.41240961874965915,1.2755631296258442e-17,0.41240961874965915,-1.969578878317483e-18,0.02680758780930561,1.2755631296258442e-17,0.02680758780930561,-1.0556099702166187e-17,0.413279978224681,-1.2204143534091799e-17,-0.41327997822468093,0.033425716049773666,0.9988820966526128,0.03342571604977371,1000.0,96.42857142857196,[1.15876261]
-8.535128113393417e-18,0.4354076292972384,1.1760408905106763e-17,0.4354076292972384,-1.5000663966503394e-18,0.019620725562267998,1.1760408905106763e-17,0.019620725562267998,-8.285182127173748e-18,0.4358494883808299,-9.333060465072469e-18,-0.4358494883808298,0.04745875999549523,0.9977451238665013,0.047458759995495245,1000.0,96.42857142857196,[1.18556633]
-7.428674885827812e-18,0.4449354531280785,1.0871820822411736e-17,0.4449354531280785,-1.5259764722453705e-18,0.016101558062896128,1.0871820822411736e-17,0.016101558062896128,-6.595961779145301e-18,0.44522670362674943,-7.381486301914118e-18,-0.44522670362674943,0.053707431253321655,0.9971113396488576,0.053707431253321676,1000.0,96.42857142857196,[1.19227689]
-6.348819030473392e-18,0.45000909072289463,1.0003707369501392e-17,0.45000909072289463,-1.7304131686673513e-18,0.013957426986412448,1.0003707369501392e-17,0.013957426986412448,-5.105074991877787e-18,0.45022548961751113,-5.724572020922422e-18,-0.45022548961751097,0.05734962556202589,0.9967055938920936,0.05734962556202589,1000.0,96.42857142857196,[1.19227689]
-5.2901215246098876e-18,0.45299056768132856,9.152693731871454e-18,0.45299056768132856,-2.0015942754629528e-18,0.012470588256635265,9.152693731871454e-18,0.012470588256635265,-3.7183727272099725e-18,0.4531621894859709,-4.22298673855855e-18,-0.4531621894859708,0.059804310619100826,0.9964170255785219,0.05980431061910084,1000.0,96.42857142857196,[1.19227689]
-4.233600899624682e-18,0.454752210401854,8.309131791179377e-18,0.454752210401854,-2.337620917141116e-18,0.011351496936376592,8.309131791179377e-18,0.011351496936376592,-2.3883742880687334e-18,0.4548938660259872,-2.803913795539148e-18,-0.4548938660259873,0.061611876075468384,0.9961967443496903,0.06161187607546842,1000.0,96.42857142857196,[1.18952471]
-3.1830428509887003e-18,0.4556656964197678,7.464212148218482e-18,0.4556656964197678,-2.688842470853031e-18,0.010462974280302453,7.464212148218482e-18,0.010462974280302453,-1.1064002363076126e-18,0.4557858057514541,-1.449589244241466e-18,-0.4557858057514542,0.06301976826475741,0.9960205909597012,0.06301976826475744,1000.0,96.42857142857196,[1.18952471]
-2.1406306185311987e-18,0.4558787304792268,6.635858764809091e-18,0.4558787304792268,-3.0734371239792347e-18,0.009733854360664703,6.635858764809091e-18,0.009733854360664703,1.4518756829591997e-19,0.45598263653791266,-1.38921055346138e-19,-0.45598263653791266,0.06415311345048952,0.9958758738262603,0.06415311345048952,1000.0,96.42857142857196,[1.18952471]
-1.10310629971085e-18,0.45539974222213875,5.80464736413899e-18,0.45539974222213875,-3.4778390482347856e-18,0.009127091799287931,5.80464736413899e-18,0.009127091799287931,1.3574351928790105e-18,0.4554911953273115,1.1237524451586258e-18,-0.4554911953273115,0.06507509340587402,0.9957562274153416,0.06507509340587406,1000.0,96.42857142857196,[1.19023262]
-9.380724454718866e-20,0.45410058536237263,4.987416117152254e-18,0.45410058536237263,-3.915071772618153e-18,0.008627943677206517,4.987416117152254e-18,0.008627943677206517,2.5341405209019225e-18,0.45418254374045053,2.344158198381078e-18,-0.45418254374045064,0.06580836030166681,0.9956598412253111,0.06580836030166683,1000.0,96.42857142857196,[1.19023262]
9.344902364316491e-19,0.4516393383667574,4.157669891646087e-18,0.4516393383667574,-4.4019569083052885e-18,0.008243030863954441,4.157669891646087e-18,0.008243030863954441,3.647086237396667e-18,0.45171455535347377,3.494393939609618e-18,-0.45171455535347377,0.06633528235424652,0.9955899058497755,0.06633528235424652,1000.0,96.42857142857196,[1.19023262]
1.9275124967905864e-18,0.4472006834720832,3.3349939916179244e-18,0.4472006834720832,-4.965083083949806e-18,0.008012016651047452,3.3349939916179244e-18,0.008012016651047452,4.661273736110061e-18,0.4472724490830114,4.540696502203521e-18,-0.4472724490830114,0.06657133742822106,0.9955583930970778,0.06657133742822108,1000.0,96.42857142857196,[1.19023262]
2.9102205386940235e-18,0.43856023577609987,2.523306325727379e-18,0.43856023577609987,-5.687201779226873e-18,0.008049719547120547,2.523306325727379e-18,0.008049719547120547,5.45216826163586e-18,0.43863410536434083,5.35825725629218e-18,-0.4386341053643407,0.06626242904719937,0.9955996087752997,0.06626242904719937,1000.0,96.42857142857196,[1.19023262]
3.8066503339857296e-18,0.41715390158141574,1.7264044793588896e-18,0.41715390158141574,-6.9326892302104046e-18,0.008669855331040584,1.7264044793588896e-18,0.008669855331040584,5.65702345651783e-18,0.4172439861712313,5.584705719875619e-18,-0.41724398617123126,0.0645532582922351,0.9958241580157172,0.06455325829223511,1000.0,96.42857142857196,[1.15684434]
3.913546419256863e-18,0.30411066619761973,9.446959552864114e-19,0.30411066619761973,-1.1969266595943915e-17,0.00789165026672292,9.446959552864114e-19,0.00789165026672292,3.2556228574095824e-18,0.30421304284841644,3.2065782693357737e-18,-0.30421304284841644,0.060916339321991024,0.9962822889157553,0.060916339321991,1000.0,96.42857142857196,[0.6860663]
4.333487301288676e-18,0.30415166913803127,-8.034120542495209e-20,0.30415166913803127,-1.2046766112039527e-17,0.0009301984443494839,-8.034120542495209e-20,0.0009301984443494839,3.956692961338847e-18,0.3041530915650806,3.9571879795143505e-18,-0.3041530915650806,0.08131943336395417,0.993365139067569,0.08131943336395417,1000.0,83.57142857142804,[0.68051073]
5.063225675791439e-18,0.4172882502857529,-7.309226959993408e-19,0.4172882502857529,-7.142938272765202e-18,0.0001575949108046868,-7.309226959993408e-19,0.0001575949108046868,7.761319029269295e-18,0.4172882800447443,7.761870727998687e-18,-0.4172882800447444,0.07943620453959424,0.9936698540343707,0.07943620453959425,1000.0,83.57142857142804,[1.1444928]
5.031651364629677e-18,0.43878606810929144,-1.3986482495545597e-18,0.43878606810929144,-6.0570583712022865e-18,0.0007787454958437091,-1.3986482495545597e-18,0.0007787454958437091,8.95589353939958e-18,0.43878675915683574,8.960846138814598e-18,-0.43878675915683574,0.08041777651674083,0.9935119337180641,0.08041777651674084,1000.0,83.57142857142804,[1.17717316]
4.898598794413852e-18,0.44751720885525637,-2.080432416974507e-18,0.44751720885525637,-5.479080203202296e-18,0.0008128611387582302,-2.080432416974507e-18,0.0008128611387582302,9.556558457249113e-18,0.44751794708685155,9.564100702527815e-18,-0.44751794708685155,0.0804470060697406,0.9935072009949553,0.08044700606974059,1000.0,83.57142857142804,[1.17717316]
4.7438537228265526e-18,0.4520459851707825,-2.7686436953590478e-18,0.4520459851707825,-5.069317285853872e-18,0.0005736480608579319,-2.7686436953590478e-18,0.0005736480608579319,9.945054856701244e-18,0.45204634915141295,9.952073252459245e-18,-0.4520463491514128,0.08006245484577963,0.9935693265435157,0.08006245484577962,1000.0,83.57142857142804,[1.17717316]
4.558170235173392e-18,0.4545968053146813,-3.4618583089645543e-18,0.4545968053146813,-4.7254837733311574e-18,0.00017592100771410211,-3.4618583089645543e-18,0.00017592100771410211,1.0229095948225339e-17,0.4545968393538558,1.0231774460626334e-17,-0.4545968393538558,0.07944275172734752,0.9936688071968316,0.07944275172734751,1000.0,83.57142857142804,[1.17717316]
4.3860567488667405e-18,0.45598496006533035,-4.1619921236041785e-18,0.45598496006533035,-4.43292857638554e-18,-0.0003406546997405917,-4.1619921236041785e-18,-0.0003406546997405917,1.0461316888559371e-17,0.4559850873125188,1.0455094840441633e-17,-0.45598508731251886,0.07864587856576674,0.9937955783606792,0.07864587856576676,1000.0,83.57142857142804,[1.17717316]
4.191691173504223e-18,0.45655232752154107,-4.851257000675739e-18,0.45655232752154107,-4.175915543521956e-18,-0.0009694504114639109,-4.851257000675739e-18,-0.0009694504114639109,1.0644157395221278e-17,0.4565533567935261,1.06235253466041e-17,-0.45655335679352615,0.07767862449492433,0.9939477162271428,0.07767862449492433,1000.0,83.57142857142804,[1.17748638]
3.984845097059506e-18,0.4564270050187127,-5.557479378380462e-18,0.4564270050187127,-3.941964173658205e-18,-0.0017251956161703906,-5.557479378380462e-18,-0.0017251956161703906,1.0795390736141469e-17,0.4564302654406981,1.0753278229594148e-17,-0.456430265440698,0.07651438808912647,0.994128310043876,0.07651438808912647,1000.0,83.57142857142804,[1.17748638]
3.787230097756939e-18,0.4556005132807779,-6.264126646615671e-18,0.4556005132807779,-3.731753019852871e-18,-0.0026449168188863725,-6.264126646615671e-18,-0.0026449168188863725,1.0910945063055862e-17,0.45560819053951085,1.083799167428554e-17,-0.45560819053951085,0.07509038959271486,0.9943454464026215,0.07509038959271487,1000.0,83.57142857142804,[1.17748638]
3.580379782011583e-18,0.4539251007135016,-6.974267297294907e-18,0.4539251007135016,-3.545417607248268e-18,-0.0037997560530391144,-6.974267297294907e-18,-0.0037997560530391144,1.0977528578722406e-17,0.4539410041005608,1.0860210854854717e-17,-0.4539410041005608,0.07328637935338515,0.9946146053635768,0.07328637935338518,1000.0,83.57142857142804,[1.18025341]
3.362146944049614e-18,0.4510290504632342,-7.695295300004362e-18,0.4510290504632342,-3.4220273305365005e-18,-0.005326864083911141,-7.695295300004362e-18,-0.005326864083911141,1.0992831924117823e-17,0.45106050574477835,1.0809844621685109e-17,-0.4510605057447784,0.07086714705000911,0.9949651727261536,0.07086714705000915,1000.0,83.57142857142804,[1.18213175]
3.1379324528855444e-18,0.4460400150145356,-8.431822351448901e-18,0.4460400150145356,-3.3615821897175678e-18,-0.0075157561771769694,-8.431822351448901e-18,-0.0075157561771769694,1.0903275638286727e-17,0.44610333061419966,1.061696377064451e-17,-0.4461033306141998,0.06732148064228564,0.995457501095984,0.06732148064228567,1000.0,83.57142857142804,[1.18213175]
2.85891864200712e-18,0.43659599888755113,-9.196210649727263e-18,0.43659599888755113,-3.479391559615797e-18,-0.011084152606955996,-9.196210649727263e-18,-0.011084152606955996,1.0611586848409273e-17,0.43673667659544324,1.0139700866136582e-17,-0.43673667659544313,0.061312172189607786,0.9962337251281868,0.061312172189607814,1000.0,83.57142857142804,[1.18142384]
2.486570268602793e-18,0.4136812245505327,-1.0057510254848284e-17,0.4136812245505327,-4.100354911317187e-18,-0.018324726142734678,-1.0057510254848284e-17,-0.018324726142734678,9.739690945742554e-18,0.4140868883867667,8.836484139674831e-18,-0.4140868883867666,0.047998202513570155,0.9976935126134342,0.04799820251357019,1000.0,83.57142857142804,[1.1489659]
1.2351605146261123e-18,0.29642290354663153,-1.1305857710264698e-17,0.29642290354663153,-8.517832826610093e-18,-0.036027095141836454,-1.1305857710264698e-17,-0.036027095141836454,6.3489054062239186e-18,0.29860423528706775,3.500157889942712e-18,-0.2986042352870677,0.006184679351705098,0.9999617490097474,0.006184679351705043,1000.0,83.57142857142804,[0.68557069]
5.376895769396421e-19,0.2934372246234261,-1.0638442817959456e-17,0.2934372246234261,-8.299069281199337e-18,-0.042323753193398185,-1.0638442817959456e-17,-0.042323753193398185,5.573977146731011e-18,0.2964737844718732,2.4751810870312448e-18,-0.29647378447187317,0.1358706836557909,0.9813655356929017,0.13587068365579094,1000.0,70.71428571428592,[0.66335883]
6.535433044616886e-19,0.4101030010984567,-7.494490558166057e-18,0.4101030010984567,-3.4254785186913536e-18,-0.026070340946454718,-7.494490558166057e-18,-0.026070340946454718,7.14481131501799e-18,0.4109308143556834,6.142890266207324e-18,-0.41093081435568357,0.19072912644751863,0.9629355121964985,0.19072912644751866,1000.0,70.71428571428592,[1.10396011]
-1.1618227332159492e-19,0.4336348895012157,-4.76483700244888e-18,0.4336348895012157,-2.353556382005301e-18,-0.017762780215121905,-4.76483700244888e-18,-0.017762780215121905,6.201503333256526e-18,0.43399854118844955,5.804674739676361e-18,-0.4339985411884495,0.20603031779840855,0.956610169450322,0.20603031779840855,1000.0,70.71428571428592,[1.1301042]
-9.98774991326514e-19,0.44318784536578754,-2.16297332263823e-18,0.44318784536578754,-1.788721503246842e-18,-0.01418090557837761,-2.16297332263823e-18,-0.01418090557837761,4.696709520241676e-18,0.4434146641271487,4.552974952452693e-18,-0.44341466412714864,0.21207804822782023,0.9539632083679942,0.21207804822782028,1000.0,70.71428571428592,[1.13414985]
-1.926935951903637e-18,0.44805008887186315,3.9670017481904037e-19,0.44805008887186315,-1.3982066667778078e-18,-0.012466779567793813,3.9670017481904037e-19,-0.012466779567793813,2.9995505518534953e-18,0.44822349640650994,3.0168345357001095e-18,-0.4482234964065099,0.21488857880049536,0.952704464879958,0.21488857880049528,1000.0,70.71428571428592,[1.13352742]
-2.8827795456556128e-18,0.450683278226132,2.935464911610534e-18,0.450683278226132,-1.0709072216173664e-18,-0.011695769876624918,2.935464911610534e-18,-0.011695769876624918,1.1990225963261074e-18,0.4508350122890415,1.3501618699207242e-18,-0.45083501228904144,0.2161492816972736,0.9521339065717099,0.2161492816972736,1000.0,70.71428571428592,[1.13352742]
-3.855440445043828e-18,0.45199416112732044,5.456729417928421e-18,0.45199416112732044,-8.064169897730116e-19,-0.011506857966305378,5.456729417928421e-18,-0.011506857966305378,-6.544113012675923e-19,0.4521406080783352,-3.786643845712975e-19,-0.45214060807833534,0.2164810991399714,0.9519831235007793,0.2164810991399714,1000.0,70.71428571428592,[1.13352742]
-4.83461291021406e-18,0.452360168354957,7.97161748617217e-18,0.452360168354957,-5.724486627067036e-19,-0.011750921370021681,7.97161748617217e-18,-0.011750921370021681,-2.553018126648878e-18,0.4525127689548323,-2.1406348150882796e-18,-0.45251276895483217,0.21613197779959054,0.9521417627354002,0.21613197779959045,1000.0,70.71428571428592,[1.13352742]
-5.8018559833852056e-18,0.4519162238540518,1.0475957644512674e-17,0.4519162238540518,-3.4580611210145515e-19,-0.012383336271603436,1.0475957644512674e-17,-0.012383336271603436,-4.474279774646766e-18,0.4520858551201542,-3.9021684438167315e-18,-0.4520858551201542,0.21517308793190718,0.9525760255537066,0.21517308793190715,1000.0,70.71428571428592,[1.13352742]
-6.789706296964156e-18,0.4506386276056521,1.2966426215009625e-17,0.4506386276056521,-1.6216517248758383e-19,-0.013433777017528887,1.2966426215009625e-17,-0.013433777017528887,-6.435968453366506e-18,0.450838817156711,-5.6628332837542534e-18,-0.450838817156711,0.21355136448877665,0.9533056327589611,0.21355136448877662,1000.0,70.71428571428592,[1.13414985]
-7.797638177671631e-18,0.4483374990811858,1.5452909379232097e-17,0.4483374990811858,2.6188279699487433e-21,-0.01501569424885882,1.5452909379232097e-17,-0.01501569424885882,-8.440253624910276e-18,0.448588880999237,-7.40861335595582e-18,-0.44858888099923677,0.21107081328152025,0.9544098823678198,0.2110708132815201,1000.0,70.71428571428592,[1.13564757]
-8.800686384042594e-18,0.4445519021149717,1.7914837851760814e-17,0.4445519021149717,1.1083439556507474e-19,-0.017382845813298495,1.7914837851760814e-17,-0.017382845813298495,-1.0489575006796013e-17,0.4448916238845236,-9.092082623243671e-18,-0.4448916238845235,0.2072864889983745,0.9560672690545647,0.20728648899837449,1000.0,70.71428571428592,[1.13564757]
-9.860977866946487e-18,0.43821528743309784,2.0343512720162016e-17,0.43821528743309784,1.3643526716972442e-19,-0.021096583174516893,2.0343512720162016e-17,-0.021096583174516893,-1.2626939244184607e-17,0.43872280994007107,-1.0673420825752785e-17,-0.43872280994007123,0.2011782963149059,0.9586733469663501,0.20117829631490586,1000.0,70.71428571428592,[1.13836464]
-1.0947328330880369e-17,0.426480457138222,2.269935587366688e-17,0.426480457138222,1.566209621202045e-20,-0.02756501181420743,2.269935587366688e-17,-0.02756501181420743,-1.4947848242053813e-17,0.42737034314180516,-1.1997063108998904e-17,-0.42737034314180516,0.190007863168469,0.9632206517035982,0.19000786316846893,1000.0,70.71428571428592,[1.12993432]
-1.2241756388094694e-17,0.3987938164228902,2.488393068519098e-17,0.3987938164228902,-6.282065942781274e-19,-0.041233101666470304,2.488393068519098e-17,-0.041233101666470304,-1.7783442251943316e-17,0.40091978834945424,-1.2453874942197246e-17,-0.40091978834945424,0.1636618491540976,0.9728461328817231,0.16366184915409754,1000.0,70.71428571428592,[1.07058396]
-1.4612496245328956e-17,0.2703925668425925,2.6351893454251292e-17,0.2703925668425925,-5.062077355230759e-18,-0.07235455361638739,2.6351893454251292e-17,-0.07235455361638739,-2.2897810850647683e-17,0.27990591568016654,-8.794749587009498e-18,-0.27990591568016643,0.053077982130772305,0.9971787480817323,0.05307798213077215,1000.0,70.71428571428592,[0.66252322]
-1.5114336176412068e-17,0.2649665119770619,2.650688155699556e-17,0.2649665119770619,-5.043139339449693e-18,-0.07673899736646309,2.650688155699556e-17,-0.07673899736646309,-2.3501007160891478e-17,0.2758552631111113,-1.0027390737594086e-17,-0.2758552631111115,0.19479713300604706,0.9613054425858873,0.19479713300604706,1000.0,57.857142857142705,[0.63445397]
-1.3213035275474487e-17,0.3921977081580999,2.5729160260772056e-17,0.3921977081580999,-5.644077692190463e-19,-0.046677078334549704,2.5729160260772056e-17,-0.046677078334549704,-2.0086688203698738e-17,0.39496555789880683,-1.3990688436816288e-17,-0.3949655578988069,0.3028097945323703,0.9036661201298449,0.3028097945323702,1000.0,57.857142857142705,[1.08885048]
-1.2468622561808668e-17,0.42089570498966744,2.4217734856775835e-17,0.42089570498966744,1.2242305377527487e-19,-0.032327030633443256,2.4217734856775835e-17,-0.032327030633443256,-1.8924689539506256e-17,0.42213532354959893,-1.51333202710953e-17,-0.42213532354959904,0.3292485661598783,0.8849806570560335,0.32924856615987824,1000.0,57.857142857142705,[1.11531291]
-1.193421632321419e-17,0.4327269320005846,2.2508130494013876e-17,0.4327269320005846,2.9172005471966874e-19,-0.025905521663716295,2.2508130494013876e-17,-0.025905521663716295,-1.825241700481999e-17,0.4335016652001559,-1.5555090436071952e-17,-0.43350166520015576,0.3397521277600244,0.8770045515076145,0.33975212776002434,1000.0,57.857142857142705,[1.12287685]
-1.1442118305000268e-17,0.4387357359896039,2.071950556733472e-17,0.4387357359896039,2.8079643679726417e-19,-0.02257643090688293,2.071950556733472e-17,-0.02257643090688293,-1.7747476025319204e-17,0.43931622012717975,-1.560379809576164e-17,-0.4393162201271799,0.3449379903710151,0.8729464849563294,0.344937990371015,1000.0,57.857142857142705,[1.12980984]
-1.099940813923459e-17,0.4419489044188787,1.8894117293033117e-17,0.4419489044188787,2.1994975472089943e-19,-0.020788442814276095,1.8894117293033117e-17,-0.020788442814276095,-1.7329226624242485e-17,0.4424375588393119,-1.55427818133378e-17,-0.44243755883931185,0.3476562248127868,0.8707871718725776,0.34765622481278674,1000.0,57.857142857142705,[1.13104935]
-1.0552348451012956e-17,0.44349502235431487,1.7046684522928833e-17,0.44349502235431487,9.717748855545941e-20,-0.019930689444089565,1.7046684522928833e-17,-0.019930689444089565,-1.695329816144824e-17,0.44394263957719926,-1.5408560052029864e-17,-0.4439426395771994,0.3489445943344975,0.8697559083843386,0.3489445943344975,1000.0,57.857142857142705,[1.13104935]
-1.0146274321372405e-17,0.4438453855754057,1.5179581265379887e-17,0.4438453855754057,-4.7232168073142734e-20,-0.019741089640784262,1.5179581265379887e-17,-0.019741089640784262,-1.661650480250601e-17,0.44428418486008037,-1.524733040948362e-17,-0.4442841848600803,0.34922852413257727,0.8695279615195615,0.3492285241325772,1000.0,57.857142857142705,[1.13104935]
-9.733951462589475e-18,0.4431668281740231,1.3306864908828177e-17,0.4431668281740231,-2.306423307584603e-19,-0.020124504048898033,1.3306864908828177e-17,-0.020124504048898033,-1.6309019848533817e-17,0.44362352649181963,-1.5090000516025786e-17,-0.4436235264918197,0.3486557085126219,0.8699875825798455,0.3486557085126218,1000.0,57.857142857142705,[1.13104935]
-9.371838880578821e-18,0.4414251335722404,1.1411798561871459e-17,0.4414251335722404,-4.314177286876509e-19,-0.021097376822485345,1.1411798561871459e-17,-0.021097376822485345,-1.6030292190448548e-17,0.44192900771284543,-1.493216648017805e-17,-0.44192900771284543,0.3471918746852792,0.8711576231113648,0.3471918746852793,1000.0,57.857142857142705,[1.12980984]
-8.998271708240685e-18,0.43837411394962655,9.505675721412923e-18,0.43837411394962655,-6.660386430961263e-19,-0.02279299611796498,9.505675721412923e-18,-0.02279299611796498,-1.5774965471892404e-17,0.438966268012878,-1.477066026191042e-17,-0.43896626801287797,0.3446076812202357,0.8732073591581925,0.34460768122023566,1000.0,57.857142857142705,[1.12980984]
-8.642102625726378e-18,0.4334218616476778,7.572692672103566e-18,0.4334218616476778,-9.46035971722876e-19,-0.025531466096930563,7.572692672103566e-18,-0.025531466096930563,-1.5565149765349833e-17,0.4341731980617845,-1.4646352021548128e-17,-0.4341731980617846,0.34034460201659555,0.8765449810228397,0.34034460201659555,1000.0,57.857142857142705,[1.12287685]
-8.345063308529504e-18,0.42520891825060375,5.594976125013519e-18,0.42520891825060375,-1.2944715100458782e-18,-0.03003479090928869,5.594976125013519e-18,-0.03003479090928869,-1.5421946189753122e-17,0.42626835775695726,-1.459135250515494e-17,-0.42626835775695726,0.3330824660213864,0.8821066498208842,0.33308246602138636,1000.0,57.857142857142705,[1.12287685]
-8.13896546864763e-18,0.4101513921955898,3.535643767146138e-18,0.4101513921955898,-1.8144121950337875e-18,-0.038122567850525986,3.535643767146138e-18,-0.038122567850525986,-1.543291114085676e-17,0.41191928177678033,-1.4725569326918608e-17,-0.4119192817767802,0.31917775686321137,0.8923290419164545,0.3191777568632114,1000.0,57.857142857142705,[1.08797121]
-8.197654346698573e-18,0.3753763215790087,1.2285662824816279e-18,0.3753763215790087,-2.8487655169759143e-18,-0.05551168332340838,1.2285662824816279e-18,-0.05551168332340838,-1.5858524207144002e-17,0.3794587326542711,-1.515348880945154e-17,-0.3794587326542713,0.2845676539886562,0.9154466126469556,0.28456765398865613,1000.0,57.857142857142705,[1.04494215]
-9.745134737676039e-18,0.23111312570357098,-1.960947066064146e-18,0.23111312570357098,-7.679361689834205e-18,-0.09388905425720397,-1.960947066064146e-18,-0.09388905425720397,-1.8198588484952042e-17,0.24945627148217134,-1.763262118390678e-17,-0.24945627148217128,0.12319551737142842,0.9847059099036485,0.12319551737142838,1000.0,57.857142857142705,[0.65251128]
-9.551958286142855e-18,0.22431801981982818,-2.9132182541586127e-18,0.22431801981982818,-7.812242568374138e-18,-0.09549229497229143,-2.9132182541586127e-18,-0.09549229497229143,-1.752113128558387e-17,0.2437977695036686,-1.4422826487584066e-17,-0.2437977695036686,0.264206118681487,0.9275722363797486,0.2642061186814871,1000.0,45.00000000000011,[0.59426612]
-6.979669358612724e-18,0.3670597967648376,-1.4764623018858887e-18,0.3670597967648376,-3.265859708628415e-18,-0.05757397611252386,-1.4764623018858887e-18,-0.05757397611252386,-1.4436111663628176e-17,0.3715476512191258,-1.422901537313753e-17,-0.37154765121912614,0.4164820039055889,0.8081370433568615,0.41648200390558904,1000.0,45.00000000000011,[1.03406713]
-5.929475889831724e-18,0.4030344158721916,-9.389452114910095e-19,0.4030344158721916,-2.5113447415390623e-18,-0.04002178312281793,-9.389452114910095e-19,-0.04002178312281793,-1.3231743309195869e-17,0.40501664595639597,-1.3288704917364504e-17,-0.40501664595639597,0.4481453248571602,0.7735189303548692,0.44814532485716013,1000.0,45.00000000000011,[1.04223686]
-5.167639650538242e-18,0.4181509553645292,-6.551404609775578e-19,0.4181509553645292,-2.275614190188241e-18,-0.03203079615658011,-6.551404609775578e-19,-0.03203079615658011,-1.241709386253756e-17,0.41937595707752834,-1.2497477340146905e-17,-0.41937595707752834,0.46035085308498963,0.7590482093568529,0.4603508530849895,1000.0,45.00000000000011,[1.03592772]
-4.522791151687828e-18,0.42589428279623076,-4.55290025456612e-19,0.42589428279623076,-2.189615737418706e-18,-0.02774456479057381,-4.55290025456612e-19,-0.02774456479057381,-1.1730000732816179e-17,0.4267970255214231,-1.1718615375683448e-17,-0.42679702552142285,0.4664391902910197,0.7515776496951705,0.46643919029101955,1000.0,45.00000000000011,[1.0538086]
-3.9242019014138294e-18,0.4300722601440431,-3.0451161448627997e-19,0.4300722601440431,-2.200315732232386e-18,-0.0252923485083356,-3.0451161448627997e-19,-0.0252923485083356,-1.1115022346270514e-17,0.4308153338014703,-1.1115897033854728e-17,-0.43081533380147036,0.4697835474702929,0.7474000515469971,0.46978354747029283,1000.0,45.00000000000011,[1.02781413]
-3.3532528913082908e-18,0.43212174871254055,-1.779647810140927e-19,0.43212174871254055,-2.251111032492889e-18,-0.02393442127474435,-1.779647810140927e-19,-0.02393442127474435,-1.0529303612737535e-17,0.4327840826926761,-1.0524327384751978e-17,-0.43278408269267615,0.47158311010210263,0.7451300158582099,0.47158311010210263,1000.0,45.00000000000011,[1.02781413]
-2.838974852149372e-18,0.43264762583744004,-6.376120126590704e-20,0.43264762583744004,-2.3149506608206238e-18,-0.023347653078491175,-6.376120126590704e-20,-0.023347653078491175,-9.970767274903966e-18,0.43327714115453564,-9.975308310178507e-18,-0.4332771411545355,0.4723304484380411,0.7441827026722929,0.47233044843804095,1000.0,45.00000000000011,[1.0343635]
-2.3113684517803863e-18,0.4318673938162461,2.6424090797550405e-20,0.4318673938162461,-2.4145699865443397e-18,-0.023405233942454175,2.6424090797550405e-20,-0.023405233942454175,-9.436691701759357e-18,0.43250115701294645,-9.423379244470449e-18,-0.4325011570129467,0.47220932620714795,0.7443364188899952,0.472209326207148,1000.0,45.00000000000011,[1.02781413]
-1.8036698072137145e-18,0.4297431007595692,1.0689290579565372e-19,0.4297431007595692,-2.542465447532415e-18,-0.02410712218998578,1.0689290579565372e-19,-0.02410712218998578,-8.917801303504842e-18,0.43041873331760566,-8.889624948868644e-18,-0.4304187333176056,0.4712108781174542,0.745600842735277,0.4712108781174542,1000.0,45.00000000000011,[1.02781413]
-1.3304281982435516e-18,0.4259692191057754,1.6185808814752206e-19,0.4259692191057754,-2.714839650828386e-18,-0.025580045385286704,1.6185808814752206e-19,-0.025580045385286704,-8.427644884983736e-18,0.4267365866052469,-8.388292229291241e-18,-0.42673658660524694,0.46912918447612306,0.7482216359779604,0.46912918447612306,1000.0,45.00000000000011,[1.02781413]
-8.92016683326159e-19,0.41980705109178057,1.988247897225169e-19,0.41980705109178057,-2.9349780544277356e-18,-0.02814705461964237,1.988247897225169e-19,-0.02814705461964237,-7.961432036473589e-18,0.42074958922159145,-7.908145954801613e-18,-0.4207495892215915,0.46543122858031627,0.7528263697058141,0.4654312285803161,1000.0,45.00000000000011,[1.01551799]
-5.2519847760584365e-19,0.40956352861761386,1.871089524931367e-19,0.40956352861761386,-3.210439331370398e-18,-0.032547806092889556,1.871089524931367e-19,-0.032547806092889556,-7.55808801644477e-18,0.41085477197565967,-7.478849033025634e-18,-0.4108547719756597,0.4588187216516727,0.7609012822461593,0.45881872165167287,1000.0,45.00000000000011,[1.04531542]
-2.885776731207622e-19,0.3908124786103867,8.556975349238226e-20,0.3908124786103867,-3.665511297800374e-18,-0.04065299664178511,8.556975349238226e-20,-0.04065299664178511,-7.252502269158998e-18,0.3929211874836368,-7.241156156943767e-18,-0.3929211874836366,0.4455848820613468,0.776471651611797,0.4455848820613468,1000.0,45.00000000000011,[0.99665303]
-4.2013165056058323e-19,0.3480393931748771,-2.5693871262425074e-19,0.3480393931748771,-4.617141026716851e-18,-0.05831913190636426,-2.5693871262425074e-19,-0.05831913190636426,-7.255071285346435e-18,0.3528916835912242,-7.01217309337095e-18,-0.35289168359122425,0.41049460038297864,0.8142409754567976,0.4104946003829785,1000.0,45.00000000000011,[0.60520729]
-2.443058086840666e-18,0.18633998131253493,-1.5062081496906474e-18,0.18633998131253493,-9.38286106224109e-18,-0.09635161446802654,-1.5062081496906474e-18,-0.09635161446802654,-8.756470478374338e-18,0.20977660080702773,-1.1350467703459615e-17,-0.20977660080702765,0.21448618792161575,0.9528858013328285,0.21448618792161572,1000.0,45.00000000000011,[0.55896805]
-2.347012491555909e-18,0.17952108216396234,-1.2453411951114736e-18,0.17952108216396234,-9.384217638445677e-18,-0.09485496521491205,-1.2453411951114736e-18,-0.09485496521491205,-7.825816809021286e-18,0.20304010285468813,-8.966001727958847e-18,-0.20304010285468818,0.35361924301830655,0.865971628827596,0.35361924301830666,1000.0,32.14285714285738,[0.43019896]
4.983382687550217e-19,0.33964898391248444,3.944902406435699e-19,0.33964898391248444,-4.6521576499977524e-18,-0.05658784410070785,3.944902406435699e-19,-0.05658784410070785,-5.073171075091317e-18,0.34433067881434726,-4.895876985823299e-18,-0.3443306788143473,0.5287579897726965,0.6639502816499699,0.5287579897726961,1000.0,32.14285714285738,[0.51964852]
1.4132132611284712e-18,0.38357198968680484,1.138377281030111e-18,0.38357198968680484,-3.697891076083609e-18,-0.03930752943713611,1.138377281030111e-18,-0.03930752943713611,-3.779387391574171e-18,0.3855807997589421,-3.425889325903992e-18,-0.3855807997589422,0.5572535993554754,0.6155784694177782,0.5572535993554754,1000.0,32.14285714285738,[0.85580897]
1.932781947485279e-18,0.40233267774750003,1.6456562348334889e-18,0.40233267774750003,-3.2569359807826162e-18,-0.03132755954644712,1.6456562348334889e-18,-0.03132755954644712,-2.771061255907237e-18,0.40355049197171095,-2.520372417076672e-18,-0.403550491971711,0.5677130067171471,0.5961575999753361,0.5677130067171471,1000.0,32.14285714285738,[0.90721188]
2.286305706400642e-18,0.41205744077155027,2.064507616600993e-18,0.41205744077155027,-2.9999495760261726e-18,-0.02693109898822368,2.064507616600993e-18,-0.02693109898822368,-1.8490472812571485e-18,0.4129365793774066,-1.568409862106666e-18,-0.4129365793774066,0.5729143212474536,0.5861214558597383,0.5729143212474536,1000.0,32.14285714285738,[0.90922286]
2.5726789431889505e-18,0.41739644457789804,2.4410475985124617e-18,0.41739644457789804,-2.7983623520245495e-18,-0.024298509275038196,2.4410475985124617e-18,-0.024298509275038196,-9.730890687527876e-19,0.4181031086936086,-6.849416094935206e-19,-0.41810310869360867,0.5758490106752808,0.5803411357198456,0.5758490106752809,1000.0,32.14285714285738,[0.90922286]
2.8211358750590532e-18,0.4201201933796533,2.7930123546177097e-18,0.4201201933796533,-2.654802675174134e-18,-0.022707721992372195,2.7930123546177097e-18,-0.022707721992372195,-1.2275318931256303e-19,0.4207334281031638,1.9855589043560613e-19,-0.42073342810316366,0.5775473968233944,0.5769558118652078,0.5775473968233943,1000.0,32.14285714285738,[0.89983517]
3.026792827674437e-18,0.4209803912052388,3.125599267500561e-18,0.4209803912052388,-2.5449539170077044e-18,-0.021838561829102973,3.125599267500561e-18,-0.021838561829102973,7.0562311281591e-19,0.4215464536229424,1.0380097408397994e-18,-0.4215464536229423,0.5784309097960899,0.5751828971596215,0.5784309097960897,1000.0,32.14285714285738,[0.89983517]
3.215763892973402e-18,0.4202539176152196,3.4510260016035766e-18,0.4202539176152196,-2.4573360513939438e-18,-0.021557667871980598,3.4510260016035766e-18,-0.021557667871980598,1.5266569462370562e-18,0.4208064737085427,1.8926797694698123e-18,-0.4208064737085426,0.5786655617488693,0.5747106535394406,0.5786655617488692,1000.0,32.14285714285738,[0.89983517]
3.3894056471605334e-18,0.41790659343786496,3.758144256070467e-18,0.41790659343786496,-2.375704078282923e-18,-0.021848523964636064,3.758144256070467e-18,-0.021848523964636064,2.331988410090108e-18,0.4184773337210444,2.7435710017861776e-18,-0.41847733372104423,0.5782664283239198,0.5755135756409175,0.5782664283239196,1000.0,32.14285714285738,[0.90922286]
3.5170594680121665e-18,0.41358225942343574,4.0414651963984546e-18,0.41358225942343574,-2.356474610582903e-18,-0.02280619989288505,4.0414651963984546e-18,-0.02280619989288505,3.1238897695177496e-18,0.4142105842000521,3.565461526141661e-18,-0.41421058420005197,0.5771026545674678,0.5778451801151965,0.5771026545674677,1000.0,32.14285714285738,[0.90922286]
3.59058589830078e-18,0.40640867085687554,4.3129987612987734e-18,0.40640867085687554,-2.3676663642707454e-18,-0.02469271187753492,4.3129987612987734e-18,-0.02469271187753492,3.888659604853651e-18,0.40715812378917265,4.3834397687668634e-18,-0.4071581237891726,0.5748069335987258,0.5824036213603586,0.5748069335987258,1000.0,32.14285714285738,[0.90721188]
3.590450240680321e-18,0.394384513771054,4.5437884077544505e-18,0.394384513771054,-2.4629658426429797e-18,-0.02811887233174561,4.5437884077544505e-18,-0.02811887233174561,4.626297916097813e-18,0.395385654372588,5.275188504873343e-18,-0.39538565437258805,0.570453733208251,0.5909019178658494,0.570453733208251,1000.0,32.14285714285738,[0.90721188]
3.411110866433925e-18,0.3723025595510175,4.697399466420728e-18,0.3723025595510175,-2.7231910730878743e-18,-0.03463596521554891,4.697399466420728e-18,-0.03463596521554891,5.288476675961826e-18,0.37391021105962274,6.0590428947390805e-18,-0.37391021105962285,0.5613017724674447,0.6081781321700168,0.5613017724674445,1000.0,32.14285714285738,[0.85120684]
2.752357461486494e-18,0.32220775640340177,4.655279894918622e-18,0.32220775640340177,-3.4903010023766886e-18,-0.04908016536508866,4.655279894918622e-18,-0.04908016536508866,5.75585109284715e-18,0.32592437914150924,7.225899069766943e-18,-0.32592437914150935,0.5352453966896586,0.6534712929005065,0.5352453966896585,1000.0,32.14285714285738,[0.51964852]
-1.68079791748325e-19,0.14495296050769632,3.874103966108497e-18,0.14495296050769632,-8.052568521617997e-18,-0.0792352255892487,3.874103966108497e-18,-0.0792352255892487,5.0882799425699044e-18,0.16519558630340253,-8.242840561414734e-19,-0.1651955863034025,0.3449142353002348,0.8729652573696782,0.3449142353002347,1000.0,32.14285714285738,[0.19986274]
-3.97883800805357e-19,0.13946148104914374,4.343167744298596e-18,0.13946148104914374,-8.117582436222828e-18,-0.0749338917520172,4.343167744298596e-18,-0.0749338917520172,5.206776874040576e-18,0.15831801170278695,7.539665665311792e-18,-0.15831801170278662,0.477393612552911,0.7376928069239672,0.477393612552911,1000.0,19.285714285714306,[0.20695045]
2.4803639324668075e-18,0.3154083061852178,5.66561969838924e-18,0.3154083061852178,-3.6327754182634346e-18,-0.04389454458281719,5.66561969838924e-18,-0.04389454458281719,5.615750685318431e-18,0.31844800306291926,7.106382022269961e-18,-0.3184480030629193,0.6288642210429247,0.457230339089776,0.6288642210429245,1000.0,19.285714285714306,[0.53352726]
3.0957068988674554e-18,0.3663777672605735,6.2686453767823025e-18,0.3663777672605735,-2.9687991949283444e-18,-0.030306243641018114,6.2686453767823025e-18,-0.030306243641018114,4.918131372109584e-18,0.36762907494711516,5.900688484046854e-18,-0.3676290749471152,0.6459020170482995,0.406965807833872,0.6459020170482997,1000.0,19.285714285714306,[0.76408465]
3.193380385597717e-18,0.38842003716131723,6.7045769008256845e-18,0.38842003716131723,-2.808994518028e-18,-0.02391563003002853,6.7045769008256845e-18,-0.02391563003002853,4.0505330604659906e-18,0.38915560207728256,4.8463517014345294e-18,-0.38915560207728245,0.6518123616659209,0.3876613088238103,0.6518123616659208,1000.0,19.285714285714306,[0.77355141]
3.129349988741212e-18,0.39998084892807195,7.067355053036714e-18,0.39998084892807195,-2.816387858342999e-18,-0.0202777744559947,7.067355053036714e-18,-0.0202777744559947,3.1202609281704795e-18,0.40049452885914594,3.836278665686708e-18,-0.40049452885914594,0.6547455636290338,0.37764599007032706,0.6547455636290337,1000.0,19.285714285714306,[0.77441543]
2.9643903222634368e-18,0.40644707165824473,7.398287578845064e-18,0.40644707165824473,-2.9112125350436277e-18,-0.01798454454239109,7.398287578845064e-18,-0.01798454454239109,2.166520027535613e-18,0.4068447688024998,2.805616593591665e-18,-0.40684476880249987,0.6564501511069221,0.3716805055735348,0.6564501511069221,1000.0,19.285714285714306,[0.77441543]
2.750593912420531e-18,0.40988213715745797,7.70639571001124e-18,0.40988213715745797,-3.0444283183340677e-18,-0.016474546121222792,7.70639571001124e-18,-0.016474546121222792,1.190938250006897e-18,0.41021308734688794,1.8179784685578066e-18,-0.410213087346888,0.6575085492124797,0.3679198491859332,0.6575085492124798,1000.0,19.285714285714306,[0.77526264]
2.4673408009027726e-18,0.41116874181235,8.006728963804876e-18,0.41116874181235,-3.1994849785183582e-18,-0.015493974924000608,8.006728963804876e-18,-0.015493974924000608,2.0382557473919157e-19,0.41146056615731297,8.056314870766722e-19,-0.41146056615731313,0.6581586501943169,0.3655877218244476,0.6581586501943171,1000.0,19.285714285714306,[0.77642641]
2.1897853094442795e-18,0.4106400937273539,8.290613731117895e-18,0.4106400937273539,-3.392457943620854e-18,-0.01492933407754725,8.290613731117895e-18,-0.01492933407754725,-7.916978729969531e-19,0.41091139141232025,-1.8702199973600141e-19,-0.41091139141232025,0.6585005198670392,0.3643544025666188,0.6585005198670392,1000.0,19.285714285714306,[0.77642641]
1.868548064198086e-18,0.40827255101708504,8.568355751804519e-18,0.40827255101708504,-3.612969405676465e-18,-0.014750904892134643,8.568355751804519e-18,-0.014750904892134643,-1.791019734105941e-18,0.40853893952613013,-1.1743537742083903e-18,-0.4085389395261303,0.6585587060718847,0.3641440117781012,0.6585587060718849,1000.0,19.285714285714306,[0.77441543]
1.5133964138372186e-18,0.40367806389873473,8.838589971058882e-18,0.40367806389873473,-3.860680220634045e-18,-0.015003269868343931,8.838589971058882e-18,-0.015003269868343931,-2.799091511734515e-18,0.40395677662315965,-2.1340415615787343e-18,-0.40395677662315965,0.6582918551326783,0.36510774701716975,0.6582918551326783,1000.0,19.285714285714306,[0.77441543]
1.0752222997556288e-18,0.39589054034741117,9.101184970561164e-18,0.39589054034741117,-4.147460430283729e-18,-0.015835514600067435,9.101184970561164e-18,-0.015835514600067435,-3.8232387173874445e-18,0.3962071219188446,-3.090536294960631e-18,-0.3962071219188444,0.6575588343508767,0.36774006952497396,0.6575588343508765,1000.0,19.285714285714306,[0.77441543]
5.882114423089082e-19,0.3826868430427576,9.330090247882657e-18,0.3826868430427576,-4.518619679858723e-18,-0.017608628197893744,9.330090247882657e-18,-0.017608628197893744,-4.868209367780784e-18,0.3830917430917088,-3.9970675908337284e-18,-0.38309174309170874,0.6559862106164114,0.3733151255470935,0.6559862106164113,1000.0,19.285714285714306,[0.77655602]
-1.4162655575887919e-19,0.35829461906982796,9.51830671766782e-18,0.35829461906982796,-5.054467280670574e-18,-0.0212472301103165,9.51830671766782e-18,-0.0212472301103165,-5.94790836901155e-18,0.35892405720674925,-4.815454825850738e-18,-0.35892405720674914,0.6524308300466071,0.3855749265828767,0.652430830046607,1000.0,19.285714285714306,[0.59220428]
-1.4097539918067744e-18,0.30300266289790634,9.576800587889354e-18,0.30300266289790634,-6.096589121034281e-18,-0.029609300434867293,9.576800587889354e-18,-0.029609300434867293,-7.159059604466792e-18,0.30444593016735244,-5.175448864324534e-18,-0.30444593016735255,0.6415487807337188,0.42051197828142456,0.6415487807337188,1000.0,19.285714285714306,[0.53106423]
-5.205996842722938e-18,0.11515219346783181,9.228796398406404e-18,0.11515219346783181,-1.0934546839452776e-17,-0.04591527861265468,9.228796398406404e-18,-0.04591527861265468,-9.23665606179173e-18,0.12396870762628237,-2.0682598725063515e-18,-0.12396870762628226,0.5334606787599449,0.6563835833062539,0.5334606787599447,1000.0,19.285714285714306,[0.17787198]
-5.6395585977089325e-18,0.11207449282988576,8.926101854156659e-18,0.11207449282988576,-1.0845148467570495e-17,-0.039660673414315666,8.926101854156659e-18,-0.039660673414315666,-9.343961239574559e-18,0.118885074583621,-3.261088293444239e-18,-0.11888507458362099,0.6359954479192482,0.4370578685391551,0.6359954479192483,1000.0,6.428571428571418,[0.18964949]
-2.4342403415108507e-18,0.29913810151572306,8.104491475848563e-18,0.29913810151572306,-5.832735049242116e-18,-0.021994892858240106,8.104491475848563e-18,-0.021994892858240106,-7.757174053069185e-18,0.2999456268897356,-6.547967710232105e-18,-0.2999456268897357,0.6949633455839813,0.18453155987375056,0.6949633455839813,1000.0,6.428571428571418,[0.31674315]
-1.7782000889725942e-18,0.35485452843551707,6.902870188230545e-18,0.35485452843551707,-4.605440556952289e-18,-0.014788303052874808,6.902870188230545e-18,-0.014788303052874808,-7.014448581057822e-18,0.35516254061820335,-6.42377126853104e-18,-0.35516254061820324,0.6987547392068323,0.15324369113273165,0.6987547392068321,1000.0,6.428571428571418,[0.26439017]
-1.6940923642882026e-18,0.3791638400686322,5.603761943110394e-18,0.3791638400686322,-3.902055794873947e-18,-0.011251446880810239,5.603761943110394e-18,-0.011251446880810239,-6.3962568046275426e-18,0.3793307431154283,-6.060090559900834e-18,-0.37933074311542814,0.7000031652134292,0.14139001868010664,0.7000031652134292,1000.0,6.428571428571418,[0.33491966]
-1.8075021349916727e-18,0.39204957122051937,4.270374713020587e-18,0.39204957122051937,-3.3602392587619136e-18,-0.00909167385172675,4.270374713020587e-18,-0.00909167385172675,-5.8018051117775336e-18,0.39215497552322254,-5.602117485378804e-18,-0.39215497552322265,0.7006362921915829,0.1349724865595272,0.7006362921915831,1000.0,6.428571428571418,[0.33408106]
-2.0337790459167785e-18,0.3993838004694086,2.9296110998183384e-18,0.3993838004694086,-2.896290196793171e-18,-0.007591256203262365,2.9296110998183384e-18,-0.007591256203262365,-5.225395882448532e-18,0.3994559390572782,-5.112181112269862e-18,-0.39945593905727805,0.7010291854360257,0.1308287519385744,0.7010291854360255,1000.0,6.428571428571418,[0.33408106]
-2.293699046715641e-18,0.4034241736717633,1.5668370376966665e-18,0.4034241736717633,-2.4830770848759814e-18,-0.006460665548094345,1.5668370376966665e-18,-0.006460665548094345,-4.6625524151654e-18,0.4034759027526542,-4.611710952632283e-18,-0.4034759027526542,0.7013028304432026,0.12786195690941393,0.7013028304432027,1000.0,6.428571428571418,[0.33408106]
-2.623618379671191e-18,0.40514261998832474,2.0789530335295247e-19,0.40514261998832474,-2.0940110294004398e-18,-0.005562737978540573,2.0789530335295247e-19,-0.005562737978540573,-4.106898801766579e-18,0.4051808072759888,-4.101071468008687e-18,-0.4051808072759887,0.7015074795854961,0.1255966248400399,0.7015074795854959,1000.0,6.428571428571418,[0.33408106]
-2.9703592575636194e-18,0.4049144897397865,-1.1579564910328763e-18,0.4049144897397865,-1.7190533664526027e-18,-0.004826320068645727,-1.1579564910328763e-18,-0.004826320068645727,-3.555314916981519e-18,0.404943252032475,-3.582899623968909e-18,-0.40494325203247516,0.7016671351856871,0.12380009208648075,0.7016671351856872,1000.0,6.428571428571418,[0.33408106]
-3.3518284862934745e-18,0.4027313743155976,-2.524062643457065e-18,0.4027313743155976,-1.38940534873797e-18,-0.0042143763817837744,-2.524062643457065e-18,-0.0042143763817837744,-3.0069868150874675e-18,0.4027534243509512,-3.059987994458767e-18,-0.4027534243509512,0.7017937360357187,0.12235646334401888,0.7017937360357187,1000.0,6.428571428571418,[0.33408106]
-3.7897312851341465e-18,0.39819840871240464,-3.898766097577824e-18,0.39819840871240464,-1.0784780826466375e-18,-0.003712171342309713,-3.898766097577824e-18,-0.003712171342309713,-2.471681844757451e-18,0.3982157115398209,-2.5444017657615395e-18,-0.39821571153982094,0.701892079468641,0.12122300754548936,0.7018920794686411,1000.0,6.428571428571418,[0.33408106]
-4.2770134578217845e-18,0.3903139580281616,-5.271265115366129e-18,0.3903139580281616,-8.226278104615359e-19,-0.003326330714390061,-5.271265115366129e-18,-0.003326330714390061,-1.938276081113856e-18,0.39032813158627316,-2.0282414078339965e-18,-0.3903281315862732,0.7019604425694576,0.12042870976383646,0.7019604425694577,1000.0,6.428571428571418,[0.33321704]
-4.860883856276014e-18,0.37676343536516493,-6.65098790144386e-18,0.37676343536516493,-6.351489789876172e-19,-0.003096520783736897,-6.65098790144386e-18,-0.003096520783736897,-1.4159942423478745e-18,0.3767761599001786,-1.5255292955042018e-18,-0.3767761599001787,0.7019862492228081,0.12012748146942731,0.7019862492228082,1000.0,6.428571428571418,[0.33491966]
-5.673744318064524e-18,0.35153724018725446,-8.034763458932793e-18,0.35153724018725446,-6.223971626644997e-19,-0.003137563027017236,-8.034763458932793e-18,-0.003137563027017236,-9.319678525512452e-19,0.35155124169915836,-1.0757817596150475e-18,-0.35155124169915836,0.7019260641500737,0.12082880837603634,0.7019260641500737,1000.0,6.428571428571418,[0.2629525]
-7.070475178307264e-18,0.29420024594266786,-9.430409058211863e-18,0.29420024594266786,-1.1134777487249812e-18,-0.0037631843344132095,-9.430409058211863e-18,-0.0037631843344132095,-5.426304818347862e-19,0.29422431284491257,-7.847875444902356e-19,-0.2942243128449126,0.701590556119442,0.12466508383674754,0.7015905561194421,1000.0,6.428571428571418,[0.26372609]
-1.1070747090393307e-17,0.10281072436165352,-1.0852524850682936e-17,0.10281072436165352,-5.410025903892818e-18,-0.002992667241577827,-1.0852524850682936e-17,-0.002992667241577827,-9.154176228552842e-19,0.10285427118494743,-1.5554432891927457e-18,-0.1028542711849474,0.7000595774141432,0.14083030973999439,0.7000595774141432,1000.0,6.428571428571418,[0.11340753]
-1.0940515774752958e-17,0.10275331143165913,-1.021208522449743e-17,0.10275331143165913,-5.448552668103088e-18,0.003975297296160389,-1.021208522449743e-17,0.003975297296160389,-6.810012547026566e-19,0.10283018038866017,9.173922809291618e-20,-0.10283018038866017,0.6990747258818688,0.150296557732969,0.6990747258818688,1000.0,6.428571428571418,[0.11340753]
-6.6363707928394354e-18,0.29402813544288603,-8.135896214984752e-18,0.29402813544288603,-1.2144070183462514e-18,0.004768479792239804,-8.135896214984752e-18,0.004768479792239804,1.6713018840511414e-19,0.2940667999478166,4.295940174522392e-19,-0.2940667999478166,0.7012844494817784,0.1280634289330034,0.7012844494817783,1000.0,6.428571428571418,[0.26372609]
-4.980262562279667e-18,0.3512506827869551,-6.0501263860271776e-18,0.3512506827869551,-7.906126120332835e-19,0.004165508118085822,-6.0501263860271776e-18,0.004165508118085822,2.428271406210668e-19,0.35127538145475545,3.8542019103160875e-19,-0.35127538145475545,0.7016724102003439,0.12374028255697825,0.701672410200344,1000.0,6.428571428571418,[0.2629525]
-3.8960868595737646e-18,0.3763627767299994,-3.946704109207416e-18,0.3763627767299994,-8.73092445272171e-19,0.00414720574507143,-3.946704109207416e-18,0.00414720574507143,2.281761176115276e-19,0.3763856254208008,3.1459640314584247e-19,-0.37638562542080084,0.7017456427153564,0.12290689915550843,0.7017456427153566,1000.0,6.428571428571418,[0.33491966]
-3.0354749153837937e-18,0.38979963806641577,-1.8311404753566006e-18,0.38979963806641577,-1.1237877278798421e-18,0.004399855962283381,-1.8311404753566006e-18,0.004399855962283381,1.806959504509838e-19,0.38982446892056133,2.214150042417552e-19,-0.3898244689205613,0.7017223019953429,0.12317313735029392,0.7017223019953428,1000.0,6.428571428571418,[0.33321704]
-2.2692806750330757e-18,0.39757096067811853,2.795564413602589e-19,0.39757096067811853,-1.456420213244566e-18,0.004808625735378592,2.795564413602589e-19,0.004808625735378592,1.1503766214897466e-19,0.39760003980883224,1.0790953420758046e-19,-0.3976000398088322,0.7016517496566448,0.12397436996225317,0.7016517496566448,1000.0,6.428571428571418,[0.33408106]
-1.550837917083819e-18,0.4019914237727774,2.4020894854621396e-18,0.4019914237727774,-1.8302926152287337e-18,0.005333831908436256,2.4020894854621396e-18,0.005333831908436256,4.503832999228725e-20,0.40202680824752496,-1.9177649778096236e-20,-0.40202680824752496,0.7015484097878035,0.1251385530058932,0.7015484097878034,1000.0,6.428571428571418,[0.33408106]
-8.93169773100058e-19,0.40406275339861436,4.521841548344617e-18,0.40406275339861436,-2.2399786290139972e-18,0.005968830405631306,4.521841548344617e-18,0.005968830405631306,-2.7674154573574094e-20,0.40410683688905935,-1.614049817785083e-19,-0.40410683688905924,0.7014146027337328,0.12662981538231696,0.7014146027337327,1000.0,6.428571428571418,[0.33408106]
-2.658889360990452e-19,0.40417990442555984,6.646680771994296e-18,0.40417990442555984,-2.6757109059273305e-18,0.006728338326791585,6.646680771994296e-18,0.006728338326791585,-1.1503766214897466e-19,0.40423590349954625,-3.363742127028588e-19,-0.4042359034995463,0.7012455364305124,0.1284888916310138,0.7012455364305122,1000.0,6.428571428571418,[0.33408106]
3.2015198428252383e-19,0.40235137394295806,8.769790360983126e-18,0.40235137394295806,-3.129892619223047e-18,0.007649373051459634,8.769790360983126e-18,0.007649373051459634,-1.9914538683336654e-19,0.4024240810660644,-5.324839200811754e-19,-0.4024240810660645,0.7010287921896922,0.1308329661901858,0.7010287921896922,1000.0,6.428571428571418,[0.33408106]
8.768908586450144e-19,0.3982018986579316,1.0903786474013766e-17,0.3982018986579316,-3.620973205283528e-18,0.00880307078774263,1.0903786474013766e-17,0.00880307078774263,-2.9193519922711495e-19,0.39829919175172285,-7.7407017922767e-19,-0.39829919175172285,0.7007391957855408,0.13389980948330993,0.7007391957855409,1000.0,6.428571428571418,[0.33408106]
1.372855119042009e-18,0.39075963497513516,1.304483678330826e-17,0.39075963497513516,-4.1549215994089576e-18,0.010326579622052214,1.304483678330826e-17,0.010326579622052214,-3.9612025173939394e-19,0.3908960610860531,-1.0856234050751772e-18,-0.39089606108605324,0.7003238950436528,0.13817700265157726,0.7003238950436528,1000.0,6.428571428571418,[0.33321704]
1.7646343269267246e-18,0.3777670213000571,1.5206371393292015e-17,0.3777670213000571,-4.7740629791824486e-18,0.012509414733452653,1.5206371393292015e-17,0.012509414733452653,-5.187547406340556e-19,0.37797408355453604,-1.5260118828277753e-18,-0.37797408355453604,0.6996554748191428,0.14479099803233433,0.6996554748191428,1000.0,6.428571428571418,[0.33491966]
1.9404466030411953e-18,0.3533520627704598,1.7397750679776684e-17,0.3533520627704598,-5.5608771778428885e-18,0.016069297017701486,1.7397750679776684e-17,0.016069297017701486,-6.685207536204565e-19,0.35371726360298283,-2.2428764890949965e-18,-0.353717263602983,0.6983384556126805,0.1569930024714244,0.6983384556126804,1000.0,6.428571428571418,[0.2817393]
1.5692873534662018e-18,0.29753131130284166,1.967957968470219e-17,0.29753131130284166,-6.834973549190967e-18,0.02329889239333598,1.967957968470219e-17,0.02329889239333598,-9.3875073357418e-19,0.2984421545163228,-3.9882889147084134e-18,-0.29844215451632283,0.6943353887477923,0.18920025334259943,0.6943353887477925,1000.0,6.428571428571418,[0.37053968]
-1.3478941168776088e-18,0.11036480654148974,2.235057648831858e-17,0.11036480654148974,-1.1919421163982913e-17,0.040987767862599125,2.235057648831858e-17,0.040987767862599125,-2.0571121566356743e-18,0.11773014752941899,-1.7519321372480237e-17,-0.11773014752941904,0.6311379996718283,0.4509208918873539,0.6311379996718277,1000.0,6.428571428571418,[0.18964949]
-1.6756429279058198e-18,0.11334110952545029,2.2443773273573705e-17,0.11334110952545029,-1.1887948596036495e-17,0.04728389102422234,2.2443773273573705e-17,0.04728389102422234,-2.5698979619695472e-18,0.12280868641448237,-1.794629816966009e-17,-0.12280868641448237,0.5260542921532664,0.6682318186185476,0.5260542921532663,1000.0,19.28571428571425,[0.17787198]
3.017025479001411e-19,0.3010930071708671,1.939493608257473e-17,0.3010930071708671,-6.722106408969332e-18,0.0310426412990428,1.939493608257473e-17,0.0310426412990428,-2.2014518648037274e-18,0.30268902283699817,-6.135956551606059e-18,-0.3026890228369984,0.6399558626828015,0.42533867404201775,0.6399558626828016,1000.0,19.28571428571425,[0.53352726]
-2.4526897778932334e-19,0.35628803444449,1.6756361450247967e-17,0.35628803444449,-5.368785987273374e-18,0.02274437304922412,1.6756361450247967e-17,0.02274437304922412,-2.70284243001907e-18,0.35701326305015657,-4.834986950393808e-18,-0.3570132630501567,0.6511921283273164,0.3897404572392757,0.6511921283273165,1000.0,19.28571428571425,[0.59369427]
-1.3305299414588957e-18,0.38058512239996295,1.424510149472169e-17,0.38058512239996295,-4.504918260192395e-18,0.019168965577124716,1.424510149472169e-17,0.019168965577124716,-3.3219838097925612e-18,0.381067559146002,-4.746559233696061e-18,-0.3810675591460021,0.654833364970501,0.3773413948175064,0.654833364970501,1000.0,19.28571428571425,[0.77525403]
-2.6198199662983476e-18,0.3936955597489936,1.1774776226168827e-17,0.3936955597489936,-3.822289114044234e-18,0.017458482817447704,1.1774776226168827e-17,0.017458482817447704,-3.985620889076504e-18,0.39408246901931665,-5.032790624376635e-18,-0.3940824690193166,0.6564247172621602,0.3717703338549033,0.6564247172621601,1000.0,19.28571428571425,[0.77441543]
-4.004612955940722e-18,0.4013917643495486,9.335007836624285e-18,0.4013917643495486,-3.2047756257162474e-18,0.016688287604143846,9.335007836624285e-18,0.016688287604143846,-4.673133709561178e-18,0.4017385311751939,-5.450267224887575e-18,-0.40173853117519387,0.6571488059273388,0.369203052176639,0.6571488059273386,1000.0,19.28571428571425,[0.77441543]
-5.4697152568946444e-18,0.4058969309892906,6.903378904307265e-18,0.4058969309892906,-2.6404399246080694e-18,0.01649735847609772,6.903378904307265e-18,0.01649735847609772,-5.368785987273374e-18,0.40623205366294507,-5.932036443642543e-18,-0.40623205366294507,0.6573913861400982,0.3683383374800954,0.6573913861400981,1000.0,19.28571428571425,[0.77441543]
-6.958693299049298e-18,0.40817720422012654,4.483145212108774e-18,0.40817720422012654,-2.1173441401193356e-18,0.016736573873727394,4.483145212108774e-18,0.016736573873727394,-6.077461396549605e-18,0.4085201867105095,-6.441159017004955e-18,-0.4085201867105095,0.6572979963860355,0.3686715176058574,0.6572979963860354,1000.0,19.28571428571425,[0.77441543]
-8.47588812625936e-18,0.40862068230448995,2.069931801769021e-18,0.40862068230448995,-1.6072714871946368e-18,0.017361315273524934,2.069931801769021e-18,0.017361315273524934,-6.791563110644184e-18,0.4089893363830086,-6.97280892525383e-18,-0.40898933638300855,0.6569109791811497,0.3700485520340895,0.6569109791811497,1000.0,19.28571428571425,[0.77441543]
-1.002129973852483e-17,0.4072510520333863,-3.283253559151603e-19,0.4072510520333863,-1.1199893145069986e-18,0.018401266846311052,-3.283253559151603e-19,0.018401266846311052,-7.513261651484449e-18,0.40766656228325737,-7.49354140354001e-18,-0.4076665622832574,0.6562043835863226,0.37254746533051153,0.6562043835863224,1000.0,19.28571428571425,[0.77441543]
-1.1607951267409745e-17,0.40373514709814956,-2.7200709478173243e-18,0.40373514709814956,-6.706912755477957e-19,0.019969893537977103,-2.7200709478173243e-18,0.019969893537977103,-8.249068584852419e-18,0.4042287293727188,-8.000017318811705e-18,-0.4042287293727189,0.6550737674885009,0.37650593394638887,0.6550737674885009,1000.0,19.28571428571425,[0.77441543]
-1.3259718454114836e-17,0.39719031052266146,-5.086380735883483e-18,0.39719031052266146,-2.6805945802638436e-19,0.02232097173406459,-5.086380735883483e-18,0.02232097173406459,-8.997898649784424e-18,0.39781700385006297,-8.431109691970465e-18,-0.39781700385006286,0.6532711303149061,0.3827187748127467,0.653271130314906,1000.0,19.28571428571425,[0.77441543]
-1.499396547405881e-17,0.38555314918516614,-7.42257453220781e-18,0.38555314918516614,6.403039685650477e-20,0.026015875013011974,-7.42257453220781e-18,0.026015875013011974,-9.774945499771838e-18,0.38642988574810244,-8.794338924553769e-18,-0.38642988574810255,0.6501890983805011,0.39307540331888263,0.6501890983805011,1000.0,19.28571428571425,[0.77655602]
-1.6904024770117258e-17,0.36343683693011264,-9.696704967172285e-18,0.36343683693011264,2.2899006333427976e-19,0.03246273255904148,-9.696704967172285e-18,0.03246273255904148,-1.0610596441797408e-17,0.3648837670313179,-8.8983659119525e-18,-0.3648837670313181,0.6440019974975607,0.4129441299235323,0.6440019974975606,1000.0,19.28571428571425,[0.76253246]
-1.93350093287371e-17,0.3123957089752907,-1.1780270359797405e-17,0.3123957089752907,-1.3023131564034868e-19,0.04610653130516228,-1.1780270359797405e-17,0.04610653130516228,-1.162314492090112e-17,0.31577981445172915,-8.387348121385022e-18,-0.3157798144517289,0.6261745262623143,0.4645545450432406,0.6261745262623144,1000.0,19.28571428571425,[0.53352726]
-2.402984825757167e-17,0.13637978089142952,-1.3155058599930952e-17,0.13637978089142952,-4.279183979749124e-18,0.0772009452867152,-1.3155058599930952e-17,0.0772009452867152,-1.3743744843911465e-17,0.15671448748969175,4.259828054502442e-18,-0.1567144874896916,0.4657753566203712,0.7524005810273753,0.4657753566203712,1000.0,19.28571428571425,[0.20577845]
-2.362396065715925e-17,0.14180599814047876,-1.368761650344668e-17,0.14180599814047876,-4.115309574235018e-18,0.0815693641129659,-1.368761650344668e-17,0.0815693641129659,-1.3410569728064907e-17,0.16359248842905666,3.1390647882614807e-18,-0.16359248842905677,0.3314090736134032,0.8833663180433198,0.3314090736134031,1000.0,32.142857142857125,[0.20123751]
-1.8616566570787843e-17,0.3190035781566687,-1.3773996493273755e-17,0.3190035781566687,3.559655960836197e-19,0.05150222192191719,-1.3773996493273755e-17,0.05150222192191719,-1.0131996356819127e-17,0.3231342781873383,-5.875811663657083e-18,-0.3231342781873384,0.5311102203933875,0.660184722321999,0.5311102203933874,1000.0,32.142857142857125,[0.51964852]
-1.5846980591503095e-17,0.3690429943228574,-1.3124332148897057e-17,0.3690429943228574,1.0244863497040763e-18,0.03714397501374332,-1.3124332148897057e-17,0.03714397501374332,-7.988605953571722e-18,0.37090754446169216,-5.482695186736839e-18,-0.3709075444616923,0.5580403093831505,0.61415146845637,0.5580403093831505,1000.0,32.142857142857125,[0.84847538]
-1.357878517743369e-17,0.39107166636586355,-1.2282067897874123e-17,0.39107166636586355,1.1764228846178164e-18,0.0307113817529609,-1.2282067897874123e-17,0.0307113817529609,-6.047074089566857e-18,0.3922757157961084,-4.1462407605606266e-18,-0.3922757157961085,0.5674336184713463,0.5966893473634576,0.5674336184713463,1000.0,32.142857142857125,[0.85639984]
-1.1473378907914718e-17,0.40304472063785735,-1.1353762801075263e-17,0.40304472063785735,1.169911318835799e-18,0.027368369662790496,-1.1353762801075263e-17,0.027368369662790496,-4.173913666273175e-18,0.4039728635589866,-2.683176126336712e-18,-0.40397286355898654,0.5718617821039201,0.5881736175125993,0.5718617821039204,1000.0,32.142857142857125,[0.90721188]
-9.450452471634636e-18,0.4101694118500788,-1.0395138226103884e-17,0.4101694118500788,1.0874314855969115e-18,0.02556366509921203,-1.0395138226103884e-17,0.02556366509921203,-2.3376521157442588e-18,0.4109652629976702,-1.0809074169502284e-18,-0.41096526299767033,0.5741636233304274,0.5836713692551233,0.5741636233304275,1000.0,32.142857142857125,[0.90922286]
-7.481789083538032e-18,0.4144470656210365,-9.410162158358403e-18,0.4144470656210365,9.572001699565628e-19,0.02468644381523314,-9.410162158358403e-18,0.02468644381523314,-5.187547406340556e-19,0.4151816358054994,5.834909065432228e-19,-0.4151816358054995,0.575296288084,0.5814364641416486,0.575296288084,1000.0,32.142857142857125,[0.90922286]
-5.539171958569497e-18,0.4167499320230412,-8.410128094742007e-18,0.4167499320230412,7.987520692608053e-19,0.024474671768632904,-8.410128094742007e-18,0.024474671768632904,1.2882047638757823e-18,0.41746798128645934,2.2265848382349134e-18,-0.41746798128645957,0.5756391303586531,0.5807574219929245,0.5756391303586531,1000.0,32.142857142857125,[0.90922286]
-3.620430574801693e-18,0.4174341722169122,-7.391305450692081e-18,0.4174341722169122,6.012345738729431e-19,0.024833260431917952,-7.391305450692081e-18,0.024833260431917952,3.0788853539305766e-18,0.4181721881690581,3.917235770939845e-18,-0.41817218816905805,0.5753268187507684,0.5813760428949931,0.5753268187507684,1000.0,32.142857142857125,[0.90922286]
-1.740758585725994e-18,0.4165339652968049,-6.3721097481858946e-18,0.4165339652968049,3.8852342499370693e-19,0.02577870839927741,-6.3721097481858946e-18,0.02577870839927741,4.852201768566658e-18,0.4173309071379867,5.6174901233791805e-18,-0.4173309071379866,0.5743428390198787,0.5833186149379865,0.5743428390198787,1000.0,32.142857142857125,[0.90922286]
1.1286714022163552e-19,0.4137724308671807,-5.325104233485674e-18,0.4137724308671807,1.4759549105906183e-19,0.02744436159059781,-5.325104233485674e-18,0.02744436159059781,6.611409790675035e-18,0.4146815857122804,7.284117501061193e-18,-0.41468158571228053,0.5725139566016505,0.5869033472324443,0.5725139566016505,1000.0,32.142857142857125,[0.90922286]
1.9100592960584473e-18,0.40839786506674164,-4.255104752117705e-18,0.40839786506674164,-1.5193653491374012e-19,0.030150384782120527,-4.255104752117705e-18,0.030150384782120527,8.344571549655341e-18,0.4095092940258895,8.96338441281027e-18,-0.4095092940258895,0.5694012311643823,0.5929287275018568,0.5694012311643825,1000.0,32.142857142857125,[0.90805909]
3.661670491421137e-18,0.39863976865678813,-3.139965197542105e-18,0.39863976865678813,-5.230957844887339e-19,0.03461884472365649,-3.139965197542105e-18,0.03461884472365649,1.0035408131052535e-17,0.4001401374078064,1.0531791044373723e-17,-0.40014013740780646,0.5639315185653458,0.603293033887485,0.563931518565346,1000.0,32.142857142857125,[0.90721188]
5.257004108015408e-18,0.3798479970820281,-1.941735350435553e-18,0.3798479970820281,-1.0592147005415026e-18,0.04266940111294439,-1.941735350435553e-18,0.04266940111294439,1.1627485964755798e-17,0.3822370713033547,1.1998247629331541e-17,-0.38223707130335466,0.5529863825324426,0.62322718286943,0.5529863825324427,1000.0,32.142857142857125,[0.87999417]
6.431256470705886e-18,0.3358962438563389,-5.045106904858924e-19,0.3358962438563389,-2.0967241818096137e-18,0.060018994089273414,-5.045106904858924e-19,0.060018994089273414,1.2952589601396347e-17,0.3412163042533072,1.2909396249884303e-17,-0.34121630425330723,0.5232162930057326,0.6726733393458367,0.5232162930057325,1000.0,32.142857142857125,[0.51964852]
5.697620059265255e-18,0.17574230129264878,1.8215426987091478e-18,0.17574230129264878,-6.936988079775907e-18,0.09835454834939596,1.8215426987091478e-18,0.09835454834939596,1.2802823588409946e-17,0.20139258587308978,1.6393993902395535e-17,-0.20139258587308967,0.3387407902598237,0.8777866221515912,0.33874079025982345,1000.0,32.142857142857125,[0.44286454]
6.383504988304425e-18,0.18253873871782253,2.047039578316616e-18,0.18253873871782253,-6.963034342903976e-18,0.099926631914307,2.047039578316616e-18,0.099926631914307,1.2862512941411773e-17,0.2081002712598686,1.354089512814297e-17,-0.20810027125986855,0.19849110792448804,0.9597929777560466,0.19849110792448796,1000.0,45.0,[0.54294001]
7.885506162023112e-18,0.3442281482002923,2.482534454394147e-20,0.3442281482002923,-2.1792040150485012e-18,0.061987839834032055,2.482534454394147e-20,0.061987839834032055,1.3742659582947796e-17,0.34976493577929135,1.3172877338510084e-17,-0.34976493577929146,0.4034714167922757,0.8212317770661749,0.40347141679227577,1000.0,45.0,[0.60261569]
7.496982737029406e-18,0.3869925918064747,-1.0968596902187909e-18,0.3869925918064747,-1.1807639284724947e-18,0.044413027878176456,-1.0968596902187909e-18,0.044413027878176456,1.3109952441128435e-17,0.38953277546106474,1.319776843671234e-17,-0.3895327754610649,0.4397313724407515,0.7831172582587786,0.4397313724407514,1000.0,45.0,[0.99578901]
6.737300062460706e-18,0.40573684337762184,-1.9718513421773835e-18,0.40573684337762184,-6.90225972893848e-19,0.03639740654412045,-1.9718513421773835e-18,0.03639740654412045,1.2187480622009297e-17,0.40736612190654126,1.2518250201125864e-17,-0.4073661219065412,0.4533261567075481,0.7674573547041734,0.45332615670754806,1000.0,45.0,[1.04223686]
5.843045028396977e-18,0.41597551570682645,-2.76110737800608e-18,0.41597551570682645,-3.689887276476546e-19,0.03208460811691352,-2.76110737800608e-18,0.03208460811691352,1.1151056401704855e-17,0.4172110398174718,1.15429421332894e-17,-0.4172110398174718,0.46006801229164923,0.7593911035375788,0.4600680122916494,1000.0,45.0,[1.04531542]
4.890185902295093e-18,0.42213480044800605,-3.5064442592112735e-18,0.42213480044800605,-1.2589027178567039e-19,0.029603963834942276,-3.5064442592112735e-18,0.029603963834942276,1.0060369133216935e-17,0.4231715779964652,1.0461600667906354e-17,-0.42317157799646526,0.46379631457236314,0.7548416768953522,0.46379631457236303,1000.0,45.0,[1.06313203]
3.889575293791747e-18,0.42590776254257295,-4.219833770798444e-18,0.42590776254257295,6.511565782017434e-20,0.028215816333037675,-4.219833770798444e-18,0.028215816333037675,8.941465079673606e-18,0.42684136922908544,9.478832657122255e-18,-0.42684136922908533,0.46585450108526666,0.752302577183672,0.4658545010852666,1000.0,45.0,[1.0538086]
2.869429987942349e-18,0.4280330899777262,-4.913400312596087e-18,0.4280330899777262,2.3658689007996676e-19,0.02759710279206778,-4.913400312596087e-18,0.02759710279206778,7.797600023965877e-18,0.42892181828206927,8.414703033594007e-18,-0.4289218182820692,0.4667936790782724,0.7511373525162636,0.4667936790782724,1000.0,45.0,[1.0538086]
1.814556331255525e-18,0.42881629887130696,-5.603677157097607e-18,0.42881629887130696,3.7332977150233287e-19,0.027621079266837097,-5.603677157097607e-18,0.027621079266837097,6.6309444880210876e-18,0.42970494783927127,7.32348434130298e-18,-0.4297049478392712,0.4668263905522151,0.7510966929550293,0.4668263905522152,1000.0,45.0,[1.0538086]
7.596826745687006e-19,0.4282953302455876,-6.271502665413214e-18,0.4282953302455876,4.883674336513075e-19,0.028287768906336375,-6.271502665413214e-18,0.028287768906336375,5.4545216034032704e-18,0.4292284796933623,6.243321136257231e-18,-0.42922847969336236,0.4659611142590232,0.7521705125814089,0.46596111425902315,1000.0,45.0,[1.0538086]
-3.3860142066490656e-19,0.42625267324008087,-6.92130266741037e-18,0.42625267324008087,5.686767449628559e-19,0.029723962696147896,-6.92130266741037e-18,0.029723962696147896,4.2390293240933494e-18,0.4272877899059101,5.155643283621027e-18,-0.4272877899059102,0.46400660153575873,0.7545831613960596,0.4640066015357587,1000.0,45.0,[1.07490117]
-1.4542496913172269e-18,0.4220834467903889,-7.544496818595064e-18,0.4220834467903889,6.077461396549605e-19,0.03225277339571173,-7.544496818595064e-18,0.03225277339571173,2.9953202597280196e-18,0.4233139230478607,4.103733454684475e-18,-0.42331392304786086,0.4604510413783414,0.7589266611387442,0.4604510413783415,1000.0,45.0,[1.06499864]
-2.626331532080365e-18,0.4143507966395782,-8.12010905940387e-18,0.4143507966395782,5.686767449628559e-19,0.03661391640816239,-8.12010905940387e-18,0.03661391640816239,1.6843250156151764e-18,0.41596533695801724,3.10947225246398e-18,-0.41596533695801735,0.4540485067744239,0.7666028352359728,0.454048506774424,1000.0,45.0,[1.04424783]
-3.898257381501104e-18,0.3992468973322845,-8.60591595546902e-18,0.3992468973322845,3.6247716186563715e-19,0.044678143301870483,-8.60591595546902e-18,0.044678143301870483,2.3658689007996676e-19,0.4017389967607801,2.127438579906688e-18,-0.4017389967607802,0.44129242728400814,0.7813590642230861,0.441292427284008,1000.0,45.0,[1.04223686]
-5.491420476168036e-18,0.3632870279463113,-8.855763377948825e-18,0.3632870279463113,-3.6247716186563715e-19,0.06230200171270634,-8.855763377948825e-18,0.06230200171270634,-1.5909925727395932e-18,0.36859056430065346,1.2018159532217803e-18,-0.36859056430065323,0.40829182212610365,0.8164530457839523,0.4082918221261035,1000.0,45.0,[1.04156956]
-8.573561612989621e-18,0.22056273232984097,-8.192482399918585e-18,0.22056273232984097,-4.87282172687638e-18,0.10029088639870838,-8.192482399918585e-18,0.10029088639870838,-5.300414546562191e-18,0.2422935838759328,2.7099761493057487e-18,-0.24229358387593272,0.24819445073031363,0.9363754745044084,0.24819445073031357,1000.0,45.0,[0.60534288]
-8.834024244270319e-18,0.2273757049158709,-8.018009742806144e-18,0.2273757049158709,-4.8858448584404145e-18,0.09876331227490992,-8.018009742806144e-18,0.09876331227490992,-5.8907965107984385e-18,0.2478989774837738,-1.435090967498539e-18,-0.24789897748377387,0.10652535413690999,0.988587223188734,0.10652535413690996,1000.0,57.8571428571429,[0.64855658]
-6.845826158827663e-18,0.3716711309252329,-8.194754665061268e-18,0.3716711309252329,-4.015465565577418e-19,0.060478142293400865,-8.194754665061268e-18,0.060478142293400865,-2.7500512819386962e-18,0.37655947107794596,-5.576141922209928e-19,-0.3765594710779461,0.27516034879442125,0.9211805278568717,0.2751603487944211,1000.0,57.8571428571429,[1.04494215]
-6.34660611553966e-18,0.4064790906147492,-7.47180129123176e-18,0.4064790906147492,2.8867941633610623e-19,0.043178793241581734,-7.47180129123176e-18,0.043178793241581734,-1.5258769149194187e-18,0.40876602022770037,-3.1995959155077406e-21,-0.4087660202277004,0.31085424859307476,0.8981866578074236,0.31085424859307476,1000.0,57.8571428571429,[1.08757425]
-6.103507659677675e-18,0.4215709133018603,-6.510667050281896e-18,0.4215709133018603,4.710032582325944e-19,0.03517888757879471,-6.510667050281896e-18,0.03517888757879471,-7.119311921672394e-19,0.42303615575201864,3.991902474905537e-19,-0.4230361557520185,0.325111665877104,0.888034238878901,0.32511166587710383,1000.0,57.8571428571429,[1.10259315]
-5.968935300182648e-18,0.42981974197632095,-5.468138237056812e-18,0.42981974197632095,4.8402638979662925e-19,0.030761622565295733,-5.468138237056812e-18,0.030761622565295733,-4.992200432880033e-20,0.43091912003929567,6.726095546732818e-19,-0.4309191200392957,0.3325031200400081,0.8825436818239197,0.3325031200400081,1000.0,57.8571428571429,[1.12287685]
-5.877773379234404e-18,0.43480951918417937,-4.3785235116306435e-18,0.43480951918417937,4.0805812233975924e-19,0.028107378157467944,-4.3785235116306435e-18,0.028107378157467944,5.426304818347862e-19,0.43571704428454966,1.0664867065399675e-18,-0.43571704428454966,0.336797209037748,0.8792811154396343,0.336797209037748,1000.0,57.8571428571429,[1.12287685]
-5.808316677559551e-18,0.4378997207314432,-3.262375003502882e-18,0.4378997207314432,3.060435917548194e-19,0.026494098491146336,-3.262375003502882e-18,0.026494098491146336,1.0874314855969115e-18,0.43870047033429826,1.4626519377915091e-18,-0.4387004703342984,0.33935851236579695,0.877309295613438,0.3393585123657971,1000.0,57.8571428571429,[1.12980984]
-5.76056519515809e-18,0.439682260392802,-2.1345302649111967e-18,0.439682260392802,1.606186226230967e-19,0.0256016170109782,-2.1345302649111967e-18,0.0256016170109782,1.6105272700856455e-18,0.4404269892930048,1.826950940697415e-18,-0.4404269892930048,0.3407640556432293,0.8762189890450652,0.34076405564322937,1000.0,57.8571428571429,[1.12980984]
-5.717154756611307e-18,0.44040332787458275,-9.85503860675078e-19,0.44040332787458275,-4.341043854678289e-21,0.025296578560355935,-9.85503860675078e-19,0.025296578560355935,2.0967241818096137e-18,0.4411292419346824,2.1864244885025416e-18,-0.4411292419346824,0.3412505335146326,0.8758402518450252,0.34125053351463275,1000.0,57.8571428571429,[1.12980984]
-5.70847266890195e-18,0.4400971404434658,1.6973788821088463e-19,0.4400971404434658,-1.9751749538786218e-19,0.02556247015968235,1.6973788821088463e-19,0.02556247015968235,2.5633863961875298e-18,0.44083889677202986,2.5178863660920696e-18,-0.4408388967720298,0.3408528732039402,0.8761498945141963,0.34085287320394014,1000.0,57.8571428571429,[1.12980984]
-5.6954495373379155e-18,0.43859686572268103,1.3444263689546334e-18,0.43859686572268103,-4.210812539037941e-19,0.026494362441863692,1.3444263689546334e-18,0.026494362441863692,2.9931497378006804e-18,0.4393963607757356,2.791647733395418e-18,-0.4393963607757355,0.339417579763075,0.8772635938505333,0.339417579763075,1000.0,57.8571428571429,[1.12980984]
-5.70847266890195e-18,0.4354312140274573,2.5359814372045534e-18,0.4354312140274573,-6.880554509665088e-19,0.028354270221534035,2.5359814372045534e-18,0.028354270221534035,3.3795026408670486e-18,0.43635341959152923,3.023330681885151e-18,-0.4363534195915293,0.3365032593150094,0.8795061756126283,0.3365032593150094,1000.0,57.8571428571429,[1.12980984]
-5.751883107448733e-18,0.4294716188241955,3.777140562235324e-18,0.4294716188241955,-1.0396800031954503e-18,0.031753001943575124,3.777140562235324e-18,0.031753001943575124,3.6703525791304936e-18,0.4306438487984054,3.0628717743966232e-18,-0.43064384879840545,0.33103322874564417,0.8836481216708766,0.3310332287456442,1000.0,57.8571428571429,[1.12287685]
-5.873432335379725e-18,0.41769134934095126,5.082391553981869e-18,0.41769134934095126,-1.5519231780474886e-18,0.03824183341036172,5.082391553981869e-18,0.03824183341036172,3.800583894770842e-18,0.4194383162478726,2.8780254603943237e-18,-0.4194383162478724,0.32004854623063705,0.8917050275238507,0.32004854623063705,1000.0,57.8571428571429,[1.07352224]
-6.190328536771241e-18,0.3890462648398132,6.5990479900107366e-18,0.3890462648398132,-2.5742390058242255e-18,0.052656919195587064,6.5990479900107366e-18,0.052656919195587064,3.4359362109778663e-18,0.39259361600130566,1.6401272050933323e-18,-0.3925936160013057,0.292499862485456,0.9104326778471753,0.2924998624854562,1000.0,57.8571428571429,[1.04085584]
-7.63589614037911e-18,0.26187079534095375,8.841112354939285e-18,0.26187079534095375,-7.392797684517127e-18,0.08278194298169839,8.841112354939285e-18,0.08278194298169839,8.291393762435533e-19,0.27464370288854056,-4.822263611874055e-18,-0.27464370288854056,0.17824233848030963,0.9677082915559532,0.17824233848030974,1000.0,57.8571428571429,[0.66744395]
-6.941329123630584e-18,0.26734921302295417,9.023605768861347e-18,0.26734921302295417,-7.386286118735109e-18,0.07846534061748775,9.023605768861347e-18,0.07846534061748775,1.185104972327173e-18,0.2786259345111493,-4.349662908963978e-18,-0.27862593451114914,0.036132991616019766,0.9986935535156685,0.03613299161601968,1000.0,70.71428571428567,[0.66421907]
-4.597165442104308e-18,0.3958180970530276,7.527760059670972e-18,0.3958180970530276,-2.5481927426961558e-18,0.04742560696690276,7.527760059670972e-18,0.04742560696690276,5.000882520589389e-18,0.3986491617335465,3.171595328917826e-18,-0.39864916173354636,0.1524831398233028,0.9764721112961978,0.15248313982330278,1000.0,70.71428571428567,[1.06830918]
-3.368650031230353e-18,0.42357252645053567,6.743684449223543e-18,0.42357252645053567,-1.4889780421546532e-18,0.03383610113644194,6.743684449223543e-18,0.03383610113644194,6.535441523218165e-18,0.4249218362285058,5.395194337621904e-18,-0.42492183622850577,0.17965447670168977,0.9671858859609583,0.1796544767016898,1000.0,70.71428571428567,[1.10793534]
-2.296412199124815e-18,0.43537625413587966,6.1438742803654156e-18,0.43537625413587966,-9.572001699565628e-19,0.027443475316735952,6.1438742803654156e-18,0.027443475316735952,7.570780482558936e-18,0.43624033170128856,6.772562986624808e-18,-0.4362403317012886,0.19109280715802546,0.962791295195865,0.19109280715802549,1000.0,70.71428571428567,[1.13415675]
-1.276266893275417e-18,0.44178309735970434,5.609595220790118e-18,0.44178309735970434,-5.686767449628559e-19,0.023802763222603922,5.609595220790118e-18,0.023802763222603922,8.410772468439185e-18,0.4424238653709418,7.775739564149533e-18,-0.4424238653709418,0.19729624467352117,0.9602855740223594,0.19729624467352117,1000.0,70.71428571428567,[1.12232304]
-3.1255515753683683e-19,0.4456403065026918,5.1096629749947065e-18,0.4456403065026918,-2.821678505540888e-19,0.021505784803529805,5.1096629749947065e-18,0.021505784803529805,9.168284621080547e-18,0.4461589196237468,8.664719901652515e-18,-0.44615891962374676,0.2010997641769236,0.9587063000189221,0.2010997641769236,1000.0,70.71428571428567,[1.13836464]
6.468155343470651e-19,0.4480144374979435,4.628977154101873e-18,0.4480144374979435,-2.387574120073059e-20,0.019991096071594112,4.628977154101873e-18,0.019991096071594112,9.87153372553843e-18,0.4484602324941896,9.4424112433663e-18,-0.44846023249418954,0.2035584220170691,0.9576679683751783,0.2035584220170691,1000.0,70.71428571428567,[1.13836464]
1.5931630946669323e-18,0.44936641620577467,4.161823180849794e-18,0.44936641620577467,1.8883540767850558e-19,0.01900484302138701,4.161823180849794e-18,0.01900484302138701,1.0535713435304208e-17,0.449768118114089,1.017185715198381e-17,-0.4497681181140889,0.20513204326896703,0.956996180582032,0.20513204326896708,1000.0,70.71428571428567,[1.13836464]
2.5438516988414775e-18,0.44988610513212457,3.70138425981042e-18,0.44988610513212457,3.798413372843503e-19,0.018433480014838716,3.70138425981042e-18,0.018433480014838716,1.116516479423256e-17,0.45026359032949864,1.0849668065560606e-17,-0.4502635903294987,0.20602279918317606,0.9566134080355854,0.20602279918317618,1000.0,70.71428571428567,[1.13703719]
3.47717612759731e-18,0.44959718263770526,3.2523744932946926e-18,0.44959718263770526,5.448010037621253e-19,0.01824724104339806,3.2523744932946926e-18,0.01824724104339806,1.1768569890032842e-17,0.4499673193038113,1.1501236604192553e-17,-0.4499673193038113,0.20628473748178885,0.9565005040062127,0.20628473748178885,1000.0,70.71428571428567,[1.13703719]
4.397477424789107e-18,0.4483647024943364,2.8124029157420246e-18,0.4483647024943364,7.010785825305437e-19,0.018490663005988527,2.8124029157420246e-18,0.018490663005988527,1.233073506921368e-17,0.4487458201044729,1.2088695298028151e-17,-0.4487458201044729,0.20584278093673608,0.9566909109385653,0.20584278093673605,1000.0,70.71428571428567,[1.13703719]
5.313437678126226e-18,0.44581121534704055,2.387370633642371e-18,0.44581121534704055,7.770468499874139e-19,0.019312787676999787,2.387370633642371e-18,0.019312787676999787,1.2836466678283703e-17,0.4462293395744638,1.2605253036734086e-17,-0.44622933957446376,0.20443754788583934,0.9572933604850972,0.20443754788583934,1000.0,70.71428571428567,[1.13836464]
6.203351668335276e-18,0.44102996863416943,1.984043570816109e-18,0.44102996863416943,7.922405034787879e-19,0.02107456177983686,1.984043570816109e-18,0.02107456177983686,1.3242354278696123e-17,0.44153320417344444,1.3013243563095646e-17,-0.44153320417344455,0.2014198527796175,0.9585718991356228,0.20141985277961758,1000.0,70.71428571428567,[1.13836464]
7.052025741924881e-18,0.43155934429308124,1.6280949319350467e-18,0.43155934429308124,6.381334466377085e-19,0.024700562111101956,1.6280949319350467e-18,0.024700562111101956,1.345072438372068e-17,0.43226564218692953,1.3254006941039319e-17,-0.43226564218692953,0.19502283517789984,0.9612139135064303,0.1950228351778998,1000.0,70.71428571428567,[1.11113187]
7.776980065656155e-18,0.40811134171861563,1.3900497224351488e-18,0.40811134171861563,-2.1705219273391446e-20,0.03304871784183549,1.3900497224351488e-18,0.03304871784183549,1.30969293095644e-17,0.40944729207842856,1.2887123365423591e-17,-0.4094472920784285,0.17890895149368533,0.9674622339661948,0.17890895149368533,1000.0,70.71428571428567,[1.0954339]
7.63589614037911e-18,0.2915320127390142,1.5700843419863966e-18,0.2915320127390142,-4.49080986766469e-18,0.04933937233286361,1.5700843419863966e-18,0.04933937233286361,1.0229669843549389e-17,0.2956776760492101,9.99502033982076e-18,-0.29567767604921025,0.11889547913681263,0.9857625120086762,0.11889547913681256,1000.0,70.71428571428567,[0.66134409]
7.262566368876778e-18,0.2945966596844884,1.917893523639937e-18,0.2945966596844884,-4.492980389592029e-18,0.04308482948672912,1.917893523639937e-18,0.04308482948672912,8.98379025725672e-18,0.297730573554613,8.579101471989636e-18,-0.2977305735546131,0.023345096116595188,0.999454857897351,0.0233450961165952,1000.0,83.57142857142856,[0.68139131]
6.400869163723138e-18,0.4119482694366707,3.002730557245576e-18,0.4119482694366707,-2.6046263128069738e-20,0.02543445620160997,3.002730557245576e-18,0.02543445620160997,9.61758266003975e-18,0.4127327080013643,9.245249990137813e-18,-0.4127327080013642,0.03571924162986001,0.9987233208225266,0.03571924162986001,1000.0,83.57142857142856,[1.15066174]
4.69483892883457e-18,0.43495569761452535,4.471851715205587e-18,0.43495569761452535,6.229397931463345e-19,0.018241724672825504,4.471851715205587e-18,0.018241724672825504,7.727058061327355e-18,0.4353380518704717,7.345888770199544e-18,-0.4353380518704718,0.04965811283846468,0.9975310239078506,0.04965811283846469,1000.0,83.57142857142856,[1.17746546]
2.869429987942349e-18,0.4444927843612118,6.031168233568075e-18,0.4444927843612118,7.835584157694313e-19,0.014717171951021962,6.031168233568075e-18,0.014717171951021962,5.267856717652104e-18,0.44473636066710226,4.8664205470978685e-18,-0.4447363606671023,0.05587510253495249,0.9968730841152336,0.05587510253495252,1000.0,83.57142857142856,[1.18417602]
1.004951652358024e-18,0.4495755253697104,7.624585686273367e-18,0.4495755253697104,7.640237184233789e-19,0.01256809680849708,7.624585686273367e-18,0.01256809680849708,2.598114747024956e-18,0.44975116461087583,2.1710392095518785e-18,-0.44975116461087583,0.05950438210170767,0.9964529376851613,0.05950438210170769,1000.0,83.57142857142856,[1.18417602]
-8.70379292862997e-19,0.45256594123965277,9.233705508546753e-18,0.45256594123965277,6.772028413298131e-19,0.011076712644962232,9.233705508546753e-18,0.011076712644962232,-1.7364175418713157e-19,0.45270147418928486,-6.267213408515098e-19,-0.4527014741892849,0.06195441685111875,0.9961542553567072,0.06195441685111878,1000.0,83.57142857142856,[1.18142384]
-2.763074413502731e-18,0.4543363531149808,1.084779379116944e-17,0.4543363531149808,5.296073502707513e-19,0.009953431835157905,1.084779379116944e-17,0.009953431835157905,-2.9974907816553587e-18,0.4544453680775254,-3.471467125204624e-18,-0.4544453680775255,0.0637619130647575,0.9959261201939854,0.06376191306475754,1000.0,83.57142857142856,[1.18142384]
-4.653599012215126e-18,0.45525843291574936,1.2469411071727585e-17,0.45525843291574936,3.6247716186563715e-19,0.009061031783045247,1.2469411071727585e-17,0.009061031783045247,-5.866920769597708e-18,0.45534859507620873,-6.3627522536420494e-18,-0.45534859507620884,0.06517284251950545,0.9957434414525941,0.06517284251950549,1000.0,83.57142857142856,[1.18213175]
-6.5549762205642175e-18,0.4554798792314994,1.409609855585037e-17,0.4554798792314994,1.6713018840511414e-19,0.00832829968269698,1.409609855585037e-17,0.00832829968269698,-8.773249630304823e-18,0.45555601297792814,-9.287597893373646e-18,-0.45555601297792825,0.06631183765959463,0.995593029491677,0.06631183765959467,1000.0,83.57142857142856,[1.18213175]
-8.456353428913307e-18,0.45500911460756227,1.5724854818685153e-17,0.45500911460756227,-5.426304818347862e-20,0.007718136617988774,1.5724854818685153e-17,0.007718136617988774,-1.1714306841849364e-17,0.4550745697232616,-1.2246193682734322e-17,-0.45507456972326166,0.06724221732728879,0.9954682156743225,0.06724221732728884,1000.0,83.57142857142856,[1.18213175]
-1.0383776900390468e-17,0.4537179838906016,1.7360953550227263e-17,0.4537179838906016,-3.0387306982748025e-19,0.007215731882366985,1.7360953550227263e-17,0.007215731882366985,-1.4696603970013348e-17,0.4537753581810613,-1.52475398850978e-17,-0.4537753581810613,0.06798743627567608,0.9953669760532152,0.06798743627567613,1000.0,83.57142857142856,[1.18213175]
-1.230685932801295e-17,0.4512645529591903,1.8993745627270692e-17,0.4512645529591903,-6.034050958002822e-19,0.006827606811491682,1.8993745627270692e-17,0.006827606811491682,-1.773750519021549e-17,0.45131620065341144,-1.831121539674179e-17,-0.4513162006534114,0.06853178154495508,0.9952923137634235,0.06853178154495512,1000.0,83.57142857142856,[1.18213175]
-1.4245135409126806e-17,0.4468334825498261,2.0633659729388202e-17,0.4468334825498261,-9.832464330846325e-19,0.00659324715025039,2.0633659729388202e-17,0.00659324715025039,-2.088693250678459e-17,0.44688212319983217,-2.1494251128606036e-17,-0.44688212319983234,0.06879524916560098,0.9952559607379832,0.06879524916560106,1000.0,83.57142857142856,[1.18213175]
-1.6202946187586715e-17,0.43820034058118934,2.2277134844042753e-17,0.43820034058118934,-1.5237063929920795e-18,0.006627066879306334,2.2277134844042753e-17,0.006627066879306334,-2.4244729928378245e-17,0.43825044951590536,-2.4916632540395178e-17,-0.4382504495159054,0.06853640458258702,0.9952916770946011,0.06853640458258708,1000.0,83.57142857142856,[1.18213175]
-1.8264942018558902e-17,0.416800888011811,2.3945011373177313e-17,0.416800888011811,-2.5764095277515647e-18,0.007241506710211315,2.3945011373177313e-17,0.007241506710211315,-2.819725035806283e-17,0.4168637903043011,-2.902641175705929e-17,-0.4168637903043011,0.06695269639039014,0.9955072440178991,0.06695269639039021,1000.0,83.57142857142856,[1.14945139]
-2.108879104602713e-17,0.30376353823741525,2.561770374783816e-17,0.30376353823741525,-7.425355513427214e-18,0.0064507325196431235,2.561770374783816e-17,0.0064507325196431235,-3.4754397100554384e-17,0.30383202450129193,-3.5835834730469135e-17,-0.30383202450129193,0.06423463344105011,0.9958653642603441,0.06423463344105025,1000.0,83.57142857142856,[0.68281279]
