stress_11,stress_12,stress_13,stress_21,stress_22,stress_23,stress_31,stress_32,stress_33,e1,e2,e3,anev1,anev2,anev3,temp,miss,velo
1.6930071033245328e-19,0.5433031354264121,1.970274322339551e-18,0.5433031354264121,-4.069728613760896e-18,-0.043769850213241125,1.970274322339551e-18,-0.043769850213241125,-1.4151802966251223e-17,0.5450633878292137,-1.3724670884207059e-17,-0.5450633878292136,0.17919247621072232,0.9673572829823217,0.17919247621072226,300.0,109.28571428571416,[1.56610333]
1.5757989192482192e-18,0.6599777718559217,1.7658382883082955e-18,0.6599777718559217,7.119311921672394e-19,-0.027505284047732583,1.7658382883082955e-18,-0.027505284047732583,-9.580683787274984e-18,0.6605506793535629,-9.416577484512378e-18,-0.6605506793535629,0.20554842416502733,0.9568174803203316,0.2055484241650273,300.0,109.28571428571416,[1.61338078]
2.101065225664292e-18,0.6835180054549006,1.150240963869288e-18,0.6835180054549006,1.7168828445252636e-18,-0.01919310471406079,1.150240963869288e-18,-0.01919310471406079,-7.525199522084814e-18,0.6837874224125583,-7.453830328259896e-18,-0.6837874224125582,0.2147166795670702,0.9527819766512086,0.2147166795670702,300.0,109.28571428571416,[1.62833718]
2.4961002164400163e-18,0.6930793316964045,4.081768227576606e-19,0.6930793316964045,2.192227146612536e-18,-0.015608339216046463,4.081768227576606e-19,-0.015608339216046463,-6.0253688702934655e-18,0.693255061487342,-6.003910340646007e-18,-0.6932550614873418,0.21845654899360406,0.9510801608716325,0.21845654899360406,300.0,109.28571428571416,[1.61907231]
2.839042680959601e-18,0.6979501056632161,-3.8276645472549095e-19,0.6979501056632161,2.493929694512677e-18,-0.013891837888508299,-3.8276645472549095e-19,-0.013891837888508299,-4.730652540635666e-18,0.6980883419419174,-4.742841887300803e-18,-0.6980883419419174,0.22021464941819352,0.9502689179191566,0.22021464941819352,300.0,109.28571428571416,[1.61907231]
3.188496711261204e-18,0.7005920273892576,-1.19021756889821e-18,0.7005920273892576,2.7370281503746614e-18,-0.01311858299525579,-1.19021756889821e-18,-0.01311858299525579,-3.52709813192611e-18,0.7007148393328014,-3.568573261156881e-18,-0.7007148393328014,0.22100626762952627,0.9499012892595381,0.22100626762952627,300.0,109.28571428571416,[1.61907231]
3.52709813192611e-18,0.7019118622260944,-2.012557106916271e-18,0.7019118622260944,2.9171814703438104e-18,-0.012927386055864814,-2.012557106916271e-18,-0.012927386055864814,-2.3832330762183808e-18,0.7020308965023836,-2.4553481495397427e-18,-0.7020308965023837,0.2212127978499984,0.949805135875118,0.2212127978499984,300.0,109.28571428571416,[1.61907231]
3.837482767535608e-18,0.7022870503894142,-2.8422899852493312e-18,0.7022870503894142,3.0799706148942462e-18,-0.013169028657859589,-2.8422899852493312e-18,-0.013169028657859589,-1.2892900248394519e-18,0.7024105099302366,-1.3929435731756923e-18,-0.7024105099302365,0.22098838268382892,0.9499096111933868,0.22098838268382895,300.0,109.28571428571416,[1.61907231]
4.141355837363088e-18,0.7018525220201597,-3.694961719341829e-18,0.7018525220201597,3.2123724524619344e-18,-0.01379882109467537,-3.694961719341829e-18,-0.01379882109467537,-2.127111488792362e-19,0.7019881552630796,-3.5777571156436004e-19,-0.7019881552630794,0.22037799427525967,0.9501931799789068,0.22037799427525961,300.0,109.28571428571416,[1.61907231]
4.443058385263229e-18,0.7005845819452562,-4.5400578231918364e-18,0.7005845819452562,3.3208985488288917e-18,-0.014846385264374477,-4.5400578231918364e-18,-0.014846385264374477,8.237130714252055e-19,0.7007418723144977,6.339956087119464e-19,-0.7007418723144978,0.2193496034368866,0.9506689765339781,0.21934960343688661,300.0,109.28571428571416,[1.61907231]
4.7360788454540136e-18,0.6982933539669532,-5.407266119176611e-18,0.6982933539669532,3.383843684721727e-18,-0.016425125597423155,-5.407266119176611e-18,-0.016425125597423155,1.824323679928551e-18,0.6984865016199722,1.5729938044039707e-18,-0.6984865016199723,0.21778324902292917,0.9513889388100083,0.21778324902292917,300.0,109.28571428571416,[1.61907231]
5.000882520589389e-18,0.6945179061399278,-6.2901492292753255e-18,0.6945179061399278,3.4207425574864923e-18,-0.018788756524097425,-6.2901492292753255e-18,-0.018788756524097425,2.768500718321079e-18,0.6947720052799415,2.430919537973294e-18,-0.6947720052799415,0.21540790556414247,0.9524698779703951,0.21540790556414247,300.0,109.28571428571416,[1.61907231]
5.25266306416073e-18,0.6881916935201153,-7.212775782867797e-18,0.6881916935201153,3.372991075085031e-18,-0.02249858711788008,-7.212775782867797e-18,-0.02249858711788008,3.633453706365728e-18,0.6885593608777573,3.1643967532235525e-18,-0.6885593608777572,0.2116097933491606,0.9541711537860759,0.21160979334916058,300.0,109.28571428571416,[1.63817202]
5.4241342964205224e-18,0.6764675227704164,-8.193160688020879e-18,0.6764675227704164,3.1667914919878124e-18,-0.028962680554361693,-8.193160688020879e-18,-0.028962680554361693,4.301974459986185e-18,0.6770872515621883,3.601373356904509e-18,-0.6770872515621884,0.20477937644514033,0.9571472269016293,0.20477937644514035,300.0,109.28571428571416,[1.63306083]
5.437157427984557e-18,0.6487918039421287,-9.361836250720312e-18,0.6487918039421287,2.4353256024745203e-18,-0.04262596403658658,-9.361836250720312e-18,-0.04262596403658658,4.471275170318638e-18,0.6501905702734622,3.2906402213772768e-18,-0.650190570273462,0.1892842155295855,0.9635055638151233,0.1892842155295855,300.0,109.28571428571416,[1.57507134]
4.347555420460307e-18,0.5204017437873705,-1.1235050725097145e-17,0.5204017437873705,-2.0815305283182397e-18,-0.07374209502988309,-1.1235050725097145e-17,-0.07374209502988309,2.3593573350176502e-18,0.5256004866020694,-9.263496425677687e-19,-0.5256004866020696,0.1375922315579387,0.980885699574529,0.1375922315579387,300.0,109.28571428571416,[1.52844171]
1.0852609636695723e-20,0.5462862277096596,2.776402774712798e-18,0.5462862277096596,-4.176084188200514e-18,-0.03743423857880636,2.776402774712798e-18,-0.03743423857880636,-1.4704200796759035e-17,0.5475673153167793,-1.424542215198738e-17,-0.5475673153167789,0.030948475378127817,0.9990417327336925,0.030948475378127796,300.0,96.42857142857144,[1.61178493]
8.334804200982316e-19,0.6635368084447033,3.6273830278502014e-18,0.6635368084447033,3.8201185921168945e-19,-0.0197424145506209,3.6273830278502014e-18,-0.0197424145506209,-1.0964391515953689e-17,0.6638304445363075,-1.0743764727541387e-17,-0.6638304445363075,0.058238589883658425,0.9966024951286878,0.0582385898836584,300.0,96.42857142857144,[1.62717939]
7.813878938420922e-19,0.6864445989504105,4.091857763098221e-18,0.6864445989504105,1.1612292311264424e-18,-0.012505284834248924,4.091857763098221e-18,-0.012505284834248924,-9.748899236643768e-18,0.6865584968354668,-9.597252885394197e-18,-0.6865584968354669,0.06635912957077607,0.9955867274352435,0.06635912957077605,300.0,96.42857142857144,[1.63243462]
6.2511031507367365e-19,0.6958818248072169,4.465781036690061e-18,0.6958818248072169,1.4216918624071397e-18,-0.008938284176975422,4.465781036690061e-18,-0.008938284176975422,-9.10968052904239e-18,0.695939226528474,-8.993639515606315e-18,-0.6959392265284741,0.07013969964960716,0.9950682615108,0.07013969964960716,300.0,96.42857142857144,[1.6210291]
4.427864731771855e-19,0.7008641278844452,4.796158214114659e-18,0.7008641278844452,1.502001173718688e-18,-0.006750002394049358,4.796158214114659e-18,-0.006750002394049358,-8.684258231283918e-18,0.7008966316708506,-8.591006651924542e-18,-0.7008966316708507,0.07240017804939239,0.994744403571507,0.07240017804939239,300.0,96.42857142857144,[1.6210291]
2.387574120073059e-19,0.7037534668093246,5.125195772537227e-18,0.7037534668093246,1.5193653491374012e-18,-0.005223105693549824,5.125195772537227e-18,-0.005223105693549824,-8.34999785447369e-18,0.7037728489216029,-8.273414553318701e-18,-0.7037728489216026,0.0739538085529135,0.9945157959535071,0.07395380855291349,300.0,96.42857142857144,[1.61600829]
2.1705219273391446e-20,0.7054221785973709,5.431239364292047e-18,0.7054221785973709,1.4824664763726358e-18,-0.004068232139626986,5.431239364292047e-18,-0.004068232139626986,-8.078682613556296e-18,0.7054339094272425,-8.0157745470462e-18,-0.7054339094272425,0.07511728502591199,0.9943413835201028,0.075117285025912,300.0,96.42857142857144,[1.61600829]
-2.1054062695189705e-19,0.7062419792555709,5.748050779670775e-18,0.7062419792555709,1.4151802966251223e-18,-0.003148299066099687,5.748050779670775e-18,-0.003148299066099687,-7.848607289258347e-18,0.7062489964947463,-7.797207973606382e-18,-0.7062489964947462,0.07603775067873401,0.9942014488741392,0.07603775067873399,300.0,96.42857142857144,[1.61600829]
-4.384454293225072e-19,0.7063606241784741,6.041529084330608e-18,0.7063606241784741,1.3283594195315565e-18,-0.0023921916765542468,6.041529084330608e-18,-0.0023921916765542468,-7.655430837725163e-18,0.706364674917157,-7.614421571987693e-18,-0.706364674917157,0.07679073877959959,0.9940856929235862,0.07679073877959958,300.0,96.42857142857144,[1.61600829]
-6.772028413298131e-19,0.7057865994917041,6.348420536213295e-18,0.7057865994917041,1.2176628012372601e-18,-0.0017628836886737446,6.348420536213295e-18,-0.0017628836886737446,-7.492641693174727e-18,0.7057888011161436,-7.460884545618445e-18,-0.7057888011161435,0.07741552300967207,0.9939887693501763,0.07741552300967205,300.0,96.42857142857144,[1.61600829]
-9.094486875551016e-19,0.7043918177434654,6.641678397239882e-18,0.7043918177434654,1.06572626632352e-18,-0.001245618821038336,6.641678397239882e-18,-0.001245618821038336,-7.375433509098413e-18,0.7043929190943008,-7.351924517518775e-18,-0.7043929190943008,0.0779281609820364,0.9939086494501976,0.0779281609820364,300.0,96.42857142857144,[1.61600829]
-1.1503766214897466e-18,0.7018344152882617,6.939073815690459e-18,0.7018344152882617,8.768908586450144e-19,-0.0008469580671330222,6.939073815690459e-18,-0.0008469580671330222,-7.323340982842274e-18,0.7018349263330971,-7.306584067167345e-18,-0.7018349263330972,0.07832282813418574,0.9938466024423115,0.07832282813418573,300.0,96.42857142857144,[1.61579294]
-1.4086687308431049e-18,0.6972991253493611,7.225243566048079e-18,0.6972991253493611,5.968935300182648e-19,-0.0006064138564982577,7.225243566048079e-18,-0.0006064138564982577,-7.366751421389057e-18,0.6972993890365522,-7.354179913388603e-18,-0.6972993890365523,0.07855973403830106,0.993809205217814,0.07855973403830106,300.0,96.42857142857144,[1.61569508]
-1.7103712787432462e-18,0.6885615898586844,7.510887643126422e-18,0.6885615898586844,1.7147123225979242e-19,-0.0006384148862482873,7.510887643126422e-18,-0.0006384148862482873,-7.620702486887737e-18,0.6885618858187594,-7.606769686464518e-18,-0.6885618858187594,0.07851931942528356,0.9938155930322187,0.07851931942528356,300.0,96.42857142857144,[1.63492886]
-2.1075767914463094e-18,0.6670576449768737,7.781558510346636e-18,0.6670576449768737,-7.6619424035071805e-19,-0.0012554052197337958,7.781558510346636e-18,-0.0012554052197337958,-8.47588812625936e-18,0.6670588263147101,-8.446575807030334e-18,-0.6670588263147099,0.07784829223155472,0.9939211672930911,0.0778482922315547,300.0,96.42857142857144,[1.6146246]
-3.2709765445000913e-18,0.5539157802299363,8.03401734202027e-18,0.5539157802299363,-5.521807783150784e-18,-0.00047154311094685966,8.03401734202027e-18,-0.00047154311094685966,-1.1935700078437956e-17,0.5539159809399299,-1.1922015264110191e-17,-0.5539159809399297,0.07857264367027392,0.9938071640581632,0.07857264367027388,300.0,96.42857142857144,[1.56600544]
4.4191826440624984e-18,0.5149885451604324,-1.1443229001767773e-17,0.5149885451604324,-2.174862971193823e-18,-0.07812051045406855,-1.1443229001767773e-17,-0.07812051045406855,2.839042680959601e-18,0.5208800397404983,-5.646392380437145e-19,-0.5208800397404982,0.2821529311512938,0.9169402635316364,0.2821529311512938,300.0,122.14285714285735,[1.53667341]
6.1013371377503355e-18,0.6422345237980763,-9.59561036482608e-18,0.6422345237980763,2.1802892760121708e-18,-0.04805186029045781,-9.59561036482608e-18,-0.04805186029045781,5.436072167020888e-18,0.644029630401828,3.986762213913722e-18,-0.6440296304018281,0.3304833136619953,0.8840597031773217,0.33048331366199524,300.0,122.14285714285735,[1.58469301]
6.667843360785853e-18,0.6709479303981684,-8.478173109303961e-18,0.6709479303981684,2.7413691942293397e-18,-0.03369450567567344,-8.478173109303961e-18,-0.03369450567567344,5.7692472828674464e-18,0.6717934541347612,4.9255161227556034e-18,-0.6717934541347613,0.34570034514049025,0.8723431336002433,0.3457003451404902,300.0,122.14285714285735,[1.6089918]
7.043343654215524e-18,0.6827952053787284,-7.565642450184063e-18,0.6827952053787284,2.7728417621757573e-18,-0.027265076944701337,-7.565642450184063e-18,-0.027265076944701337,5.6270780966267324e-18,0.6833393570613215,5.0344637668323704e-18,-0.6833393570613214,0.3520149522541005,0.867277894782916,0.3520149522541005,300.0,122.14285714285735,[1.63137598]
7.338534636333648e-18,0.6888207060768686,-6.7233866777624106e-18,0.6888207060768686,2.6523777952084347e-18,-0.02392741607991423,-6.7233866777624106e-18,-0.02392741607991423,5.3069261123442086e-18,0.6892361615299194,4.8458971211354565e-18,-0.6892361615299193,0.35519149788635024,0.8646837570224746,0.35519149788635024,300.0,122.14285714285735,[1.61642445]
7.603338311469024e-18,0.6920512300946446,-5.925007666957866e-18,0.6920512300946446,2.459201343675251e-18,-0.022130169714049366,-5.925007666957866e-18,-0.022130169714049366,4.9064648167501364e-18,0.6924049750594542,4.526522017999668e-18,-0.6924049750594542,0.3568752727270598,0.8632960554942744,0.3568752727270599,300.0,122.14285714285735,[1.61067977]
7.844266245403669e-18,0.6936153722033555,-5.14440828303469e-18,0.6936153722033555,2.2063355391402405e-18,-0.02126243190134579,-5.14440828303469e-18,-0.02126243190134579,4.453910994899925e-18,0.6939411902799535,4.1398111693331904e-18,-0.6939411902799535,0.357681874672741,0.8626281661649978,0.357681874672741,300.0,122.14285714285735,[1.61067977]
8.07000052584694e-18,0.6939844373835724,-4.380961109498261e-18,0.6939844373835724,1.918741383767804e-18,-0.0210620834569369,-4.380961109498261e-18,-0.0210620834569369,3.972055127030635e-18,0.6943039757124688,3.712036217602348e-18,-0.6943039757124689,0.3578677231572765,0.8624739911698519,0.35786772315727655,300.0,122.14285714285735,[1.61067977]
8.276200108944158e-18,0.6933252683658399,-3.6357683645148046e-18,0.6933252683658399,1.6213798797223412e-18,-0.02143394714804236,-3.6357683645148046e-18,-0.02143394714804236,3.4587266912149273e-18,0.69365650133543,3.2403803758866183e-18,-0.6936565013354301,0.35752329421192713,0.862759635235506,0.3575232942119272,300.0,122.14285714285735,[1.61067977]
8.47371760433202e-18,0.6916036565646545,-2.898104617466806e-18,0.6916036565646545,1.2947163296577998e-18,-0.022394429602881086,-2.898104617466806e-18,-0.022394429602881086,2.9269488190168365e-18,0.6919661323004467,2.7537422586739756e-18,-0.6919661323004466,0.35662961699933293,0.8634990634377192,0.3566296169993329,300.0,122.14285714285735,[1.61067977]
8.671235099719883e-18,0.6885734214155442,-2.173116379330417e-18,0.6885734214155442,9.398359945378496e-19,-0.024076782021601316,-2.173116379330417e-18,-0.024076782021601316,2.3517605082719632e-18,0.6889942293752718,2.2105718262731886e-18,-0.6889942293752718,0.3550514007111556,0.8647988238348228,0.3550514007111556,300.0,122.14285714285735,[1.62528141]
8.814489546924266e-18,0.6836426616803671,-1.483687394956764e-18,0.6836426616803671,5.296073502707513e-19,-0.02680107241491678,-1.483687394956764e-18,-0.02680107241491678,1.7418438466896636e-18,0.6841678056968237,1.6280253338925862e-18,-0.6841678056968237,0.3524607501307809,0.8669157048032379,0.3524607501307809,300.0,122.14285714285735,[1.62899737]
8.946891384491954e-18,0.6754519244102523,-8.371601330531738e-19,0.6754519244102523,5.317778721980905e-20,-0.031289269841898934,-8.371601330531738e-19,-0.031289269841898934,1.0559589176504939e-18,0.6761762496544463,1.0032669890270134e-18,-0.6761762496544462,0.3480952204059299,0.8704363475068664,0.3480952204059298,300.0,122.14285714285735,[1.61023132]
8.95557347220131e-18,0.6604173224373768,-2.7002649352303546e-19,0.6604173224373768,-5.990640519456039e-19,-0.03936093783665575,-2.7002649352303546e-19,-0.03936093783665575,2.224784975522623e-19,0.6615892405433564,2.286634372442695e-19,-0.6615892405433564,0.33991626887559545,0.8768773348122232,0.33991626887559534,300.0,122.14285714285735,[1.61299359]
8.710304494411987e-18,0.6256658970342174,5.40256473476759e-20,0.6256658970342174,-1.755952239217368e-18,-0.056732930657464056,5.40256473476759e-20,-0.056732930657464056,-1.0179747839220588e-18,0.6282327913541416,-9.24862549020271e-19,-0.6282327913541415,0.32059820034559544,0.8913100402611489,0.3205982003455954,300.0,122.14285714285735,[1.57283157]
6.967375386758654e-18,0.48142706931630097,-5.14498482792164e-19,0.48142706931630097,-6.718850626078323e-18,-0.09509213500567602,-5.14498482792164e-19,-0.09509213500567602,-4.174998927236845e-18,0.4907285779434698,-3.712449178728126e-18,-0.49072857794347,0.25305344979266176,0.933770797945655,0.2530534497926617,300.0,122.14285714285735,[1.52871694]
6.331412462048286e-18,0.47465923767157037,-1.1466460369271325e-19,0.47465923767157037,-6.7655168475161145e-18,-0.09667701824104744,-1.1466460369271325e-19,-0.09667701824104744,-4.3736016835883764e-18,0.48440462194629813,-4.444406631387821e-18,-0.48440462194629813,0.39015133455149875,0.8340047195881861,0.3901513345514985,300.0,135.00000000000023,[1.53139166]
7.386286118735109e-18,0.6174314156301846,1.3990879113982094e-18,0.6174314156301846,-1.905718252203769e-18,-0.0587402801964649,1.3990879113982094e-18,-0.0587402801964649,-2.2215291926316145e-18,0.6202192947052301,-1.8712936017711175e-18,-0.62021929470523,0.45039806097877816,0.770897641281327,0.4503980609787782,300.0,135.00000000000023,[1.57596578]
6.934817557848568e-18,0.6534374480699013,2.0063592493815645e-18,0.6534374480699013,-8.291393762435533e-19,-0.04116876164897449,2.0063592493815645e-18,-0.04116876164897449,-1.951299212677891e-18,0.6547330490175485,-1.6654337650812006e-18,-0.6547330490175484,0.46757123940792494,0.7501694956188725,0.46757123940792494,300.0,135.00000000000023,[1.59583992]
6.185987492916563e-18,0.6685864046007797,2.368853368449759e-18,0.6685864046007797,-2.7565628477207137e-19,-0.03315753145996371,2.368853368449759e-18,-0.03315753145996371,-2.0619958309721874e-18,0.669408098479183,-1.7996400745579098e-18,-0.669408098479183,0.4746199475211296,0.7412636581069383,0.4746199475211296,300.0,135.00000000000023,[1.60748216]
5.300414546562191e-18,0.6763631414423116,2.63960902168276e-18,0.6763631414423116,1.1503766214897466e-19,-0.02885013044267562,2.63960902168276e-18,-0.02885013044267562,-2.301838503943163e-18,0.6769781600083358,-2.0662280382324242e-18,-0.6769781600083357,0.4782377403369005,0.7365984845456242,0.4782377403369005,300.0,135.00000000000023,[1.60561354]
4.399647946716446e-18,0.6805755063707565,2.865495916949047e-18,0.6805755063707565,4.351896464314985e-19,-0.026375812073461596,2.865495916949047e-18,-0.026375812073461596,-2.6154789224436693e-18,0.6810864139992411,-2.3804435409692947e-18,-0.6810864139992413,0.48026188810310483,0.7339598338269483,0.48026188810310483,300.0,135.00000000000023,[1.6157763]
3.459811952178597e-18,0.6826603434619054,3.0669474833302113e-18,0.6826603434619054,6.999933215668741e-19,-0.024994847297676807,3.0669474833302113e-18,-0.024994847297676807,-2.9649329527452715e-18,0.6831177694416686,-2.7243031163207444e-18,-0.6831177694416688,0.48137050855942426,0.7325058818729597,0.4813705085594243,300.0,135.00000000000023,[1.6157763]
2.478736041021303e-18,0.6832225096470276,3.2505092010133855e-18,0.6832225096470276,9.376654726105105e-19,-0.02438410629900668,3.2505092010133855e-18,-0.02438410629900668,-3.3360922023202657e-18,0.6836575036729899,-3.0948261296574506e-18,-0.6836575036729899,0.48184829377895777,0.7318773418849733,0.48184829377895777,300.0,135.00000000000023,[1.6157763]
1.5041716956460272e-18,0.6824794834739576,3.4180463622798757e-18,0.6824794834739576,1.156888187271764e-18,-0.02441678273682375,3.4180463622798757e-18,-0.02441678273682375,-3.73004193213232e-18,0.6829161183059729,-3.483017388003667e-18,-0.682916118305973,0.4818034624585468,0.7319363682219318,0.4818034624585468,300.0,135.00000000000023,[1.6157763]
4.8402638979662925e-19,0.6803932858033008,3.569321566293879e-18,0.6803932858033008,1.337041507240913e-18,-0.025092842230861147,3.569321566293879e-18,-0.025092842230861147,-4.145696881217766e-18,0.680855839438449,-3.868346279073537e-18,-0.6808558394384491,0.48123288779671464,0.7326867102695868,0.48123288779671475,300.0,135.00000000000023,[1.6157763]
-5.491420476168036e-19,0.676658358163475,3.704843529132117e-18,0.676658358163475,1.4976601298640098e-18,-0.026539023512457387,3.704843529132117e-18,-0.026539023512457387,-4.581971788612934e-18,0.6771785978908991,-4.2894723317209865e-18,-0.6771785978908991,0.4800205859103075,0.734275475693319,0.48002058591030755,300.0,135.00000000000023,[1.6157763]
-1.6224651406860108e-18,0.6705359680745664,3.808214635921644e-18,0.6705359680745664,1.604015704303628e-18,-0.029078392908656117,3.808214635921644e-18,-0.029078392908656117,-5.0432076981725025e-18,0.6711661771989457,-4.70714152219706e-18,-0.6711661771989458,0.4778679237405714,0.737078350597649,0.4778679237405714,300.0,135.00000000000023,[1.60561354]
-2.763074413502731e-18,0.6603330087563051,3.872245032778149e-18,0.6603330087563051,1.6300619674316978e-18,-0.03345062610985273,3.872245032778149e-18,-0.03345062610985273,-5.564132960733897e-18,0.6611797235550221,-5.15608652268229e-18,-0.6611797235550221,0.47406352638571697,0.7419754348369473,0.4740635263857169,300.0,135.00000000000023,[1.60748216]
-4.024147653286774e-18,0.6416232643760286,3.847046629777946e-18,0.6416232643760286,1.4987453908276794e-18,-0.04152644386131521,3.847046629777946e-18,-0.04152644386131521,-6.191413797734911e-18,0.6429656747667929,-5.6654144347975306e-18,-0.6429656747667932,0.4666631859720766,0.751299502007543,0.4666631859720767,300.0,135.00000000000023,[1.57448391]
-5.6954495373379155e-18,0.5988921800631503,3.575460073619635e-18,0.5988921800631503,8.475888126259361e-19,-0.059162380277518904,3.575460073619635e-18,-0.059162380277518904,-7.124738226490742e-18,0.6018073035290401,-6.538054463521326e-18,-0.6018073035290401,0.448424102383454,0.7731957377037117,0.4484241023834539,300.0,135.00000000000023,[1.57596578]
-9.21060979866366e-18,0.4372354135398597,2.4022929718928277e-18,0.4372354135398597,-3.5867874849279365e-18,-0.09716387109856081,2.4022929718928277e-18,-0.09716387109856081,-9.557893307037923e-18,0.4479013559928456,-8.215995215660365e-18,-0.44790135599284553,0.3796277214739363,0.8436620094427714,0.3796277214739363,300.0,135.00000000000023,[1.42589521]
-9.730449800261385e-18,0.4304620305457038,2.500305602674236e-18,0.4304620305457038,-3.569423309509223e-18,-0.09563808362856784,2.500305602674236e-18,-0.09563808362856784,-9.589365874984341e-18,0.4409582778241897,-7.997706446155964e-18,-0.44095827782418995,0.5028792094178631,0.7030113807546289,0.5028792094178633,300.0,147.8571428571427,[1.40241496]
-6.5734256569466e-18,0.5906383854814875,3.7408267129587864e-18,0.5906383854814875,9.148749923734495e-19,-0.057343881745848264,3.7408267129587864e-18,-0.057343881745848264,-7.820933134684773e-18,0.5934155569058331,-7.197368256244177e-18,-0.5934155569058329,0.5595685086673327,0.6113641862389669,0.5595685086673327,300.0,147.8571428571427,[1.49320084]
-5.324290287762922e-18,0.634610477894905,4.083294375806766e-18,0.634610477894905,1.611612531049315e-18,-0.04003602756571717,4.083294375806766e-18,-0.04003602756571717,-7.526827413530319e-18,0.6358721114793784,-6.989238961977791e-18,-0.6358721114793783,0.5738498235782574,0.5842882507447895,0.5738498235782572,300.0,147.8571428571427,[1.43067872]
-4.514685608865421e-18,0.6534208189290581,4.1879203155855355e-18,0.6534208189290581,1.8085873959553423e-18,-0.0320280994787164,4.1879203155855355e-18,-0.0320280994787164,-7.504579563775093e-18,0.6542052932880773,-7.086046800848196e-18,-0.6542052932880775,0.5795885847320834,0.5728474010559188,0.5795885847320834,300.0,147.8571428571427,[1.42805097]
-3.826630157898912e-18,0.6631957303130767,4.203995743609891e-18,0.6631957303130767,1.822153158001212e-18,-0.027603305193273888,4.203995743609891e-18,-0.027603305193273888,-7.576749417859119e-18,0.6637699293905142,-7.222414552742218e-18,-0.6637699293905142,0.5825618247634012,0.5667834160035669,0.5825618247634011,300.0,147.8571428571427,[1.42805097]
-3.22322506209863e-18,0.6685853031505407,4.175812872959597e-18,0.6685853031505407,1.7673474793358985e-18,-0.024942052411585938,4.175812872959597e-18,-0.024942052411585938,-7.695585493380937e-18,0.6690503819350249,-7.379813114048291e-18,-0.6690503819350249,0.5842834460803839,0.5632279372268943,0.5842834460803839,300.0,147.8571428571427,[1.42805097]
-2.679509319300174e-18,0.6713599632375533,4.125958697441026e-18,0.6713599632375533,1.6609919048962806e-18,-0.023322321889403055,4.125958697441026e-18,-0.023322321889403055,-7.835584157694312e-18,0.6717649372635056,-7.540438478145594e-18,-0.6717649372635055,0.5853024562337941,0.5611078946632062,0.5853024562337938,300.0,147.8571428571427,[1.42805097]
-2.1379640984290574e-18,0.6722713325785306,4.066031943603397e-18,0.6722713325785306,1.5193653491374012e-18,-0.02242399038124644,4.066031943603397e-18,-0.02242399038124644,-7.993489627908235e-18,0.6726452110522542,-7.720457562663189e-18,-0.6726452110522539,0.5858501270026661,0.5599636214808245,0.585850127002666,300.0,147.8571428571427,[1.42805097]
-1.6430850989957327e-18,0.671596205243631,3.979414552940519e-18,0.671596205243631,1.3609172484416437e-18,-0.022113751821175816,3.979414552940519e-18,-0.022113751821175816,-8.167131382095366e-18,0.6719601780740088,-7.89957455851827e-18,-0.6719601780740088,0.5860195183828251,0.55960901364142,0.586019518382825,300.0,147.8571428571427,[1.42856572]
-1.1731671017268077e-18,0.6693003132554038,3.8869299701928026e-18,0.6693003132554038,1.1742523626904772e-18,-0.022375147544149925,3.8869299701928026e-18,-0.022375147544149925,-8.355424159292037e-18,0.6696742167288539,-8.083893110314567e-18,-0.6696742167288539,0.5858204266166468,0.5600257632621736,0.5858204266166469,300.0,147.8571428571427,[1.42805097]
-7.3580693336797e-19,0.665027405427799,3.771960136854057e-18,0.665027405427799,9.46347560319867e-19,-0.023303307305903576,3.771960136854057e-18,-0.023303307305903576,-8.559453220461917e-18,0.6654355672049875,-8.284822720858916e-18,-0.6654355672049874,0.585182673296414,0.5613577092615052,0.585182673296414,300.0,147.8571428571427,[1.42805097]
-3.3860142066490656e-19,0.6579051422058377,3.643254969443869e-18,0.6579051422058377,6.880554509665088e-19,-0.025160309581181962,3.643254969443869e-18,-0.025160309581181962,-8.782474348496014e-18,0.6583860701132007,-8.489508060891221e-18,-0.6583860701132007,0.5839104104733964,0.564001121525108,0.5839104104733964,300.0,147.8571428571427,[1.42805097]
-4.341043854678289e-20,0.6459321121333313,3.4715802507533884e-18,0.6459321121333313,3.60306639938298e-19,-0.028557031099502597,3.4715802507533884e-18,-0.028557031099502597,-9.038053305440198e-18,0.6465630653774188,-8.711408447925636e-18,-0.6465630653774188,0.5815242109770075,0.5689105238041726,0.5815242109770076,300.0,147.8571428571427,[1.42283245]
1.1069661829429638e-19,0.6239009867425603,3.2274304483328497e-18,0.6239009867425603,-1.4813812154089662e-19,-0.0350448219509812,3.2274304483328497e-18,-0.0350448219509812,-9.365802116468409e-18,0.6248844539624235,-8.979581412811685e-18,-0.6248844539624238,0.5766838521286636,0.5786808009499635,0.5766838521286636,300.0,147.8571428571427,[1.42283245]
-2.4852476068033206e-19,0.5738566123565262,2.782541282038554e-18,0.5738566123565262,-1.185104972327173e-18,-0.04945992463790913,2.782541282038554e-18,-0.04945992463790913,-9.893238944811821e-18,0.5759841106232846,-9.396592586003524e-18,-0.5759841106232847,0.5642082254419017,0.6027753783022332,0.5642082254419019,300.0,147.8571428571427,[1.44983124]
-2.849895290596297e-18,0.39665174159430766,1.5979111113829867e-18,0.39665174159430766,-5.991183149937874e-18,-0.07958616086967919,1.5979111113829867e-18,-0.07958616086967919,-1.154392087055324e-17,0.40455724083468336,-1.0415878445546909e-17,-0.4045572408346831,0.5130163862916511,0.6882066366960661,0.513016386291651,300.0,147.8571428571427,[1.3601813]
-2.489588650657999e-18,0.3912115137569778,1.888218419164597e-18,0.3912115137569778,-6.123584987505562e-18,-0.07526009020991266,1.888218419164597e-18,-0.07526009020991266,-1.0877570638860123e-17,0.3983849014137339,-9.272013160271606e-18,-0.39838490141373345,0.6112892812682869,0.5026438393266177,0.6112892812682869,300.0,160.7142857142859,[1.29818758]
1.3164215489311912e-18,0.5672109655338695,3.2575464400746804e-18,0.5672109655338695,-1.5752562887663844e-18,-0.04420010924367187,3.2575464400746804e-18,-0.04420010924367187,-8.36139309459222e-18,0.5689305134012563,-7.726887569890074e-18,-0.5689305134012564,0.6472651800232954,0.4026109455278419,0.6472651800232954,300.0,160.7142857142859,[0.94857015]
2.854236334450975e-18,0.618232450712347,3.914400638335689e-18,0.618232450712347,-8.063488960064923e-19,-0.03059156572708362,3.914400638335689e-18,-0.03059156572708362,-6.945670167485263e-18,0.6189888585487053,-6.5345301342747504e-18,-0.6189888585487053,0.6550686025769162,0.3765239060615576,0.6550686025769162,300.0,160.7142857142859,[0.9555752]
3.867870074518356e-18,0.6403260503156571,4.389066652320668e-18,0.6403260503156571,-5.621651791808385e-19,-0.024181146938142835,4.389066652320668e-18,-0.024181146938142835,-5.713898973720298e-18,0.6407824736836156,-5.3693690270999195e-18,-0.6407824736836155,0.6581377285697596,0.3656630422480172,0.6581377285697596,300.0,160.7142857142859,[0.9555752]
4.701350494616587e-18,0.6519374055190166,4.800651872792353e-18,0.6519374055190166,-4.883674336513075e-19,-0.020523969542209013,4.800651872792353e-18,-0.020523969542209013,-4.532049784284134e-18,0.6522603882197934,-4.2181879074417306e-18,-0.6522603882197936,0.6597471806950235,0.3598156682663166,0.6597471806950235,300.0,160.7142857142859,[0.94846883]
5.445839515693914e-18,0.6584532938661103,5.175338220499273e-18,0.6584532938661103,-4.775148240146118e-19,-0.0182119467040122,5.175338220499273e-18,-0.0182119467040122,-3.383843684721727e-18,0.6587051048882802,-3.0889095642771787e-18,-0.65870510488828,0.6607141496148211,0.35624938596091327,0.6607141496148212,300.0,160.7142857142859,[0.94846883]
6.1469180982244576e-18,0.661937056253329,5.529777668352732e-18,0.661937056253329,-5.168555339476338e-19,-0.016683729168799153,5.529777668352732e-18,-0.016683729168799153,-2.2492033472051886e-18,0.66214727460007,-1.9669000996337143e-18,-0.66214727460007,0.6613299767521035,0.35395666923809255,0.6613299767521034,300.0,160.7142857142859,[0.94846883]
6.791563110644184e-18,0.6632712991481878,5.876823775891193e-18,0.6632712991481878,-5.865835508634038e-19,-0.01568555673766144,5.876823775891193e-18,-0.01568555673766144,-1.1302992936618596e-18,0.6634567453601594,-8.477811167079579e-19,-0.6634567453601594,0.6617182948859505,0.3525021935058849,0.6617182948859506,300.0,160.7142857142859,[0.94846883]
7.417758686681527e-18,0.6627891420741343,6.2054882758575006e-18,0.6627891420741343,-6.929391253030219e-19,-0.01510397554435422,6.2054882758575006e-18,-0.01510397554435422,-1.5193653491374012e-20,0.6629612182689204,2.6896477343339163e-19,-0.6629612182689204,0.6619323632018853,0.3516974453872743,0.6619323632018852,300.0,160.7142857142859,[0.94906304]
8.002714346099426e-18,0.6604668562698487,6.538934706944977e-18,0.6604668562698487,-8.104186246202532e-19,-0.01490930862104472,6.538934706944977e-18,-0.01490930862104472,1.0920438446925071e-18,0.6606351154113249,1.3921017165084949e-18,-0.6606351154113248,0.6619856924046194,0.3514966373994966,0.6619856924046194,300.0,160.7142857142859,[0.94906304]
8.55077113275256e-18,0.6559163071446443,6.848030595160117e-18,0.6559163071446443,-9.80804595916376e-19,-0.015146178683075238,6.848030595160117e-18,-0.015146178683075238,2.1892426789624447e-18,0.6560911588392023,2.5058459120629925e-18,-0.6560911588392023,0.6618569889698923,0.3519810396930729,0.6618569889698923,300.0,160.7142857142859,[0.94906304]
9.058130633268085e-18,0.6481713203096534,7.154752475017229e-18,0.6481713203096534,-1.1796786675088251e-18,-0.015963709810224602,7.154752475017229e-18,-0.015963709810224602,3.270162598777339e-18,0.6483678743605856,3.6261666012455966e-18,-0.6483678743605857,0.6614738323550046,0.3534186444136284,0.6614738323550047,300.0,160.7142857142859,[0.94846883]
9.452622993561975e-18,0.6350086788891521,7.427475163746881e-18,0.6350086788891521,-1.4455676036078703e-18,-0.01772292765268661,7.427475163746881e-18,-0.01772292765268661,4.336974126064528e-18,0.6352559519037414,4.752234652400433e-18,-0.6352559519037414,0.6606509329310336,0.3564837859352228,0.6606509329310337,300.0,160.7142857142859,[0.94846883]
9.652311010877176e-18,0.610655953596119,7.662925921255506e-18,0.610655953596119,-1.914671655154043e-18,-0.021348486038948327,7.662925921255506e-18,-0.021348486038948327,5.356305486191174e-18,0.611029010373927,5.894496408533142e-18,-0.6110290103739269,0.6588591684103967,0.3630553572158394,0.6588591684103967,300.0,160.7142857142859,[0.95173549]
9.289291218529704e-18,0.5554018660670703,7.772927294244952e-18,0.5554018660670703,-2.86101921547391e-18,-0.02969839708221414,7.772927294244952e-18,-0.02969839708221414,6.257886031759672e-18,0.5561953142737155,7.103487992773822e-18,-0.5561953142737154,0.6540040257148935,0.3802071391983932,0.6540040257148935,300.0,160.7142857142859,[0.95642476]
6.419861230587356e-18,0.3675875663047897,7.466748044869674e-18,0.3675875663047897,-7.614733551587554e-18,-0.0459931296788856,7.466748044869674e-18,-0.0459931296788856,6.28203308820132e-18,0.37045375808532016,8.040136782874431e-18,-0.37045375808532,0.633267316163568,0.4449101173922473,0.633267316163568,300.0,160.7142857142859,[1.25147477]
6.2836609796468244e-18,0.36454646443394717,7.438395602193806e-18,0.36454646443394717,-7.623686954537828e-18,-0.03973127211033359,7.438395602193806e-18,-0.03973127211033359,6.873500313401237e-18,0.36670519319311023,8.319452342009816e-18,-0.36670519319311057,0.6899463091731116,0.21897073073084913,0.6899463091731115,300.0,173.57142857142813,[0.50708195]
9.134098900724955e-18,0.5516472866329536,7.130690204588368e-18,0.5516472866329536,-2.887336793842897e-18,-0.0220619688693925,7.130690204588368e-18,-0.0220619688693925,7.755817476864599e-18,0.5520882713116573,8.328295663914188e-18,-0.5520882713116574,0.6989356450957904,0.15158472228118086,0.6989356450957904,300.0,173.57142857142813,[0.35215526]
9.476498734762705e-18,0.6073993761851981,6.432087373631196e-18,0.6073993761851981,-1.9667641814101824e-18,-0.014852449582729237,6.432087373631196e-18,-0.014852449582729237,7.782135055233586e-18,0.6075809390104131,8.09767244601141e-18,-0.6075809390104132,0.7005153181716033,0.13622253122693906,0.7005153181716033,300.0,173.57142857142813,[0.34746599]
9.236113431309895e-18,0.6317427479649854,5.645612319021902e-18,0.6317427479649854,-1.5588417166908821e-18,-0.011313265784058812,5.645612319021902e-18,-0.011313265784058812,7.693414971453598e-18,0.6318440389756413,7.895286753658677e-18,-0.6318440389756417,0.7011304323241391,0.12973909872482983,0.7011304323241391,300.0,173.57142857142813,[0.34746599]
8.789528544759866e-18,0.6446608881399473,4.818609550300573e-18,0.6446608881399473,-1.3012278954398172e-18,-0.009151774075192071,4.818609550300573e-18,-0.009151774075192071,7.572137058763523e-18,0.6447258453529754,7.70908012409439e-18,-0.6447258453529754,0.7014660312657686,0.12605877185068518,0.7014660312657687,300.0,173.57142857142813,[0.34746599]
8.250696476297923e-18,0.65202582980603,3.9863839631915845e-18,0.65202582980603,-1.1256869345662639e-18,-0.007650252182140394,3.9863839631915845e-18,-0.007650252182140394,7.434580231618405e-18,0.6520707086602593,7.52819967220949e-18,-0.6520707086602592,0.7016834298919635,0.12361524351834523,0.7016834298919634,300.0,173.57142857142813,[0.34746599]
7.642407706161128e-18,0.6560951766537505,3.1392869094398117e-18,0.6560951766537505,-9.978974560941717e-19,-0.006519175564824166,3.1392869094398117e-18,-0.006519175564824166,7.285085533872922e-18,0.6561275641812047,7.347438850874204e-18,-0.6561275641812047,0.7018393292391595,0.12183231043632406,0.7018393292391596,300.0,173.57142857142813,[0.34746599]
6.996677432777733e-18,0.6578408191502919,2.288120127074277e-18,0.6578408191502919,-8.916775392750123e-19,-0.005621382491422995,2.288120127074277e-18,-0.005621382491422995,7.133420314200099e-18,0.6578648366354917,7.172471353682753e-18,-0.6578648366354916,0.7019584831614563,0.12045154974235524,0.7019584831614563,300.0,173.57142857142813,[0.35866854]
6.3037383074747115e-18,0.6576380725382842,1.4284238718224025e-18,0.6576380725382842,-8.342943658209838e-19,-0.004885720018052341,1.4284238718224025e-18,-0.004885720018052341,6.975243528745259e-18,0.6576562207658073,6.996396870845901e-18,-0.6576562207658072,0.7020530928208647,0.11934366225869225,0.7020530928208645,300.0,173.57142857142813,[0.35866854]
5.60862866024435e-18,0.6554784968732033,5.724412439305847e-19,0.6554784968732033,-7.841010462512661e-19,-0.004275151482254288,5.724412439305847e-19,-0.004275151482254288,6.812590041815282e-18,0.6554924383876218,6.820054576826239e-18,-0.6554924383876218,0.7021293416199139,0.11844313096491571,0.7021293416199139,300.0,173.57142857142813,[0.34746599]
4.841349158929962e-18,0.6509671996686645,-2.929695885831125e-19,0.6509671996686645,-7.674151589348463e-19,-0.0037749383694226308,-2.929695885831125e-19,-0.0037749383694226308,6.6412544671759485e-18,0.6509781449512385,6.637801150518045e-18,-0.6509781449512384,0.7021897264122681,0.11772500262105638,0.7021897264122682,300.0,173.57142857142813,[0.34746599]
4.019263978950261e-18,0.6431025224878367,-1.15965221128861e-18,0.6431025224878367,-7.892560358286966e-19,-0.0033917017951604457,-1.15965221128861e-18,-0.0033917017951604457,6.467070082506982e-18,0.6431114662881434,6.454762013910073e-18,-0.6431114662881433,0.7022333315771793,0.11720365200807731,0.702233331577179,300.0,173.57142857142813,[0.34746599]
3.09624952934929e-18,0.6295698589183185,-2.0303536910001964e-18,0.6295698589183185,-9.029371217730842e-19,-0.003165101700043885,-2.0303536910001964e-18,-0.003165101700043885,6.268602983775909e-18,0.6295778149896989,6.2481262236546425e-18,-0.6295778149896989,0.7022537438048811,0.11695879028126317,0.702253743804881,300.0,173.57142857142813,[0.34746599]
1.958896039423578e-18,0.6043595929799835,-2.9025982761445005e-18,0.6043595929799835,-1.1829344503998338e-18,-0.003209951541555286,-2.9025982761445005e-18,-0.003209951541555286,6.046667116705481e-18,0.6043681174713227,6.015712795761529e-18,-0.6043681174713228,0.702230234969618,0.1172407531067171,0.702230234969618,300.0,173.57142857142813,[0.34746599]
2.36044259598132e-19,0.5470365867912845,-3.797650298728423e-18,0.5470365867912845,-1.9628301104168802e-18,-0.0038399685482493865,-3.797650298728423e-18,-0.0038399685482493865,5.7271934205252505e-18,0.547050064113615,5.6735847470004825e-18,-0.547050064113615,0.7020875985952761,0.11893699087095104,0.7020875985952761,300.0,173.57142857142813,[0.35551288]
-4.117751411403275e-18,0.3556591048712067,-4.704419748279465e-18,0.3556591048712067,-6.54012171112399e-18,-0.0030744239934327507,-4.704419748279465e-18,-0.0030744239934327507,4.638541016344211e-18,0.35567239274461493,4.556522367539417e-18,-0.355672392744615,0.701950039929892,0.1205499186430497,0.701950039929892,300.0,173.57142857142813,[0.31495638]
-4.425151579362681e-18,0.35561470519658134,-4.604202681165603e-18,0.35561470519658134,-6.402632712789101e-18,0.003887045198294291,-4.604202681165603e-18,0.003887045198294291,4.3954425604822265e-18,0.35563594822855726,4.4949845143987455e-18,-0.3556359482285574,0.7017533455901632,0.12281890695664803,0.7017533455901634,300.0,173.57142857142813,[0.31495638]
-7.349929876452178e-19,0.5469036616197621,-4.118853629569502e-18,0.5469036616197621,-1.5349659754901513e-18,0.004672589311421026,-4.118853629569502e-18,0.004672589311421026,4.992064775259574e-18,0.5469236218924691,5.062046263943179e-18,-0.546923621892469,0.7019586097316987,0.12045007450010983,0.7019586097316985,300.0,173.57142857142813,[0.35551288]
3.3507432253298045e-19,0.6041385687154446,-3.610357996482635e-18,0.6041385687154446,-4.543851997264041e-19,0.004061932282953772,-3.610357996482635e-18,0.004061932282953772,4.820322227758864e-18,0.6041522237842188,4.868652136544755e-18,-0.6041522237842188,0.7021124666234129,0.11864302939479658,0.7021124666234129,300.0,173.57142857142813,[0.34746599]
8.025504826336488e-19,0.6292612337990156,-3.0893225121046176e-18,0.6292612337990156,1.0065795438035284e-19,0.0040359134562198504,-3.0893225121046176e-18,0.0040359134562198504,4.5492783020823884e-18,0.6292741763013047,4.588751361537775e-18,-0.6292741763013046,0.7021384201192047,0.11833544686616272,0.7021384201192046,300.0,173.57142857142813,[0.34746599]
1.0621991681915939e-18,0.642706864580122,-2.558952087718786e-18,0.642706864580122,5.041715464347457e-19,0.004280832263863632,-2.558952087718786e-18,0.004280832263863632,4.257207445234815e-18,0.6427211209407102,4.291188542148186e-18,-0.6427211209407102,0.7021177403360566,0.11858059457930176,0.7021177403360565,300.0,173.57142857142813,[0.34746599]
1.2192906926827645e-18,0.650485144786211,-2.0295058308723296e-18,0.650485144786211,8.288680610026359e-19,0.0046818720206675876,-2.0295058308723296e-18,0.0046818720206675876,3.949264646793574e-18,0.6505019934736217,3.978320763649766e-18,-0.6505019934736217,0.702072624516351,0.11911364241532482,0.7020726245163509,300.0,173.57142857142813,[0.34746599]
1.3373128224818305e-18,0.6549107464367009,-1.4929290703505127e-18,0.6549107464367009,1.1009294188325518e-18,0.005199366058886864,-1.4929290703505127e-18,0.005199366058886864,3.625110762707518e-18,0.6549313851127394,3.648582772992998e-18,-0.6549313851127393,0.7020099783305301,0.11984982540136738,0.70200997833053,300.0,173.57142857142813,[0.34746599]
1.403242426024757e-18,0.6569853913929843,-9.548261615985356e-19,0.6569853913929843,1.342467812059261e-18,0.005826686862304445,-9.548261615985356e-19,0.005826686862304445,3.296005375474721e-18,0.6570112288108813,3.312882049131727e-18,-0.6570112288108814,0.7019308850287886,0.12077278371140993,0.7019308850287888,300.0,173.57142857142813,[0.35866854]
1.4140950356614527e-18,0.6571040333572228,-4.142983728808593e-19,0.6571040333572228,1.5649463096115235e-18,0.0065785680939504515,-4.142983728808593e-19,0.0065785680939504515,2.9681887356362803e-18,0.6571369630545043,2.9761339736199677e-18,-0.657136963054504,0.7018328555727305,0.1219068729697158,0.7018328555727303,300.0,173.57142857142813,[0.35866854]
1.4035137412656744e-18,0.6552751712795997,1.2833210895392693e-19,0.6552751712795997,1.757715788283331e-18,0.00749204363210175,1.2833210895392693e-19,0.00749204363210175,2.626331532080365e-18,0.6553179997629347,2.623395738882868e-18,-0.6553179997629347,0.7017095843871848,0.12331795634995237,0.7017095843871848,300.0,173.57142857142813,[0.34746599]
1.3440957035047653e-18,0.6511235467432945,6.789663903957762e-19,0.6511235467432945,1.9085670622334016e-18,0.008638266051657942,6.789663903957762e-19,0.008638266051657942,2.28861188594844e-18,0.6511808448994386,2.270306947123595e-18,-0.6511808448994386,0.701548570229835,0.12513675406110716,0.7015485702298347,300.0,173.57142857142813,[0.34746599]
1.238282759546982e-18,0.6436773240258674,1.2344758675728598e-18,0.6436773240258674,2.018721050045863e-18,0.010154399606730669,1.2344758675728598e-18,0.010154399606730669,1.9297974798351876e-18,0.6437574149448492,1.8905307897313906e-18,-0.6437574149448491,0.7013244104303593,0.12762500800790447,0.7013244104303591,300.0,173.57142857142813,[0.34746599]
1.032625806931598e-18,0.6306789523717841,1.813174319247102e-18,0.6306789523717841,2.063691551227921e-18,0.012329975378722125,1.813174319247102e-18,0.012329975378722125,1.566235057005881e-18,0.6307994683396708,1.4950971525261828e-18,-0.6307994683396708,0.7009788773675936,0.1313667650851491,0.7009788773675936,300.0,173.57142857142813,[0.34746599]
5.979787909819343e-19,0.6062564506704884,2.4185210147401992e-18,0.6062564506704884,1.9316966865216094e-18,0.0158827298356308,2.4185210147401992e-18,0.0158827298356308,1.156684700841076e-18,0.6064644631687911,1.0300583565511378e-18,-0.6064644631687911,0.7003462258236003,0.1379504546903592,0.7003462258236004,300.0,173.57142857142813,[0.34746599]
-3.7427937484554375e-19,0.5504263874532076,3.1253820033427953e-18,0.5504263874532076,1.296038991457272e-18,0.023105344074392502,3.1253820033427953e-18,0.023105344074392502,6.412535719082585e-19,0.5509111225321056,3.771845069412782e-19,-0.5509111225321055,0.6987219419285005,0.1535424883715579,0.6987219419285007,300.0,173.57142857142813,[0.3490207]
-3.905311577764956e-18,0.3632488217617898,4.2093796554218456e-18,0.3632488217617898,-3.144238412586554e-18,0.040787399820479554,4.2093796554218456e-18,0.040787399820479554,-7.29770169257558e-19,0.36553155608708293,-1.5989087741889837e-18,-0.3655315560870829,0.68943836298107,0.22214744495484398,0.6894383629810698,300.0,173.57142857142813,[0.50708195]
-4.380655879852229e-18,0.36621537509787977,4.702359448168749e-18,0.36621537509787977,-3.0984200512766293e-18,0.04707832103561537,4.702359448168749e-18,0.04707832103561537,-1.2701623003547757e-18,0.3692290200805094,-2.6530167028938898e-18,-0.3692290200805094,0.6322010718909806,0.44793259470571045,0.6322010718909807,300.0,160.7142857142859,[1.25114181]
-2.057247814256133e-18,0.5539587751428925,4.038794436995674e-18,0.5539587751428925,1.4458389188487877e-18,0.03083387356692676,4.038794436995674e-18,0.03083387356692676,-7.017568706328372e-19,0.5548162329248806,-1.1410580290698596e-18,-0.5548162329248807,0.6534156972596268,0.38222487248926057,0.6534156972596269,300.0,160.7142857142859,[0.95642476]
-2.2439127000072994e-18,0.6091435001514128,3.787369994678037e-18,0.6091435001514128,2.1926002050687975e-18,0.022533106368407697,3.787369994678037e-18,0.022533106368407697,-9.99321861108988e-19,0.6095601239084821,-1.2795262546369025e-18,-0.6095601239084821,0.658336953859597,0.3649450785607791,0.6583369538595971,300.0,160.7142857142859,[0.95173549]
-2.99423499876435e-18,0.6334284908629257,3.661759516734563e-18,0.6334284908629257,2.4209119803007838e-18,0.01895590945573801,3.661759516734563e-18,0.01895590945573801,-1.4265755367436528e-18,0.633712063590538,-1.6466946556391274e-18,-0.6337120635905379,0.6601418033919156,0.3583651752457805,0.6601418033919156,300.0,160.7142857142859,[0.94846883]
-3.934749281404493e-18,0.6465250494077083,3.578173226028809e-18,0.6465250494077083,2.4871637706922997e-18,0.017244355620840823,3.578173226028809e-18,0.017244355620840823,-1.895001300187532e-18,0.6467549824411232,-2.0847974648952717e-18,-0.6467549824411231,0.660962102226602,0.35532829726941556,0.660962102226602,300.0,160.7142857142859,[0.94846883]
-5.002781727275811e-18,0.6542056107737066,3.523181018135365e-18,0.6542056107737066,2.4696978520582425e-18,0.016473814658412352,3.523181018135365e-18,0.016473814658412352,-2.38642103029916e-18,0.6544129947802062,-2.5641832014179394e-18,-0.6544129947802062,0.6613357299833204,0.3539351699038355,0.6613357299833205,300.0,160.7142857142859,[0.94846883]
-6.116802106482627e-18,0.6586933905438169,3.4751073488853146e-18,0.6586933905438169,2.4170118237125962e-18,0.016283270142614017,3.4751073488853146e-18,0.016283270142614017,-2.880689570440421e-18,0.6588946255909565,-3.05663912572669e-18,-0.6588946255909565,0.6614509228094432,0.35350438954710567,0.6614509228094431,300.0,160.7142857142859,[0.94846883]
-7.2457448239399e-18,0.6609545576799337,3.44119718307128e-18,0.6609545576799337,2.3171678150549956e-18,0.01652360360415539,3.44119718307128e-18,0.01652360360415539,-3.393814519825441e-18,0.6611610672097564,-3.568248417138918e-18,-0.6611610672097564,0.6613811885613506,0.3537652425470176,0.6613811885613506,300.0,160.7142857142859,[0.94846883]
-8.432477687712577e-18,0.6613772383848862,3.4192248878576106e-18,0.6613772383848862,2.201723180044645e-18,0.01715019765751327,3.4192248878576106e-18,0.01715019765751327,-3.910161337696354e-18,0.6615995622227318,-4.0925282033323725e-18,-0.6615995622227318,0.6611480558278214,0.3546357237366021,0.6611480558278214,300.0,160.7142857142859,[0.94846883]
-9.647969967022498e-18,0.6599851508319585,3.405455639381053e-18,0.6599851508319585,2.074154145205798e-18,0.018192735661129927,3.405455639381053e-18,0.018192735661129927,-4.44190529548933e-18,0.6602358479736756,-4.633028314498288e-18,-0.6602358479736757,0.6607376330602338,0.35616226711418975,0.6607376330602338,300.0,160.7142857142859,[0.94846883]
-1.0918132267377274e-17,0.6564451634243385,3.4007584942726706e-18,0.6564451634243385,1.8973922657481165e-18,0.01976467981098171,3.4007584942726706e-18,0.01976467981098171,-4.977922468326755e-18,0.656742639967314,-5.187827029568142e-18,-0.656742639967314,0.6600955206676407,0.3585356428432635,0.6600955206676407,300.0,160.7142857142859,[0.94846883]
-1.2218071415422733e-17,0.6498746571097745,3.416325206220306e-18,0.6498746571097745,1.6733028339529073e-18,0.022119801826831226,3.416325206220306e-18,0.022119801826831226,-5.526962772728214e-18,0.6502509942986672,-5.768695546391309e-18,-0.6502509942986673,0.6590955318097644,0.3621963002251784,0.6590955318097644,300.0,160.7142857142859,[0.9555752]
-1.359655632571378e-17,0.6382102797612318,3.4687950302333462e-18,0.6382102797612318,1.3906771389297702e-18,0.02581946873736224,3.4687950302333462e-18,0.02581946873736224,-6.109815739029004e-18,0.6387323431287864,-6.395035374548359e-18,-0.6387323431287864,0.65744029946245,0.36816369360034484,0.65744029946245,300.0,160.7142857142859,[0.9555752]
-1.5185174890095344e-17,0.6160652491418714,3.585257097397137e-18,0.6160652491418714,9.117379099003421e-19,0.03227180133310068,3.585257097397137e-18,0.03227180133310068,-6.754918595917779e-18,0.6169099288887474,-7.155042777325209e-18,-0.6169099288887475,0.6542953741106293,0.37920327904023127,0.6542953741106292,300.0,160.7142857142859,[0.9555752]
-1.7260126023821337e-17,0.5649939471579081,3.888782544572192e-18,0.5649939471579081,-6.597199654931986e-20,0.04592177635722201,3.888782544572192e-18,0.04592177635722201,-7.564167173561575e-18,0.5668570982786364,-8.244311610375392e-18,-0.5668570982786365,0.6463130361386306,0.4056586232715021,0.6463130361386304,300.0,160.7142857142859,[0.95233413]
-2.1625995223043567e-17,0.3889464386674057,4.896074290883128e-18,0.3889464386674057,-4.829114537284843e-18,0.07702305591513121,4.896074290883128e-18,0.07702305591513121,-9.485553880928323e-18,0.3964995375716895,-1.1470060866260534e-17,-0.396499537571689,0.6093447758024604,0.5073439547333726,0.6093447758024604,300.0,160.7142857142859,[1.29909778]
-2.1939771299164533e-17,0.3943421982061173,5.0110441242218734e-18,0.3943421982061173,-4.8897111006234874e-18,0.08140229501444057,5.0110441242218734e-18,0.08140229501444057,-1.0477346744101854e-17,0.4026563086798103,-1.2821069281974718e-17,-0.40265630867981045,0.5103073595946642,0.6922230836132558,0.5103073595946641,300.0,147.85714285714295,[1.3601813]
-1.8716139264204527e-17,0.5715103180864964,3.840721593224059e-18,0.5715103180864964,-2.3640036085183606e-19,0.05135020141820025,3.840721593224059e-18,0.05135020141820025,-1.0042988000595665e-17,0.5738125886254306,-1.0839723437883135e-17,-0.5738125886254307,0.5626559384268615,0.6056703640644604,0.5626559384268611,300.0,147.85714285714295,[1.44666591]
-1.7729501390608427e-17,0.6215187926859893,3.3978990859914396e-18,0.6215187926859893,5.999797408837001e-19,0.03700802015233179,3.3978990859914396e-18,0.03700802015233179,-1.0742065633224443e-17,0.6226196296435287,-1.1137032209734242e-17,-0.6226196296435288,0.5753045956423198,0.5814200241354385,0.5753045956423201,300.0,147.85714285714295,[1.42283245]
-1.7233130157350056e-17,0.6435151035512217,3.158139079382931e-18,0.6435151035512217,9.350879778217952e-19,0.030592475877175587,3.158139079382931e-18,0.030592475877175587,-1.1644171852072217e-17,0.6442418707898723,-1.1963264063146495e-17,-0.6442418707898725,0.5801846012990037,0.5716394465316684,0.5801846012990036,300.0,147.85714285714295,[1.42283245]
-1.6906466607285515e-17,0.6554544421463235,2.9940675463890963e-18,0.6554544421463235,1.1062539804355556e-18,0.02726745961776426,2.9940675463890963e-18,0.02726745961776426,-1.2612377246488493e-17,0.6560213716666206,-1.286612581356437e-17,-0.6560213716666206,0.582570150578706,0.5667663004355569,0.582570150578706,300.0,147.85714285714295,[1.42805097]
-1.666757353765775e-17,0.6625441312825978,2.8659431631664968e-18,0.6625441312825978,1.2015237837033146e-18,0.025481658654778198,2.8659431631664968e-18,0.025481658654778198,-1.3617142369618387e-17,0.6630339665694441,-1.3856447916150667e-17,-0.6630339665694442,0.5838238814046044,0.5641802469099082,0.5838238814046044,300.0,147.85714285714295,[1.42805097]
-1.6475889319949612e-17,0.6667855673451131,2.7571796659637368e-18,0.6667855673451131,1.2404405635724031e-18,0.02462420731724481,2.7571796659637368e-18,0.02462420731724481,-1.4637592905113815e-17,0.6672400950225843,-1.484139831524825e-17,-0.6672400950225845,0.5844329414839841,0.5629176439025128,0.5844329414839842,300.0,147.85714285714295,[1.42805097]
-1.6304757231740966e-17,0.6690510735303772,2.675683350473175e-18,0.6690510735303772,1.2433402452097078e-18,0.024433028024006608,2.675683350473175e-18,0.024433028024006608,-1.5676374176573727e-17,0.6694970588811964,-1.587060869927382e-17,-0.6694970588811961,0.5845961866733876,0.5625785252334714,0.5845961866733875,300.0,147.85714285714295,[1.42805097]
-1.616611514363218e-17,0.6696968861600862,2.5917070441086024e-18,0.6696968861600862,1.236570082088691e-18,0.024812986834299087,2.5917070441086024e-18,0.024812986834299087,-1.672642350913299e-17,0.6701564023779482,-1.691073511569112e-17,-0.6701564023779484,0.5843847021163139,0.5630177971120045,0.5843847021163139,300.0,147.85714285714295,[1.42805097]
-1.605765687607545e-17,0.668757261200381,2.535131457426367e-18,0.668757261200381,1.194109246885119e-18,0.02578053529945286,2.535131457426367e-18,0.02578053529945286,-1.779506641429637e-17,0.669253995437129,-1.7969962377460273e-17,-0.6692539954371289,0.5837881891155685,0.5642541098639252,0.5837881891155685,300.0,147.85714285714295,[1.42805097]
-1.5981654694213466e-17,0.6659553965359091,2.4889612341633774e-18,0.6659553965359091,1.1309733424635137e-18,0.027468970909829023,2.4889612341633774e-18,0.027468970909829023,-1.8872035305915405e-17,0.666521668468584,-1.9070483203402088e-17,-0.6665216684685838,0.5827114949982872,0.5664756192403362,0.5827114949982872,300.0,147.85714285714295,[1.42805097]
-1.5952895278676222e-17,0.6605396676738936,2.4715377085357136e-18,0.6605396676738936,1.0145324718029194e-18,0.030198408870734005,2.4715377085357136e-18,0.030198408870734005,-1.9984266700252422e-17,0.6612296094920899,-2.0197059066886282e-17,-0.6612296094920899,0.5809184572882597,0.5701469038446644,0.5809184572882597,300.0,147.85714285714295,[1.42805097]
-1.5992405560634818e-17,0.6507396555351606,2.49098126091802e-18,0.6507396555351606,8.222547520052745e-19,0.03469086545977652,2.49098126091802e-18,0.03469086545977652,-2.1139391338458223e-17,0.6516636827631013,-2.138470180305988e-17,-0.6516636827631013,0.5778485285622964,0.5763524582031189,0.5778485285622966,300.0,147.85714285714295,[1.42283245]
-1.6174424172885274e-17,0.6319052962285634,2.609710294098695e-18,0.6319052962285634,4.76895886121269e-19,0.042765949236461945,2.609710294098695e-18,0.042765949236461945,-2.238635618571456e-17,0.6333507952278926,-2.2707562185129453e-17,-0.6333507952278927,0.57195544290809,0.5879914477742185,0.5719554429080901,300.0,147.85714285714295,[1.43155229]
-1.6774471742579203e-17,0.5879103641427796,2.9523899219786413e-18,0.5879103641427796,-4.02405014937207e-19,0.06014054876736376,2.9523899219786413e-18,0.06014054876736376,-2.390561979163662e-17,0.5909784106653435,-2.4582063607877505e-17,-0.5909784106653435,0.5573320503086688,0.615436407273303,0.5573320503086688,300.0,147.85714285714295,[1.49320084]
-1.9294040727358574e-17,0.4277127324154142,4.1959442518706355e-18,0.4277127324154142,-5.057335167553084e-18,0.09850153696276336,4.1959442518706355e-18,0.09850153696276336,-2.690070265052884e-17,0.4389085716345563,-2.8838451757260876e-17,-0.4389085716345564,0.4990229200825876,0.7084858858611758,0.4990229200825877,300.0,147.85714285714295,[1.40241496]
-1.8441110395927077e-17,0.43446723995102016,4.0859259216786326e-18,0.43446723995102016,-5.0556246097451126e-18,0.10010301517987795,4.0859259216786326e-18,0.10010301517987795,-2.6653797302692732e-17,0.44585019483988153,-2.7681709782576506e-17,-0.44585019483988136,0.3749737340489656,0.8478144829777038,0.3749737340489655,300.0,134.9999999999996,[1.41814818]
-1.4835890431819315e-17,0.5961164270836239,2.48232248936218e-18,0.5961164270836239,-3.8953661784650782e-19,0.062197565874819664,2.48232248936218e-18,0.062197565874819664,-2.2562321076652048e-17,0.5993524270741697,-2.31649186441724e-17,-0.5993524270741695,0.44541311346247964,0.7766687303550468,0.44541311346247964,300.0,134.9999999999996,[1.57596578]
-1.3113784768906393e-17,0.6388402097866219,1.7793113156526797e-18,0.6388402097866219,5.020158620596442e-19,0.0446564007819986,1.7793113156526797e-18,0.0446564007819986,-1.997447391577556e-17,0.6403991003827358,-2.0179365425066247e-17,-0.6403991003827358,0.46391680488737647,0.7546935777427655,0.46391680488737647,300.0,134.9999999999996,[1.57703336]
-1.1777201106134527e-17,0.6575434492368826,1.3149160672916476e-18,0.6575434492368826,8.551496053161887e-19,0.03667465529492616,1.3149160672916476e-18,0.03667465529492616,-1.7694175298380854e-17,0.6585654242179275,-1.7851591999741086e-17,-0.6585654242179274,0.4713797377680874,0.7453873393366556,0.4713797377680872,300.0,134.9999999999996,[1.59829]
-1.0570865716205568e-17,0.66774084417531,9.513176104069066e-19,0.66774084417531,1.0596057760254812e-18,0.032395887928628936,9.513176104069066e-19,0.032395887928628936,-1.5518341527340624e-17,0.6685262362350786,-1.559751462359251e-17,-0.6685262362350788,0.47518326268295114,0.740541513847786,0.4751832626829514,300.0,134.9999999999996,[1.60748216]
-9.429086396412391e-18,0.6738586705325488,6.255268263614882e-19,0.6738586705325488,1.1870105379645537e-18,0.02994935780799817,6.255268263614882e-19,0.02994935780799817,-1.3397449092586167e-17,0.6745238853332074,-1.3461230115746787e-17,-0.6745238853332074,0.477306531855771,0.7378054955715849,0.4773065318557708,300.0,134.9999999999996,[1.60748216]
-8.313879013026561e-18,0.6775900755857025,3.3051548460795636e-19,0.6775900755857025,1.2593372461722356e-18,0.02859533740797552,3.3051548460795636e-19,0.02859533740797552,-1.1306155454895539e-17,0.6781931906571417,-1.1324915155314574e-17,-0.6781931906571415,0.47847335178112915,0.7362924033769898,0.4784733517811292,300.0,134.9999999999996,[1.6157763]
-7.255664787435942e-18,0.6796738274935659,5.461755969944294e-20,0.6796738274935659,1.3050740009448532e-18,0.028010695967988417,5.461755969944294e-20,0.028010695967988417,-9.237236845979319e-18,0.6802507705753553,-9.245904356974126e-18,-0.6802507705753554,0.47898742619166496,0.73562360694894,0.47898742619166507,300.0,134.9999999999996,[1.6157763]
-6.1920072998244176e-18,0.6804155201728177,-2.1138318795396474e-19,0.6804155201728177,1.3270706721371989e-18,0.028068624057322026,-2.1138318795396474e-19,0.028068624057322026,-7.185839266605467e-18,0.6809942200551468,-7.169839694826212e-18,-0.6809942200551469,0.47896654399112515,0.7356507999549755,0.4789665439911252,300.0,134.9999999999996,[1.6157763]
-5.147324921874552e-18,0.6798531698975503,-4.6033346843596995e-19,0.6798531698975503,1.3124376661553768e-18,0.02876908200173009,-4.6033346843596995e-19,0.02876908200173009,-5.160492189660324e-18,0.6804616026631993,-5.11977173061376e-18,-0.6804616026631992,0.47841353968217604,0.7363701311823708,0.47841353968217604,300.0,134.9999999999996,[1.6157763]
-4.1520049605690956e-18,0.6777693383614998,-6.925941522134961e-19,0.6777693383614998,1.2792185063455535e-18,0.03023880080283803,-6.925941522134961e-19,0.03023880080283803,-3.156854571289213e-18,0.678443557782797,-3.104789852864203e-18,-0.678443557782797,0.47721769197340014,0.7379204218173949,0.4772176919734002,300.0,134.9999999999996,[1.61764492]
-3.1583468051142585e-18,0.6735592142296636,-8.947452032001506e-19,0.6735592142296636,1.2038045274472764e-18,0.032800836223616146,-8.947452032001506e-19,0.032800836223616146,-1.1974498157889143e-18,0.6743574051870791,-1.1305817457866464e-18,-0.6743574051870791,0.4750881157954249,0.7406635973638142,0.4750881157954248,300.0,134.9999999999996,[1.60748216]
-2.217298370593559e-18,0.6657860100535521,-1.0543580517465653e-18,0.6657860100535521,1.0425160953231649e-18,0.03719484977640902,-1.0543580517465653e-18,0.03719484977640902,7.017144776264439e-19,0.6668241657535505,7.9890369475768025e-19,-0.6668241657535503,0.4713320186640157,0.7454476885497786,0.47133201866401553,300.0,134.9999999999996,[1.59829]
-1.4081176217599914e-18,0.6506419641794593,-1.1210242337755761e-18,0.6506419641794593,7.140900560178204e-19,0.045291542337460855,-1.1210242337755761e-18,0.045291542337460855,2.471866254335262e-18,0.6522164436432208,2.5658374613125468e-18,-0.6522164436432206,0.4640717262973023,0.75450305877636,0.4640717262973023,300.0,134.9999999999996,[1.57703336]
-8.762210491439996e-19,0.6146424164230031,-9.476169659050577e-19,0.6146424164230031,-1.1342460825570798e-19,0.06294741411430017,-9.476169659050577e-19,0.06294741411430017,3.853890980660151e-18,0.6178573273903821,4.002520308210802e-18,-0.6178573273903819,0.4464582500290714,0.7754676408219481,0.4464582500290714,300.0,134.9999999999996,[1.57596578]
-1.864249413349801e-18,0.47187896826697295,1.353783565290804e-19,0.47187896826697295,-4.760252397524657e-18,0.10096781574103436,1.353783565290804e-19,0.10096781574103436,3.3540710763316823e-18,0.48256011077193134,2.438972169278627e-18,-0.482560110771931,0.3843160098050827,0.8394059859299308,0.38431600980508274,300.0,134.9999999999996,[1.53215852]
-1.5791394881520146e-18,0.4786556115397436,-3.7232638203226045e-19,0.4786556115397436,-4.764485339213033e-18,0.09947341417003396,-3.7232638203226045e-19,0.09947341417003396,3.647956353852891e-18,0.488882557047323,3.681600176714918e-18,-0.48888255704732264,0.24651063307076265,0.9372646454263084,0.24651063307076276,300.0,122.14285714285755,[1.53096383]
-6.302653046511041e-19,0.62291741994093,-2.3273302135563497e-18,0.62291741994093,-1.4172088019810437e-19,0.06122287421643827,-2.3273302135563497e-18,0.06122287421643827,5.341944855275429e-18,0.6259188065501678,5.8449668773362384e-18,-0.6259188065501678,0.3158366144270557,0.8947035631842039,0.3158366144270558,300.0,122.14285714285755,[1.57789285]
-1.1318339204932986e-18,0.6576922235160634,-3.3837387620309033e-18,0.6576922235160634,6.743556210379202e-19,0.0439573263785915,-3.3837387620309033e-18,0.0439573263785915,5.1251936528869076e-18,0.6591595462525422,5.53062880701699e-18,-0.6591595462525425,0.3354389474148312,0.8803189337475711,0.3354389474148312,300.0,122.14285714285755,[1.61299359]
-1.929687258018565e-18,0.6727513950434888,-4.207232449648023e-18,0.6727513950434888,9.994829545332828e-19,0.03599035687813064,-4.207232449648023e-18,0.03599035687813064,4.493734985105831e-18,0.6737133999863556,4.895576258928339e-18,-0.6737133999863556,0.34368192241332446,0.8739367668273051,0.34368192241332457,300.0,122.14285714285755,[1.61299359]
-2.820321929336301e-18,0.6809681177504647,-4.943371108291021e-18,0.6809681177504647,1.139434721583335e-18,0.031605131667142204,-4.943371108291021e-18,0.031605131667142204,3.7122283908458374e-18,0.6817011528084045,4.16885607735643e-18,-0.6817011528084049,0.34804080449534475,0.8704798658283065,0.3480408044953448,300.0,122.14285714285755,[1.63137598]
-3.739181864310725e-18,0.6859263712680302,-5.629342148124427e-18,0.6859263712680302,1.2150821269730654e-18,0.0289820041974713,-5.629342148124427e-18,0.0289820041974713,2.859910638356724e-18,0.6865383771998694,3.3395258661983924e-18,-0.6865383771998693,0.3505931618632551,0.8684289664154753,0.35059316186325507,300.0,122.14285714285755,[1.63137598]
-4.699281715904592e-18,0.6889856654176914,-6.296711401708725e-18,0.6889856654176914,1.2277804221256113e-18,0.027398896752808315,-6.296711401708725e-18,0.027398896752808315,1.965264528809018e-18,0.6895302362437273,2.4609988728834675e-18,-0.6895302362437273,0.3521157011915821,0.8671960942882071,0.35211570119158203,300.0,122.14285714285755,[1.6245439]
-5.667533742627899e-18,0.6907379450199743,-6.951362753375019e-18,0.6907379450199743,1.2263658204935234e-18,0.026535625403561865,-6.951362753375019e-18,0.026535625403561865,1.0426729494468203e-18,0.691247457938165,1.5610451687064888e-18,-0.691247457938165,0.35294234382615397,0.8665237468581006,0.3529423438261539,300.0,122.14285714285755,[1.61915713]
-6.6607467715156075e-18,0.6914294279562369,-7.588123858908888e-18,0.6914294279562369,1.1872333662044087e-18,0.026258821905243198,-7.588123858908888e-18,0.026258821905243198,8.534772012139713e-20,0.6919278716540764,6.434428988616067e-19,-0.6919278716540765,0.35321075402331664,0.8663049846818153,0.3532107540233167,300.0,122.14285714285755,[1.61683724]
-7.657215583294323e-18,0.6910943569086738,-8.209665345234967e-18,0.6910943569086738,1.13819313640859e-18,0.026551964268664994,-8.209665345234967e-18,0.026551964268664994,-8.90431184887048e-19,0.6916042343403761,-2.600297558198713e-19,-0.6916042343403764,0.35294000060581165,0.8665256556760101,0.3529400006058116,300.0,122.14285714285755,[1.61683724]
-8.65858078731147e-18,0.6895659222590409,-8.811840513937262e-18,0.6895659222590409,1.0358333677778343e-18,0.027510117977333867,-8.811840513937262e-18,0.027510117977333867,-1.902839767069661e-18,0.690114459877554,-1.2204813243510074e-18,-0.6901144598775543,0.3520374380442235,0.8672596407250363,0.3520374380442236,300.0,122.14285714285755,[1.6245439]
-9.700660234668783e-18,0.6863728545339102,-9.393386053425252e-18,0.6863728545339102,9.0430111675379e-19,0.029395296328449574,-9.393386053425252e-18,0.029395296328449574,-2.966254554719584e-18,0.687002022476838,-2.1824845323405034e-18,-0.687002022476838,0.3502408624726547,0.8687132303060789,0.3502408624726547,300.0,122.14285714285755,[1.63137598]
-1.0777459554262245e-17,0.6803866049801117,-9.94253326768971e-18,0.6803866049801117,6.912314820142401e-19,0.0328183096461083,-9.94253326768971e-18,0.0328183096461083,-4.108898691843185e-18,0.6811776373930596,-3.1749913910221354e-18,-0.6811776373930595,0.346920800475095,0.8713735802716529,0.3469208004750949,300.0,122.14285714285755,[1.63013646]
-1.1913426792878894e-17,0.6685804582710113,-1.0414768970105046e-17,0.6685804582710113,3.1346700460872863e-19,0.039330438772581716,-1.0414768970105046e-17,0.039330438772581716,-5.430881143388023e-18,0.6697363007900343,-4.255034111521282e-18,-0.6697363007900344,0.34039398285873324,0.8765066302471058,0.3403939828587332,300.0,122.14285714285755,[1.61299359]
-1.3251803679821199e-17,0.639910286887864,-1.0677564144084392e-17,0.639910286887864,-5.821104262981813e-19,0.05376784624264041,-1.0677564144084392e-17,0.05376784624264041,-7.23363844113912e-18,0.6421652097042319,-5.572091204044887e-18,-0.6421652097042322,0.3247518812504975,0.888297490286067,0.3247518812504975,300.0,122.14285714285755,[1.57283157]
-1.5715600425389487e-17,0.5127105319358026,-1.021377392341148e-17,0.5127105319358026,-5.27176773744818e-18,0.08391422638470422,-1.021377392341148e-17,0.08391422638470422,-1.1288312238504581e-17,0.5195321808585458,-8.312406452666301e-18,-0.5195321808585461,0.2745585345722323,0.921539593390917,0.2745585345722322,300.0,122.14285714285755,[1.53751155]
-1.6610241235811394e-17,0.5181673192011554,-9.78804573361625e-18,0.5181673192011554,-5.275271121992155e-18,0.079618504577714,-9.78804573361625e-18,0.079618504577714,-1.277369641354224e-17,0.5242484877987764,-9.644366421000818e-18,-0.5242484877987765,0.12947035974158674,0.9830945284644645,0.12947035974158663,300.0,109.28571428571402,[1.55034422]
-1.6398572954889434e-17,0.6466169797654163,-9.011464809264729e-18,0.6466169797654163,-5.958714611297503e-19,0.04859906177737052,-9.011464809264729e-18,0.04859906177737052,-1.1202506673914136e-17,0.6484407354003827,-9.907106055915395e-18,-0.6484407354003827,0.18286373604329773,0.9659822503962349,0.1828637360432977,300.0,109.28571428571402,[1.57507134]
-1.732155349008529e-17,0.6743526689828863,-7.52567803314448e-18,0.6743526689828863,2.7887205926329637e-19,0.035028763708395805,-7.52567803314448e-18,0.035028763708395805,-1.1907650745757801e-17,0.6752618280721047,-1.1136981433533927e-17,-0.6752618280721048,0.1986058263112734,0.9597455139308714,0.1986058263112734,300.0,109.28571428571402,[1.59733918]
-1.839212527703957e-17,0.6861381447618518,-5.859860611817332e-18,0.6861381447618518,6.438119898440968e-19,0.028654292687626925,-5.859860611817332e-18,0.028654292687626925,-1.3129924316352919e-17,0.6867362100447769,-1.2662595273368693e-17,-0.6867362100447766,0.20549059616027524,0.9568423223182538,0.20549059616027524,300.0,109.28571428571402,[1.63306083]
-1.9530534352824475e-17,0.6925272284161782,-4.120664340855077e-18,0.6925272284161782,8.578975994774922e-19,0.025030714546959022,-4.120664340855077e-18,0.025030714546959022,-1.452638280152958e-17,0.6929794360358209,-1.424792512930547e-17,-0.692979436035821,0.20928244044475092,0.9551972153660093,0.20928244044475092,300.0,109.28571428571402,[1.62107888]
-2.0705855019276065e-17,0.6963671735474187,-2.3517711065235615e-18,0.6963671735474187,9.688806355212335e-19,0.022749883035647553,-2.3517711065235615e-18,0.022749883035647553,-1.6009663223624967e-17,0.6967386867201767,-1.586278422254637e-17,-0.6967386867201767,0.21162525913882754,0.9541642937088182,0.21162525913882754,300.0,109.28571428571402,[1.62107888]
-2.1900167752591872e-17,0.6987245385374181,-5.660423508108721e-19,0.6987245385374181,1.0535425162860733e-18,0.0212503893552683,-5.660423508108721e-19,0.0212503893552683,-1.7550460357144523e-17,0.6990476091097648,-1.7516058298550583e-17,-0.6990476091097648,0.21314549935756008,0.9534872795204102,0.21314549935756005,300.0,109.28571428571402,[1.61963517]
-2.3083623636970344e-17,0.7000602509907622,1.233239978958349e-18,0.7000602509907622,1.1102557477609422e-18,0.020278415802099048,1.233239978958349e-18,0.020278415802099048,-1.913494189401468e-17,0.7003538885197194,-1.920665372350139e-17,-0.7003538885197195,0.21411963380786317,0.9530506622609173,0.21411963380786309,300.0,109.28571428571402,[1.61907231]
-2.4295858013738936e-17,0.7005641745065326,3.0459416824232376e-18,0.7005641745065326,1.1259969334255152e-18,0.019720453892370426,3.0459416824232376e-18,0.019720453892370426,-2.075008152319592e-17,0.7008416789145328,-2.0920781524847312e-17,-0.7008416789145328,0.21466988724730632,0.9528030641315433,0.21466988724730632,300.0,109.28571428571402,[1.61907231]
-2.5508086031556573e-17,0.7002599879361819,4.8680177381440716e-18,0.7002599879361819,1.1243698368488807e-18,0.019546775382521715,4.8680177381440716e-18,0.019546775382521715,-2.2390726904673715e-17,0.70053274522483,-2.266301391241212e-17,-0.7005327452248299,0.21482861766387473,0.9527315099571639,0.21482861766387473,300.0,109.28571428571402,[1.61907231]
-2.6726836213407822e-17,0.6990127449820356,6.693720118127422e-18,0.6990127449820356,1.0991344062071561e-18,0.0198019553238573,6.693720118127422e-18,0.0198019553238573,-2.4071527471719865e-17,0.6992931681934043,-2.4451875296447676e-17,-0.6992931681934043,0.2145493335071845,0.9528573696956146,0.21454933350718453,300.0,109.28571428571402,[1.61907231]
-2.7966761701952543e-17,0.6964449956887264,8.539531620693454e-18,0.6964449956887264,1.011220716895657e-18,0.020635073827290958,8.539531620693454e-18,0.020635073827290958,-2.5813915538629106e-17,0.6967506284831955,-2.632176783237714e-17,-0.6967506284831956,0.2136735197904514,0.9532508871649262,0.21367351979045152,300.0,109.28571428571402,[1.61963517]
-2.920668295119663e-17,0.6916499863948004,1.0408928273649203e-17,0.6916499863948004,8.543886508514282e-19,0.022407115952791736,1.0408928273649203e-17,0.022407115952791736,-2.7648008686881003e-17,0.6920128485261309,-2.8322622079844405e-17,-0.6920128485261309,0.21180909173018475,0.9540827098951474,0.21180909173018478,300.0,109.28571428571402,[1.62107888]
-3.050901730410331e-17,0.6821660974548558,1.2323624437260067e-17,0.6821660974548558,5.320499823078777e-19,0.026042696670699906,1.2323624437260067e-17,0.026042696670699906,-2.968884404871195e-17,0.6826630256331961,-3.06244170952407e-17,-0.6826630256331963,0.2079111269241157,0.9557959649435064,0.20791112692411576,300.0,109.28571428571402,[1.63034375]
-3.193670777691511e-17,0.6587053262210786,1.4358536899946218e-17,0.6587053262210786,-2.9955229512898377e-19,0.034399783020339816,1.4358536899946218e-17,0.034399783020339816,-3.22877769807603e-17,0.6596029501630993,-3.3786405728065894e-17,-0.6596029501630996,0.1984169582768668,0.9598236407467321,0.19841695827686684,300.0,109.28571428571402,[1.59733918]
-3.422067126971252e-17,0.5421137220276552,1.6804753265763188e-17,0.5421137220276552,-4.9336425757144735e-18,0.05069875580589123,1.6804753265763188e-17,0.05069875580589123,-3.739230669259335e-17,0.5444792479525211,-4.043098683089507e-17,-0.5444792479525215,0.17038104942186866,0.97053624146438,0.1703810494218687,300.0,109.28571428571402,[1.52291326]
-3.366189753104315e-17,0.5451675767370499,1.6947095468461245e-17,0.5451675767370499,-4.988218537276393e-18,0.04445156418781041,1.6947095468461245e-17,0.04445156418781041,-3.7370628498861535e-17,0.5469768078118946,-3.9993617283363924e-17,-0.5469768078118947,0.021805331321931607,0.999524414435126,0.02180533132193165,300.0,96.42857142857196,[1.61657219]
-3.0499135494313023e-17,0.6625096187496591,1.535413877474419e-17,0.6625096187496591,-4.71145672238447e-19,0.02680758780930561,1.535413877474419e-17,0.02680758780930561,-3.194356113631117e-17,0.6630517639671675,-3.318814242198281e-17,-0.6630517639671676,0.05069710720663046,0.9974264918487773,0.0506971072066305,300.0,96.42857142857196,[1.62717939]
-2.8217064849251076e-17,0.6855076292972384,1.414630386469221e-17,0.6855076292972384,2.637922044984595e-19,0.019620725562267998,1.414630386469221e-17,0.019620725562267998,-2.9042167351460823e-17,0.6857883658216356,-2.985668970690381e-17,-0.6857883658216359,0.05903498140408673,0.9965087766503806,0.05903498140408677,300.0,96.42857142857196,[1.63648226]
-2.6041890289460265e-17,0.6950354531280786,1.3031664680070197e-17,0.6950354531280786,4.715634420686389e-19,0.016101558062896128,1.3031664680070197e-17,0.016101558062896128,-2.671270503463918e-17,0.695221936705831,-2.731366050990055e-17,-0.6952219367058309,0.06287576301820128,0.9960387928438119,0.0628757630182013,300.0,96.42857142857196,[1.6210291]
-2.3904163591867007e-17,0.7001090907228946,1.1949607302902511e-17,0.7001090907228946,5.268546531353011e-19,0.013957426986412447,1.1949607302902511e-17,0.013957426986412447,-2.4591343097338914e-17,0.700248205053693,-2.5064775795507706e-17,-0.7002482050536932,0.06514959992612906,0.9957464834278505,0.06514959992612912,300.0,96.42857142857196,[1.6210291]
-2.1782168938946322e-17,0.7030905676813286,1.0875383159730227e-17,0.7030905676813286,4.988510916542362e-19,0.012470588256635266,1.0875383159730227e-17,0.012470588256635266,-2.2563043347498475e-17,0.7032011532512727,-2.294878311270426e-17,-0.7032011532512727,0.0666973870622845,0.9955415195350357,0.06669738706228452,300.0,96.42857142857196,[1.6210291]
-1.9664525928131913e-17,0.704852210401854,9.81393474518623e-18,0.704852210401854,4.2418011643207496e-19,0.011351496936376586,9.81393474518623e-18,0.011351496936376586,-2.0599312385695736e-17,0.7049436112137455,-2.091503496453044e-17,-0.7049436112137454,0.0678458402920063,0.9953862988358556,0.0678458402920063,300.0,96.42857142857196,[1.6210291]
-1.7556643907039572e-17,0.7057656964197676,8.764957492015214e-18,0.7057656964197676,3.283452276369072e-19,0.01046297428030245,8.764957492015214e-18,0.01046297428030245,-1.8681707664411854e-17,0.7058432489396426,-1.8941343035816074e-17,-0.7058432489396422,0.06874634430507368,0.9952627192301421,0.06874634430507368,300.0,96.42857142857196,[1.6210291]
-1.5448223494766035e-17,0.7059787304792269,7.71027327907571e-18,0.7059787304792269,1.8882732651166185e-19,0.009733854360664717,7.71027327907571e-18,0.009733854360664717,-1.6799374454359812e-17,0.7060458312388619,-1.7012431546499258e-17,-0.7060458312388619,0.06947613143950274,0.9951613609462547,0.06947613143950275,300.0,96.42857142857196,[1.6210291]
-1.3333842625793596e-17,0.7054997422221387,6.663057687157088e-18,0.7054997422221387,3.954068569286809e-20,0.009127091799287933,6.663057687157088e-18,0.009127091799287933,-1.4944440904164948e-17,0.705558778614664,-1.5116405830433862e-17,-0.7055587786146641,0.0700746142493599,0.995077432602914,0.07007461424935992,300.0,96.42857142857196,[1.6210291]
-1.1259069542694453e-17,0.7042005853623727,5.618978647798994e-18,0.7042005853623727,-1.5153009196494395e-19,0.008627943677206517,5.618978647798994e-18,0.008627943677206517,-1.3135362809160605e-17,0.7042534386403845,-1.327256177127212e-17,-0.7042534386403847,0.07055646861635911,0.9950093313495998,0.07055646861635914,300.0,96.42857142857196,[1.6210291]
-9.1772465026321e-18,0.7017393383667573,4.57946016858181e-18,0.7017393383667573,-3.805864606107858e-19,0.008243030863954443,4.57946016858181e-18,0.008243030863954443,-1.139058430660336e-17,0.7017877503698954,-1.1497503328734354e-17,-0.7017877503698954,0.07091209515535095,0.9949587677493761,0.07091209515535096,300.0,96.42857142857196,[1.6210291]
-7.10736557247075e-18,0.6973006834720832,3.5414841655261546e-18,0.6973006834720832,-6.983646352524999e-19,0.00801201665104745,3.5414841655261546e-18,0.00801201665104745,-9.74022509762311e-18,0.6973467111713162,-9.821244069457797e-18,-0.6973467111713162,0.07109254477901562,0.9949330128976964,0.07109254477901564,300.0,96.42857142857196,[1.6210291]
-5.073840884592332e-18,0.6886602357760999,2.5075437117228555e-18,0.6886602357760999,-1.1756779600085984e-18,0.008049719547120547,2.5075437117228555e-18,0.008049719547120547,-8.314241473231224e-18,0.6887072805800596,-8.372399685391722e-18,-0.6887072805800597,0.07095262359274578,0.9949529890455189,0.0709526235927458,300.0,96.42857142857196,[1.64026288]
-3.134738139853806e-18,0.6672539015814157,1.4982923155718505e-18,0.6672539015814157,-2.1565540278841906e-18,0.008669855331040583,1.4982923155718505e-18,0.008669855331040583,-7.4751143046814e-18,0.6673102243837444,-7.513421624407794e-18,-0.6673102243837442,0.07003502158766843,0.9950830073428197,0.07003502158766843,300.0,96.42857142857196,[1.62313175]
-1.9422970577702647e-18,0.5542106661976198,4.97586753358091e-19,0.5542106661976198,-6.943170901041158e-18,0.00789165026672292,4.97586753358091e-19,0.00789165026672292,-9.2414273946613e-18,0.5542668496952907,-9.25396514759673e-18,-0.5542668496952906,0.06915833433949159,0.995205631808208,0.06915833433949159,300.0,96.42857142857196,[1.57482581]
-9.008217107540564e-19,0.5542516691380313,-2.1040765201387418e-19,0.5542516691380313,-6.939170657214438e-18,0.000930198444349484,-2.1040765201387418e-19,0.000930198444349484,-8.15896066002563e-18,0.5542524497117169,-8.15823433189549e-18,-0.554252449711717,0.08034999979761004,0.9935229011276229,0.08034999979761004,300.0,83.57142857142804,[1.57108039]
-8.692685960954914e-21,0.6673882502857528,5.6755624481262185e-21,0.6673882502857528,-2.13315587039611e-18,0.00015759491080468666,5.6755624481262185e-21,0.00015759491080468666,-4.211432006843863e-18,0.6673882688927297,-4.2114344536299724e-18,-0.6673882688927296,0.07933676211248239,0.9936857432584079,0.07933676211248239,300.0,83.57142857142804,[1.6053974]
1.2918632803275278e-19,0.6888860681092914,2.0258004833963342e-19,0.6888860681092914,-1.1518717698339819e-18,0.0007787454958436725,2.0258004833963342e-19,0.0007787454958436725,-2.8842664803548593e-18,0.6888865082723181,-2.884720616568584e-18,-0.6888865082723179,0.07996510605894691,0.993585005737286,0.07996510605894691,300.0,83.57142857142804,[1.62601488]
1.5961814767221381e-19,0.6976172088552564,3.810508296284741e-19,0.6976172088552564,-6.574625379027531e-19,0.0008128611387582293,3.810508296284741e-19,0.0008128611387582293,-2.139615835940658e-18,0.6976176824265777,-2.140500996511778e-18,-0.6976176824265776,0.07998952373412777,0.9935810747923768,0.07998952373412775,300.0,83.57142857142804,[1.6067168]
1.6726372637525317e-19,0.7021459851707825,5.611321146062907e-19,0.7021459851707825,-3.296408638948037e-19,0.000573648060857932,5.611321146062907e-19,0.000573648060857932,-1.6125589549170464e-18,0.7021462195038486,-1.6134746290703624e-18,-0.7021462195038487,0.07974488222252939,0.9936204041376313,0.0797448822225294,300.0,83.57142857142804,[1.60504356]
1.5645774904559012e-19,0.7046968053146814,7.261374860440835e-19,0.7046968053146814,-8.660473900003223e-20,0.00017592100771410163,7.261374860440835e-19,0.00017592100771410163,-1.187244759324877e-18,0.7046968272732032,-1.1876072262640107e-18,-0.7046968272732032,0.07934625053071469,0.9936842280389854,0.07934625053071469,300.0,83.57142857142804,[1.60504356]
1.4077021702973366e-19,0.7060849600653303,8.974338471525034e-19,0.7060849600653303,1.1085035918154473e-19,-0.0003406546997405931,8.974338471525034e-19,-0.0003406546997405931,-8.275888520347168e-19,0.7060850422407229,-8.267226683722143e-19,-0.7060850422407228,0.07883182851195196,0.9937661121345024,0.07883182851195195,300.0,83.57142857142804,[1.60415515]
1.0771850959516407e-19,0.7066523275215412,1.05867346108019e-18,0.7066523275215412,2.7574809212654195e-19,-0.0009694504114639203,1.05867346108019e-18,-0.0009694504114639203,-5.045605022684046e-19,0.7066529925116792,-5.016541662431957e-19,-0.7066529925116792,0.07820679245696711,0.9938648777510882,0.0782067924569671,300.0,83.57142857142804,[1.60439415]
8.334677021963135e-20,0.7065270050187127,1.2253391148699347e-18,0.7065270050187127,4.1229318367845417e-19,-0.0017251956161704008,1.2253391148699347e-18,-0.0017251956161704008,-2.184299654416981e-19,0.7065291113044292,-2.1244431231851123e-19,-0.7065291113044291,0.07745485465519225,0.9939826411867996,0.07745485465519225,300.0,83.57142857142804,[1.60446836]
4.8126660508042264e-20,0.705700513280778,1.3828809656954258e-18,0.705700513280778,5.3486554032312055e-19,-0.002644916818886374,1.3828809656954258e-18,-0.002644916818886374,3.012288060536955e-20,0.7057054697462198,4.050251417841126e-20,-0.70570546974622,0.0765367791592453,0.9941248628174721,0.07653677915924531,300.0,83.57142857142804,[1.60446836]
3.671234353663475e-21,0.7040251007135016,1.5312657615422737e-18,0.7040251007135016,6.130781200340832e-19,-0.0037997560530391226,1.5312657615422737e-18,-0.0037997560530391226,2.3513016039777553e-19,0.7040353546383298,2.516726311925405e-19,-0.7040353546383298,0.07537735064175312,0.9943020215309131,0.0753773506417531,300.0,83.57142857142804,[1.60535677]
-3.100412522577116e-20,0.7011290504632341,1.677122907502455e-18,0.7011290504632341,6.552056402248875e-19,-0.005326864083911142,1.677122907502455e-18,-0.005326864083911142,3.8980899291258505e-19,0.7011492857333914,4.152886302326355e-19,-0.7011492857333914,0.07383020906184677,0.9945341625403162,0.07383020906184676,300.0,83.57142857142804,[1.60535677]
-1.0746627120712368e-19,0.6961400150145356,1.800918832294149e-18,0.6961400150145356,6.14174641640076e-19,-0.007515756177176988,1.800918832294149e-18,-0.007515756177176988,4.3094239710346553e-19,0.6961805851180806,4.697969226935594e-19,-0.6961805851180806,0.07158051367971553,0.9948630358610657,0.07158051367971555,300.0,83.57142857142804,[1.61205082]
-2.0781051734016578e-19,0.6866959988875513,1.9003125477369654e-18,0.6866959988875513,4.1198265490662293e-19,-0.011084152606956003,1.9003125477369654e-18,-0.011084152606956003,2.832414534410002e-19,0.6867854492686825,3.4472649720636803e-19,-0.6867854492686826,0.06782016352665754,0.9953897984400053,0.06782016352665754,300.0,83.57142857142804,[1.62352064]
-4.1504660944370178e-19,0.6637812245505328,1.8999635340640177e-18,0.6637812245505328,-3.1547603567733813e-19,-0.01832472614273468,1.8999635340640177e-18,-0.01832472614273468,-4.541647560931587e-19,0.6640341178388436,-3.474704725923457e-19,-0.6640341178388435,0.05975002250836969,0.996423539274589,0.05975002250836968,300.0,83.57142857142804,[1.61826542]
-1.4942941251563784e-18,0.5465229035466315,1.5173309485040282e-18,0.5465229035466315,-4.8180152533421964e-18,-0.036027095141836454,1.5173309485040282e-18,-0.036027095141836454,-3.705033237835727e-18,0.5477090794257472,-3.535408792610783e-18,-0.5477090794257473,0.0327799125234631,0.9989248994143194,0.03277991252346309,300.0,83.57142857142804,[1.61685988]
-1.908037149653485e-18,0.5435372246234261,1.6156525845586006e-18,0.5435372246234261,-4.734166788387529e-18,-0.042323753193398185,1.6156525845586006e-18,-0.042323753193398185,-4.1453254124992446e-18,0.545182551661104,-3.843254565982759e-18,-0.5451825516611042,0.18102393562680916,0.9666750588798501,0.18102393562680913,300.0,70.71428571428592,[1.52340072]
-1.3784425172846515e-18,0.6602030010984566,2.752617052411581e-18,0.6602030010984566,-6.053853791114312e-20,-0.026070340946454718,2.752617052411581e-18,-0.026070340946454718,-2.0360444221959228e-18,0.6607175382389009,-1.8208151252526116e-18,-0.6607175382389008,0.2070256390825737,0.9561803017866995,0.2070256390825737,300.0,70.71428571428592,[1.55744273]
-1.7262940919445857e-18,0.6837348895012157,3.476486711330838e-18,0.6837348895012157,8.344828822212892e-19,-0.01776278021512191,3.476486711330838e-18,-0.01776278021512191,-2.4434825468171793e-18,0.6839655806268401,-2.2611941591691738e-18,-0.6839655806268404,0.2161305435635649,0.9521424138635123,0.2161305435635649,300.0,70.71428571428592,[1.5751162]
-2.2173831566063456e-18,0.6932878453657875,4.074923545499038e-18,0.6932878453657875,1.2084439120844479e-18,-0.014180905578377615,4.074923545499038e-18,-0.014180905578377615,-3.4063034995089198e-18,0.6934328623702218,-3.238366371567955e-18,-0.6934328623702218,0.21984466002540728,0.9504402405815036,0.21984466002540728,300.0,70.71428571428592,[1.56309179]
-2.731809571287641e-18,0.698150088871863,4.631780656605922e-18,0.698150088871863,1.410934637034829e-18,-0.012466779567793813,4.631780656605922e-18,-0.012466779567793813,-4.570033388099989e-18,0.6982613888685114,-4.4048381035594446e-18,-0.6982613888685113,0.2215890896288216,0.9496296913612907,0.2215890896288216,300.0,70.71428571428592,[1.56309179]
-3.2771659234335194e-18,0.700783278226132,5.160217098792275e-18,0.700783278226132,1.5451893139381959e-18,-0.011695769876624924,5.160217098792275e-18,-0.011695769876624924,-5.826145056398271e-18,0.7008808701015967,-5.653695929750674e-18,-0.7008808701015968,0.222372540146818,0.9492633495386326,0.22237254014681807,300.0,70.71428571428592,[1.56141854]
-3.8246843189054575e-18,0.7020941611273205,5.680174144831089e-18,0.7020941611273205,1.6208414885411458e-18,-0.011506857966305378,5.680174144831089e-18,-0.011506857966305378,-7.147375032079627e-18,0.702188449683796,-6.960877242234423e-18,-0.7021884496837959,0.22257399879980688,0.9491689154816055,0.22257399879980683,300.0,70.71428571428592,[1.56141854]
-4.384695933361514e-18,0.702460168354957,6.18553084075082e-18,0.702460168354957,1.6723466067024475e-18,-0.01175092137002169,6.18553084075082e-18,-0.01175092137002169,-8.507264250116232e-18,0.7025584475887535,-8.299546773363795e-18,-0.7025584475887535,0.22234658998757448,0.9492755068165379,0.22234658998757448,300.0,70.71428571428592,[1.56141854]
-4.95012537403464e-18,0.7020162238540517,6.68354420685528e-18,0.7020162238540517,1.707844390605913e-18,-0.012383336271603448,6.68354420685528e-18,-0.012383336271603448,-9.899031949135471e-18,0.7021254343573647,-9.66091946510138e-18,-0.7021254343573647,0.2217348883730176,0.9495616244122395,0.22173488837301758,300.0,70.71428571428592,[1.56141854]
-5.534008490390788e-18,0.700738627605652,7.171196589719061e-18,0.700738627605652,1.7160763175786302e-18,-0.013433777017528886,7.171196589719061e-18,-0.013433777017528886,-1.1319562243167434e-17,0.7008673844484485,-1.1042125718792362e-17,-0.7008673844484485,0.22070686032079972,0.9500405063020578,0.22070686032079972,300.0,70.71428571428592,[1.56141854]
-6.123313672264644e-18,0.6984374990811858,7.651963553475697e-18,0.6984374990811858,1.6776425530261358e-18,-0.01501569424885882,7.651963553475697e-18,-0.01501569424885882,-1.2776580197802147e-17,0.6985988914939365,-1.2446267827642825e-17,-0.6985988914939365,0.21914294047721242,0.9507642942801345,0.21914294047721247,300.0,70.71428571428592,[1.56309179]
-6.72835937741235e-18,0.6946519021149716,8.101952598439111e-18,0.6946519021149716,1.6077362205272238e-18,-0.0173828458132985,8.101952598439111e-18,-0.0173828458132985,-1.428949121171616e-17,0.6948693607006406,-1.3879629292414595e-17,-0.6948693607006408,0.21677314697323022,0.9518502011885298,0.21677314697323022,300.0,70.71428571428592,[1.56309179]
-7.365407563086388e-18,0.6883152874330978,8.528201096148745e-18,0.6883152874330978,1.4552151920378353e-18,-0.021096583174516893,8.528201096148745e-18,-0.021096583174516893,-1.58893587603442e-17,0.688638512382039,-1.5361722637966432e-17,-0.6886385123820391,0.21298620419214814,0.9535584689192591,0.21298620419214817,300.0,70.71428571428592,[1.58350732]
-8.05592604772435e-18,0.6765804571382219,8.885263545033721e-18,0.6765804571382219,1.1348183881433899e-18,-0.027565011814207428,8.885263545033721e-18,-0.027565011814207428,-1.7680231178752924e-17,0.6771417465034058,-1.694168955319338e-17,-0.677141746503406,0.20617946206598828,0.9565459000196277,0.20617946206598828,300.0,70.71428571428592,[1.57851239]
-8.924673209841203e-18,0.6488938164228902,9.056966282851863e-18,0.6488938164228902,3.13031548946182e-19,-0.041233101666470304,9.056966282851863e-18,-0.041233101666470304,-1.997154349920862e-17,0.6502025481839493,-1.8786872846096574e-17,-0.6502025481839497,0.1907471289134345,0.962928380318372,0.19074712891343448,300.0,70.71428571428592,[1.54244207]
-1.0887100586697347e-17,0.5204925668425925,8.52497843279398e-18,0.5204925668425925,-4.32168296865845e-18,-0.07235455361638739,8.52497843279398e-18,-0.07235455361638739,-2.454990870280264e-17,0.5254975676132261,-2.1864399217782544e-17,-0.5254975676132261,0.13942183762730626,0.9803688603710597,0.1394218376273062,300.0,70.71428571428592,[1.4889007]
-1.1331667566143053e-17,0.5150665119770619,8.798563752964666e-18,0.5150665119770619,-4.328896138696277e-18,-0.0767389973664631,8.798563752964666e-18,-0.0767389973664631,-2.5008338195338973e-17,0.5207517503350582,-2.178339065475684e-17,-0.5207517503350583,0.2838671342163739,0.9158814880886972,0.28386713421637383,300.0,57.857142857142705,[1.47561643]
-9.776005324931671e-18,0.6422977081581001,1.0279539916445357e-17,0.6422977081581001,3.049578008785699e-19,-0.0466770783345497,1.0279539916445357e-17,-0.0466770783345497,-2.1838456253185083e-17,0.6439915337541307,-2.0254557813169686e-17,-0.6439915337541308,0.3318179212948862,0.883059303906075,0.3318179212948862,300.0,57.857142857142705,[1.51942136]
-9.358493562166197e-18,0.6709957049896675,1.1025082138775268e-17,0.6709957049896675,1.1294773992504086e-18,-0.032327030633443256,1.1025082138775268e-17,-0.032327030633443256,-2.093174615384299e-17,0.6717739746552829,-1.984404765977253e-17,-0.6717739746552827,0.34695589800251475,0.8713456315851577,0.3469558980025147,300.0,57.857142857142705,[1.53657425]
-9.124662217501797e-18,0.6828269320005845,1.1565883362384182e-17,0.6828269320005845,1.4430441599023066e-18,-0.025905521663716295,1.1565883362384182e-17,-0.025905521663716295,-2.0496995275027664e-17,0.6833181653651546,-1.959713083794726e-17,-0.6833181653651547,0.35323458090329246,0.8662855543688529,0.3532345809032924,300.0,57.857142857142705,[1.54972845]
-8.964891455006567e-18,0.6888357359896039,1.2032615392744502e-17,0.6888357359896039,1.5861576503604325e-18,-0.02257643090688293,1.2032615392744502e-17,-0.02257643090688293,-2.023662802801135e-17,0.6892056053231377,-1.9435649873183724e-17,-0.6892056053231376,0.3563890729240334,0.8636976655061053,0.35638907292403327,300.0,57.857142857142705,[1.55139925]
-8.837687000022703e-18,0.6920489044188787,1.2462397413776096e-17,0.6920489044188787,1.6717523097440708e-18,-0.020788442814276095,1.2462397413776096e-17,-0.020788442814276095,-2.006572698168755e-17,0.692361065818994,-1.9311841304410708e-17,-0.6923610658189938,0.3580569103135724,0.8623169359077884,0.35805691031357223,300.0,57.857142857142705,[1.52809435]
-8.737079917250023e-18,0.6935950223543148,1.2871746138204243e-17,0.6935950223543148,1.6813108728606098e-18,-0.019930689444089565,1.2871746138204243e-17,-0.019930689444089565,-1.993823849356085e-17,0.6938813208441333,-1.918635627780421e-17,-0.6938813208441332,0.3588508141410035,0.8616566522581242,0.3588508141410035,300.0,57.857142857142705,[1.52809435]
-8.642170454536607e-18,0.6939453855754056,1.3259287370231074e-17,0.6939453855754056,1.6800846551506823e-18,-0.019741089640784262,1.3259287370231074e-17,-0.019741089640784262,-1.984812791917116e-17,0.6942261222264716,-1.908487635511976e-17,-0.6942261222264715,0.3590259640502581,0.8615107162859704,0.35902596405025794,300.0,57.857142857142705,[1.52809435]
-8.575172547232568e-18,0.693266828174023,1.3638773533608735e-17,0.693266828174023,1.6472512716990384e-18,-0.02012450404889802,1.3638773533608735e-17,-0.02012450404889802,-1.9781002832847942e-17,0.6935588588646849,-1.8975869079941438e-17,-0.6935588588646848,0.3586723237537178,0.861805272869815,0.3586723237537177,300.0,57.857142857142705,[1.52809435]
-8.511464337224653e-18,0.6915251335722404,1.4001896261474854e-17,0.6915251335722404,1.6005129821503781e-18,-0.021097376822485327,1.4001896261474854e-17,-0.021097376822485327,-1.974345534708536e-17,0.6918468831113535,-1.8882056772306103e-17,-0.6918468831113533,0.3577708584587052,0.8625543609972897,0.3577708584587051,300.0,57.857142857142705,[1.52809435]
-8.455590354798227e-18,0.6884741139496265,1.434877332690032e-17,0.6884741139496265,1.5166723334062641e-18,-0.022792996117964974,1.434877332690032e-17,-0.022792996117964974,-1.973657072284708e-17,0.6888513092466018,-1.8772815109349606e-17,-0.6888513092466019,0.3561866502790992,0.8638646539394406,0.3561866502790992,300.0,57.857142857142705,[1.55139925]
-8.450503194031026e-18,0.6835218616476777,1.4666653310996452e-17,0.6835218616476777,1.3712452446242218e-18,-0.02553146609693056,1.4666653310996452e-17,-0.02553146609693056,-1.977241612940297e-17,0.6839985315125799,-1.8658315193307082e-17,-0.68399853151258,0.35359285990406053,0.8659931748286096,0.35359285990406053,300.0,57.857142857142705,[1.54372062]
-8.468443914336689e-18,0.6753089182506037,1.4945412763836516e-17,0.6753089182506037,1.1637229997275308e-18,-0.030034790909288678,1.4945412763836516e-17,-0.030034790909288678,-1.9880969781224083e-17,0.675976496435908,-1.8532792188968648e-17,-0.675976496435908,0.34922961029024047,0.8695270890507402,0.3492296102902403,300.0,57.857142857142705,[1.53781377]
-8.597623883418483e-18,0.6602513921955897,1.513928379828383e-17,0.6602513921955897,7.826236499784581e-19,-0.03812256785052597,1.513928379828383e-17,-0.03812256785052597,-2.0139361514142466e-17,0.6613510649237155,-1.8402731798566766e-17,-0.6613510649237155,0.34106539923593565,0.875984467264154,0.34106539923593565,300.0,57.857142857142705,[1.53657425]
-8.96990230836226e-18,0.6254763215790086,1.5092022882453222e-17,0.6254763215790086,-9.9829171105363e-20,-0.055511683323408355,1.5092022882453222e-17,-0.055511683323408355,-2.080567783143047e-17,0.6279348499975183,-1.811112056956673e-17,-0.627934849997518,0.32180117724766133,0.8904425891903638,0.3218011772476613,300.0,57.857142857142705,[1.5109068]
-1.086096953755649e-17,0.481213125703571,1.4150218792593562e-17,0.481213125703571,-4.7904987477611475e-18,-0.0938890542572039,1.4150218792593562e-17,-0.0938890542572039,-2.3390794882695226e-17,0.49028688220134264,-1.7721101228498992e-17,-0.4902868822013423,0.2545864300783698,0.9329370285501069,0.2545864300783698,300.0,57.857142857142705,[1.47607199]
-1.1083821093565014e-17,0.4744180198198282,1.4243290783436116e-17,0.4744180198198282,-4.822995106811964e-18,-0.0954922949722914,1.4243290783436116e-17,-0.0954922949722914,-2.2874999173907426e-17,0.4839330903429127,-1.6711051445844963e-17,-0.483933090342913,0.39150631813483816,0.832733814445532,0.39150631813483805,300.0,45.00000000000011,[1.47536437]
-9.06930542975337e-18,0.6171597967648376,1.550594952165927e-17,0.6171597967648376,-2.265164314112282e-19,-0.057573976112523795,1.550594952165927e-17,-0.057573976112523795,-1.987418054125019e-17,0.6198394771779394,-1.6848897426008967e-17,-0.6198394771779392,0.45139575749518657,0.7697296539894339,0.45139575749518646,300.0,45.00000000000011,[1.531299]
-8.570119300870482e-18,0.6531344158721916,1.586382386285575e-17,0.6531344158721916,5.823633270769466e-19,-0.04002178312281792,1.586382386285575e-17,-0.04002178312281792,-1.8751668842862787e-17,0.6543594641487496,-1.680094284996042e-17,-0.6543594641487497,0.4684830481874095,0.7490308852925002,0.46848304818740955,300.0,45.00000000000011,[1.5081076]
-8.363597530924674e-18,0.6682509553645293,1.5975990458646735e-17,0.6682509553645293,8.69264356794852e-19,-0.03203079615658011,1.5975990458646735e-17,-0.03203079615658011,-1.8004292858050074e-17,0.6690181695948402,-1.6448034163414915e-17,-0.6690181695948401,0.47548795243725955,0.7401502645909442,0.4754879524372595,300.0,45.00000000000011,[1.51607529]
-8.276674910615764e-18,0.6759942827962307,1.6002845368371758e-17,0.6759942827962307,9.966002300985355e-19,-0.027744564790573804,1.6002845368371758e-17,-0.027744564790573804,-1.7402312167264608e-17,0.6765633978043808,-1.6076693234149058e-17,-0.6765633978043808,0.4790753683316226,0.7355090637890468,0.47907536833162256,300.0,45.00000000000011,[1.51420667]
-8.235536737211664e-18,0.6801722601440431,1.5982917210935118e-17,0.6801722601440431,1.0631996431424768e-18,-0.02529234850833558,1.5982917210935118e-17,-0.02529234850833558,-1.686115696205231e-17,0.6806423483464155,-1.565751466572528e-17,-0.6806423483464153,0.4810749090375457,0.732894169569546,0.48107490903754563,300.0,45.00000000000011,[1.52481124]
-8.217765588931575e-18,0.6822217487125406,1.5935129959434512e-17,0.6822217487125406,1.0656838733171267e-18,-0.02393442127474434,1.5935129959434512e-17,-0.02393442127474434,-1.6358977886918052e-17,0.6826414658795303,-1.523920302268589e-17,-0.6826414658795301,0.4821618377588909,0.7314642331774931,0.4821618377588907,300.0,45.00000000000011,[1.52481124]
-8.232959242422949e-18,0.6827476258374402,1.5869978797471483e-17,0.6827476258374402,1.036746407153031e-18,-0.02334765307849116,1.5869978797471483e-17,-0.02334765307849116,-1.5879657120831083e-17,0.6831467144698385,-1.4787464248708234e-17,-0.6831467144698387,0.48261958872969224,0.7308602227161946,0.4826195887296923,300.0,45.00000000000011,[1.52481124]
-8.2698242007826e-18,0.6819673938162462,1.578944904252669e-17,0.6819673938162462,9.88236089937129e-19,-0.02340523394245416,1.578944904252669e-17,-0.02340523394245416,-1.5421541336542065e-17,0.6823689113701062,-1.4332179508086473e-17,-0.6823689113701064,0.4825558058847414,0.7309444496087617,0.48255580588474134,300.0,45.00000000000011,[1.52481124]
-8.312827666468006e-18,0.6798431007595692,1.5693006012806995e-17,0.6798431007595692,9.180671857548682e-19,-0.024107122189985772,1.5693006012806995e-17,-0.024107122189985772,-1.4989420943773445e-17,0.6802703837377229,-1.387029979567697e-17,-0.6802703837377225,0.4819671664718543,0.7317207806849443,0.4819671664718543,300.0,45.00000000000011,[1.52481124]
-8.390932541447101e-18,0.6760692191057753,1.557891742408865e-17,0.6760692191057753,8.065947754435737e-19,-0.025580045385286687,1.557891742408865e-17,-0.025580045385286687,-1.45763095750716e-17,0.6765529748247406,-1.3388510752008931e-17,-0.6765529748247406,0.48073779727965493,0.7333364442964844,0.4807377972796549,300.0,45.00000000000011,[1.51420667]
-8.518857677539652e-18,0.6699070510917806,1.5439201733092952e-17,0.6699070510917806,6.408974706545545e-19,-0.02814705461964236,1.5439201733092952e-17,-0.02814705461964236,-1.4189795578580937e-17,0.6704981087119088,-1.2885929471514968e-17,-0.6704981087119088,0.47856957993887533,0.7361673140762615,0.47856957993887533,300.0,45.00000000000011,[1.51420667]
-8.707455684382355e-18,0.6596635286176139,1.5259416172454265e-17,0.6596635286176139,4.2635494389912593e-19,-0.03254780609288956,1.5259416172454265e-17,-0.03254780609288956,-1.3859181000320537e-17,0.6604659950896049,-1.2331767541805918e-17,-0.6604659950896048,0.47475246809613797,0.7410939131265694,0.4747524680961379,300.0,45.00000000000011,[1.51607529]
-9.020078670729421e-18,0.6409124786103867,1.498321990676326e-17,0.6409124786103867,3.001424852648661e-20,-0.04065299664178511,1.498321990676326e-17,-0.04065299664178511,-1.3636592280951652e-17,0.6422004915713367,-1.1718871037286426e-17,-0.6422004915713366,0.4673458599353337,0.750450327738357,0.46734585993533356,300.0,45.00000000000011,[1.50765484]
-9.720885938019047e-18,0.5981393931748771,1.4463891800717733e-17,0.5981393931748771,-8.910246869765549e-19,-0.05831913190636426,1.4463891800717733e-17,-0.05831913190636426,-1.3714027346429732e-17,0.6009757522678613,-1.0894938528520937e-17,-0.6009757522678613,0.4491198348946927,0.772387692683103,0.44911983489469276,300.0,45.00000000000011,[1.531299]
-1.2299398158887722e-17,0.4364399813125349,1.3039482016688202e-17,0.4364399813125349,-5.594766147153727e-18,-0.09635161446802654,1.3039482016688202e-17,-0.09635161446802654,-1.529893228345124e-17,0.4469490920660667,-9.838781178870869e-18,-0.44694909206606664,0.38045537274996516,0.84291602113815,0.380455372749965,300.0,45.00000000000011,[1.3501053]
-1.239544375417248e-17,0.42962108216396233,1.2078901004471768e-17,0.42962108216396233,-5.685945025304528e-18,-0.09485496521491205,1.2078901004471768e-17,-0.09485496521491205,-1.3388711893968499e-17,0.4399678836752249,-8.095403156704101e-18,-0.4399678836752248,0.5035364486898407,0.7020698609694386,0.5035364486898406,300.0,32.14285714285738,[1.32274242]
-9.386082930726984e-18,0.5897489839124843,1.1432370033180118e-17,0.5897489839124843,-1.1553450818390464e-18,-0.05658784410070785,1.1432370033180118e-17,-0.05658784410070785,-8.580276665202327e-18,0.592457634034514,-6.4884547084287435e-18,-0.5924576340345139,0.5600545198429943,0.6104734798554861,0.5600545198429944,300.0,32.14285714285738,[1.44511585]
-8.282576017105717e-18,0.6336719896868048,9.892087974688242e-18,0.6336719896868048,-4.345791871394344e-19,-0.03930752943713611,9.892087974688242e-18,-0.03930752943713611,-5.2500516549669e-18,0.6348899687222076,-4.025767306552358e-18,-0.6348899687222075,0.5742841825827291,0.5834341053371609,0.5742841825827291,300.0,32.14285714285738,[1.38562643]
-7.590450837525447e-18,0.6524326777475,8.118682534738735e-18,0.6524326777475,-2.02740313775522e-19,-0.03132755954644711,8.118682534738735e-18,-0.03132755954644711,-2.188208289606447e-18,0.6531843652292286,-1.4106045449354307e-18,-0.6531843652292286,0.5799922066965999,0.572029789733382,0.5799922066965998,300.0,32.14285714285738,[1.38562643]
-7.053517975749927e-18,0.6621574407715504,6.2509738520672376e-18,0.6621574407715504,-1.651461957059057e-19,-0.02693109898822368,6.2509738520672376e-18,-0.02693109898822368,7.825918552236631e-19,0.6627048818756679,1.2761195114397812e-18,-0.6627048818756678,0.5829416213268583,0.5660018836096106,0.5829416213268582,300.0,32.14285714285738,[1.38828492]
-6.593435155964258e-18,0.667496444577898,4.3442201506823104e-18,0.667496444577898,-1.9646614882930729e-19,-0.02429850927503819,4.3442201506823104e-18,-0.02429850927503819,3.702266034343402e-18,0.6679385608550568,3.993801006258067e-18,-0.6679385608550568,0.5846424545562176,0.5624823558663528,0.5846424545562176,300.0,32.14285714285738,[1.38828492]
-6.193177346800874e-18,0.6702201933796533,2.411741313192744e-18,0.6702201933796533,-2.5932649870935577e-19,-0.02270772199237218,2.411741313192744e-18,-0.02270772199237218,6.597013125703856e-18,0.6706047630698302,6.755055400489141e-18,-0.6706047630698301,0.5856422381632315,0.5603983741574572,0.5856422381632314,300.0,32.14285714285738,[1.38828492]
-5.777793712956344e-18,0.6710803912052389,4.667385217894241e-19,0.6710803912052389,-3.780608310158299e-19,-0.02183856182910296,4.667385217894241e-19,-0.02183856182910296,9.475718703445068e-18,0.6714356367090892,9.48983666159427e-18,-0.6714356367090893,0.5861715634115667,0.5592904401965756,0.5861715634115667,300.0,32.14285714285738,[1.38828492]
-5.413417344404285e-18,0.6703539176152196,-1.4953815057703676e-18,0.6703539176152196,-4.908601424272361e-19,-0.021557667871980588,-1.4953815057703676e-18,-0.021557667871980588,1.2341350278014574e-17,0.670700460642567,1.2229376318310221e-17,-0.670700460642567,0.5863231289999961,0.5589726082728098,0.5863231289999961,300.0,32.14285714285738,[1.38828492]
-5.076850788046259e-18,0.6680065934378651,-3.47590009810487e-18,0.6680065934378651,-6.519705239244956e-19,-0.021848523964636053,-3.47590009810487e-18,-0.021848523964636053,1.5194230036260962e-17,0.6683637982984229,1.4942722320574837e-17,-0.6683637982984227,0.5861065071331882,0.5594267821549735,0.5861065071331882,300.0,32.14285714285738,[1.38828492]
-4.778946653518962e-18,0.6636822594234356,-5.472104102804909e-18,0.6636822594234356,-8.358205140511441e-19,-0.02280619989288504,-5.472104102804909e-18,-0.02280619989288504,1.8034595379020035e-17,0.6640739900244179,1.763636751626075e-17,-0.664073990024418,0.585451337865333,0.5607971665258155,0.585451337865333,300.0,32.14285714285738,[1.38828492]
-4.529472289495419e-18,0.6565086708568756,-7.480733497678837e-18,0.6565086708568756,-1.0815642935120728e-18,-0.024692711877534915,-7.480733497678837e-18,-0.024692711877534915,2.0841860262387187e-17,0.656972879904588,2.024573958059485e-17,-0.656972879904588,0.584161542391787,0.5634807758751817,0.584161542391787,300.0,32.14285714285738,[1.38828492]
-4.3485050238035175e-18,0.644484513771054,-9.539274298629967e-18,0.644484513771054,-1.3978839500166385e-18,-0.028118872331745603,-9.539274298629967e-18,-0.028118872331745603,2.362491026050246e-17,0.6450976356117891,2.273264746162871e-17,-0.6450976356117891,0.581757210205074,0.5684338983108053,0.5817572102050739,300.0,32.14285714285738,[1.38562643]
-4.347555420460307e-18,0.6224025595510174,-1.1660539791840687e-17,0.6224025595510174,-1.868344577767398e-18,-0.03463596521554889,-1.1660539791840687e-17,-0.03463596521554889,2.6338537471348e-17,0.623365539809565,2.4940963344656548e-17,-0.623365539809565,0.576896571040609,0.5782565975785972,0.5768965710406089,300.0,32.14285714285738,[1.38562643]
-4.829682603570514e-18,0.5723077564034017,-1.3995317661751477e-17,0.5723077564034017,-2.8570173156703785e-18,-0.049080165365088635,-1.3995317661751477e-17,-0.049080165365088635,2.885237492166299e-17,0.5744084180021737,2.6256527937423844e-17,-0.5744084180021737,0.5643902346374994,0.6024344994201914,0.5643902346374996,300.0,32.14285714285738,[1.3942766]
-7.582040065057008e-18,0.3950529605076963,-1.7060268434480562e-17,0.3950529605076963,-7.642441620566243e-18,-0.0792352255892487,-1.7060268434480562e-17,-0.0792352255892487,3.0240016721334995e-17,0.402920665367358,2.2147997560533704e-17,-0.4029206653673581,0.5130520851937738,0.6881534100450579,0.5130520851937738,300.0,32.14285714285738,[1.29444959]
-7.369871546659607e-18,0.38956148104914373,-1.7172209287512503e-17,0.38956148104914373,-7.540528833196647e-18,-0.07493389175201719,-1.7172209287512503e-17,-0.07493389175201719,3.0905451264090016e-17,0.39670295644260734,2.3805170958440254e-17,-0.39670295644260717,0.6112969971826248,0.5026250714707857,0.6112969971826246,300.0,19.285714285714306,[1.27922049]
-3.76856869634259e-18,0.5655083061852177,-1.472657794518376e-17,0.5655083061852177,-2.5821410622159446e-18,-0.04389454458281719,-1.472657794518376e-17,-0.04389454458281719,3.037058718102649e-17,0.5672092871318372,2.789608517104661e-17,-0.5672092871318373,0.6473516605367933,0.40233276674975443,0.6473516605367934,300.0,19.285714285714306,[0.96281737]
-2.4236590471150724e-18,0.6164777672605735,-1.2992294891184352e-17,0.6164777672605735,-1.4102287934783799e-18,-0.030306243641018093,-1.2992294891184352e-17,-0.030306243641018093,2.8722245349237983e-17,0.617222250028473,2.7373335558673172e-17,-0.6172222500284729,0.6551540867542226,0.376226321804418,0.6551540867542225,300.0,19.285714285714306,[0.96928219]
-1.6189380425540847e-18,0.6385200371613172,-1.144146545270181e-17,0.6385200371613172,-7.484909208808582e-19,-0.023915630030028515,-1.144146545270181e-17,-0.023915630030028515,2.6907010729880168e-17,0.6389677575717128,2.6013389111346747e-17,-0.6389677575717128,0.658217485263585,0.36537581226261256,0.6582174852635854,300.0,19.285714285714306,[0.96928219]
-9.699519862796803e-19,0.6500808489280719,-9.959656067928271e-18,0.6500808489280719,-2.605304600909267e-19,-0.020277774455994692,-9.959656067928271e-18,-0.020277774455994692,2.503357899134557e-17,0.6503970312662345,2.4388264462274056e-17,-0.6503970312662346,0.6598205617583873,0.3595464539690144,0.6598205617583873,300.0,19.285714285714306,[0.96217583]
-4.020891870395766e-19,0.6565470716582448,-8.509136961173658e-18,0.6565470716582448,1.5966901927988583e-19,-0.017984544542391078,-8.509136961173658e-18,-0.017984544542391078,2.3131930467755558e-17,0.6567933473668975,2.264737593134495e-17,-0.6567933473668974,0.660781096832382,0.3560009608666647,0.660781096832382,300.0,19.285714285714306,[0.96092888]
9.550296480292236e-20,0.6599821371574579,-7.075002751390073e-18,0.6599821371574579,5.206539473204773e-19,-0.016474546121222785,-7.075002751390073e-18,-0.016474546121222785,2.1216919668550368e-17,0.6601877248456124,2.084884452354419e-17,-0.6601877248456124,0.6613905621153184,0.3537301919395154,0.6613905621153183,300.0,19.285714285714306,[0.96092888]
5.469715256894644e-19,0.6612687418123501,-5.653111641852884e-18,0.6612687418123501,8.722106707391894e-19,-0.0154939749240006,-5.653111641852884e-18,-0.0154939749240006,1.9282713316050273e-17,0.6614502340743661,1.9008163415270054e-17,-0.6614502340743662,0.6617726123427768,0.3522981962855239,0.661772612342777,300.0,19.285714285714306,[0.96152309]
9.761922368207803e-19,0.6607400937273539,-4.249712361704472e-18,0.6607400937273539,1.1760837405666696e-18,-0.014929334077547249,-4.249712361704472e-18,-0.014929334077547249,1.7348032161878572e-17,0.6609087353597558,1.714770299891498e-17,-0.6609087353597557,0.6619804822733933,0.3515162616127042,0.6619804822733932,300.0,19.285714285714306,[0.96152309]
1.3845216744014569e-18,0.658372551017085,-2.843705911662869e-18,0.658372551017085,1.4686293990858487e-18,-0.01475090489213463,-2.843705911662869e-18,-0.01475090489213463,1.5398293011835956e-17,0.6585377780567195,1.526487091898969e-17,-0.6585377780567195,0.6620276139489852,0.3513386923440492,0.6620276139489852,300.0,19.285714285714306,[0.96152309]
1.7266501931982897e-18,0.6537780638987347,-1.4513118559741682e-18,0.6537780638987347,1.728278084643794e-18,-0.01500326986834392,-1.4513118559741682e-18,-0.01500326986834392,1.3448079060121736e-17,0.653950193013138,1.3375524489592754e-17,-0.653950193013138,0.661892570732568,0.3518471964050092,0.661892570732568,300.0,19.285714285714306,[0.96152309]
2.0364921983259524e-18,0.6459905403474113,-7.937242587025548e-20,0.6459905403474113,1.9264738681339495e-18,-0.01583551460006742,-7.937242587025548e-20,-0.01583551460006742,1.1479347843214901e-17,0.6461846034539895,1.1470015982178467e-17,-0.6461846034539892,0.661502625524496,0.35331084451003825,0.6615026255244959,300.0,19.285714285714306,[0.96092888]
2.263311739732893e-18,0.6327868430427576,1.2777421698979054e-18,0.6327868430427576,2.0667438476882418e-18,-0.01760862819789374,1.2777421698979054e-18,-0.01760862819789374,9.49155673063362e-18,0.6330317942370913,9.55924685437186e-18,-0.6330317942370917,0.660671743796133,0.35640664121022414,0.6606717437961332,300.0,19.285714285714306,[0.96092888]
2.2421491509413364e-18,0.608394619069828,2.5857444677593787e-18,0.608394619069828,2.0269961648938437e-18,-0.021247230110316494,2.5857444677593787e-18,-0.021247230110316494,7.463610962396566e-18,0.6087655191454929,7.637240256455146e-18,-0.608765519145493,0.658868524022108,0.36302139896410723,0.658868524022108,300.0,19.285714285714306,[0.96544249]
1.6940923642882026e-18,0.5531026628979063,3.770247459395766e-18,0.5531026628979063,1.472563470079151e-18,-0.029609300434867283,3.770247459395766e-18,-0.029609300434867283,5.30679045472375e-18,0.55389463472487,5.7122746255092154e-18,-0.5538946347248699,0.6539876198403467,0.38026357463096044,0.6539876198403468,300.0,19.285714285714306,[0.966908]
-1.3712272275965046e-18,0.36525219346783183,4.5415627749188e-18,0.36525219346783183,-2.8786547061335406e-18,-0.045915278612654674,4.5415627749188e-18,-0.045915278612654674,2.2832534099403214e-18,0.3681268499351008,3.3559935249467734e-18,-0.3681268499351007,0.6330854417824854,0.44542748770832613,0.6330854417824853,300.0,19.285714285714306,[1.22465405]
-1.655022969596098e-18,0.36217449282988573,4.879977666355576e-18,0.36217449282988573,-2.8589843511670296e-18,-0.03966067341431566,4.879977666355576e-18,-0.03966067341431566,1.632639462220413e-18,0.3643395837296051,2.5445631665278864e-18,-0.3643395837296053,0.6898668277897619,0.2194709999762665,0.6898668277897618,300.0,6.428571428571418,[0.48414866]
1.0906872684879202e-18,0.549238101515723,4.226964274473804e-18,0.549238101515723,1.5418845141335449e-18,-0.0219948928582401,4.226964274473804e-18,-0.0219948928582401,3.0841760011284658e-18,0.5496783309067598,3.4171938236865794e-18,-0.5496783309067598,0.6989299402213571,0.1516373216735896,0.6989299402213571,300.0,6.428571428571418,[0.34171066]
1.3153362879675216e-18,0.604954528435517,3.181688394434433e-18,0.604954528435517,2.1085263947895203e-18,-0.014788303052874803,3.181688394434433e-18,-0.014788303052874803,3.683511368314987e-18,0.6051352537919289,3.835488136994715e-18,-0.6051352537919288,0.7005160125682037,0.13621538925939342,0.7005160125682037,300.0,6.428571428571418,[0.34203823]
9.761922368207803e-19,0.6292638400686321,2.0513043147597864e-18,0.6292638400686321,2.1732350797483185e-18,-0.011251446880810234,2.0513043147597864e-18,-0.011251446880810234,4.1683517038343685e-18,0.6293644218374856,4.241235264225532e-18,-0.6293644218374856,0.7011329718326021,0.12971164796720328,0.7011329718326021,300.0,6.428571428571418,[0.34203823]
4.1456968812177667e-19,0.6421495712205193,8.821136770326742e-19,0.6421495712205193,2.0788173759090658e-18,-0.009091673851726746,8.821136770326742e-19,-0.009091673851726746,4.61778540041403e-18,0.6422139288057548,4.6420062623880914e-18,-0.6422139288057548,0.7014694238380345,0.12602100952091946,0.7014694238380346,300.0,6.428571428571418,[0.34203823]
-2.230211280340971e-19,0.6494838004694087,-2.95258810928353e-19,0.6494838004694087,1.9019198388309255e-18,-0.00759125620326236,-2.95258810928353e-19,-0.00759125620326236,5.058537009284335e-18,0.6495281627788975,5.0507043073245485e-18,-0.6495281627788976,0.7016873544482672,0.1235706810484736,0.7016873544482672,300.0,6.428571428571418,[0.34203823]
-9.496033432108758e-19,0.6535241736717633,-1.491131606879435e-18,0.6535241736717633,1.690293950915359e-18,-0.006460665548094344,-1.491131606879435e-18,-0.006460665548094344,5.477854714122166e-18,0.6535561075934375,5.447715943517813e-18,-0.6535561075934376,0.7018436732389435,0.12178225104231766,0.7018436732389435,300.0,6.428571428571418,[0.34203823]
-1.695720255733707e-18,0.6552426199883247,-2.6868348308049436e-18,0.6552426199883247,1.4298313196346615e-18,-0.00556273797854057,-2.6868348308049436e-18,-0.00556273797854057,5.891339141280273e-18,0.6552662322315884,5.845105443618113e-18,-0.6552662322315883,0.7019632187167103,0.12039634187861176,0.7019632187167103,300.0,6.428571428571418,[0.34203823]
-2.5004412602946946e-18,0.6550144897397866,-3.88643821131864e-18,0.6550144897397866,1.1522758281761684e-18,-0.004826320068645726,-3.88643821131864e-18,-0.004826320068645726,6.304009622715629e-18,0.655032270300081,6.246301760066251e-18,-0.655032270300081,0.7020582328879619,0.11928317261233876,0.7020582328879619,300.0,6.428571428571418,[0.34203823]
-3.3013638514828394e-18,0.6528313743155975,-5.0941640918573004e-18,0.6528313743155975,8.546430088897883e-19,-0.0042143763817837744,-5.0941640918573004e-18,-0.0042143763817837744,6.712610375537223e-18,0.6528449772029185,6.6463933625683274e-18,-0.6528449772029185,0.7021349217473092,0.11837695436950818,0.7021349217473092,300.0,6.428571428571418,[0.34203823]
-4.176084188200514e-18,0.6482984087124046,-6.300702968216948e-18,0.6482984087124046,5.135997510566251e-19,-0.003712171342309717,-6.300702968216948e-18,-0.003712171342309717,7.108459312035699e-18,0.6483090366137981,7.035896735430862e-18,-0.6483090366137979,0.7021957966722294,0.11765256593762254,0.7021957966722292,300.0,6.428571428571418,[0.34203823]
-5.106152834065338e-18,0.6404139580281616,-7.512583363382156e-18,0.6404139580281616,1.5464968732291405e-19,-0.003326330714390062,-7.512583363382156e-18,-0.003326330714390062,7.50268035708867e-18,0.6404225965043061,7.424296189110722e-18,-0.6404225965043061,0.702239953829686,0.11712426943448233,0.7022399538296858,300.0,6.428571428571418,[0.34203823]
-6.136065488587762e-18,0.6268634353651651,-8.723565026811825e-18,0.6268634353651651,-3.1255515753683683e-19,-0.0030965207837369006,-8.723565026811825e-18,-0.0030965207837369006,7.87953722672293e-18,0.6268710832689451,7.793028654994877e-18,-0.6268710832689455,0.7022609937505945,0.11687169594411789,0.7022609937505948,300.0,6.428571428571418,[0.34203823]
-7.388456640662448e-18,0.6016372401872545,-9.942058730974395e-18,0.6016372401872545,-9.422778317061062e-19,-0.0031375630270172408,-9.942058730974395e-18,-0.0031375630270172408,8.226820735097193e-18,0.6016454213919397,8.1227373374476e-18,-0.6016454213919399,0.7022382137647619,0.11714513330460245,0.702238213764762,300.0,6.428571428571418,[0.34203823]
-9.198671928063295e-18,0.5443002459426678,-1.1181494580295276e-17,0.5443002459426678,-2.067150820549618e-18,-0.003763184334413213,-1.1181494580295276e-17,-0.003763184334413213,8.48212837680046e-18,0.544313254743611,8.326717819429837e-18,-0.5443132547436111,0.7020964904810085,0.11883196585305442,0.7020964904810086,300.0,6.428571428571418,[0.32663346]
-1.3661265010672578e-17,0.35291072436165355,-1.2435649281435927e-17,0.35291072436165355,-6.997762693741402e-18,-0.002992667241577832,-1.2435649281435927e-17,-0.002992667241577832,7.963644951407322e-18,0.35292341297608154,7.751153269282445e-18,-0.3529234129760816,0.7019640384210657,0.12038678302528559,0.7019640384210656,300.0,6.428571428571418,[0.28042204]
-1.3613513528271117e-17,0.3528533114316591,-1.3172541475767566e-17,0.3528533114316591,-7.137218727572942e-18,0.003975297296160383,-1.3172541475767566e-17,0.003975297296160383,8.68290165507933e-18,0.35287570386310285,8.976908987431923e-18,-0.35287570386310285,0.7017241597021697,0.12315196864268164,0.7017241597021697,300.0,6.428571428571418,[0.28042204]
-9.095572136514686e-18,0.5441281354428861,-1.4021452950192973e-17,0.5441281354428861,-2.4673408009027726e-18,0.004768479792239799,-1.4021452950192973e-17,0.004768479792239799,1.0633115606793552e-17,0.5441490293844885,1.0877330031421428e-17,-0.5441490293844884,0.7019398728862691,0.12066826303886426,0.701939872886269,300.0,6.428571428571418,[0.32663346]
-7.20504753780229e-18,0.601350682786955,-1.485025318238538e-17,0.601350682786955,-1.614325683458489e-18,0.004165508118085818,-1.485025318238538e-17,0.004165508118085818,1.1820662416288982e-17,0.6013651096848063,1.202544784320425e-17,-0.6013651096848063,0.7020953882338825,0.11884498997192929,0.7020953882338825,300.0,6.428571428571418,[0.34203823]
-5.88645546694376e-18,0.6264627767299994,-1.5665029808062868e-17,0.6264627767299994,-1.2605306093022082e-18,0.004147205745071426,-1.5665029808062868e-17,0.004147205745071426,1.2915148098149747e-17,0.6264765039039796,1.3121661509355594e-17,-0.6264765039039795,0.7021211433848461,0.11854028861072305,0.702121143384846,300.0,6.428571428571418,[0.34203823]
-4.797938720383179e-18,0.6398996380664157,-1.6475753662329153e-17,0.6398996380664157,-1.0651836358416852e-18,0.004399855962283376,-1.6475753662329153e-17,0.004399855962283376,1.397816121206409e-17,0.6399147642694445,1.4203901750329567e-17,-0.6399147642694446,0.702099678576775,0.11879428725649216,0.702099678576775,300.0,6.428571428571418,[0.34203823]
-3.802754416698181e-18,0.6476709606781185,-1.7280152480041552e-17,0.6476709606781185,-9.620838442930759e-19,0.004808625735378588,-1.7280152480041552e-17,0.004808625735378588,1.501892647622321e-17,0.6476888112258695,1.527459712812676e-17,-0.6476888112258695,0.7020534897613172,0.11933899206844398,0.7020534897613172,300.0,6.428571428571418,[0.34203823]
-2.8564068563783143e-18,0.6520914237727774,-1.8077615801908e-17,0.6520914237727774,-8.893713597272145e-19,0.005333831908436253,-1.8077615801908e-17,0.005333831908436253,1.6054265435563983e-17,0.6521132376518941,1.63486799905366e-17,-0.6521132376518941,0.7019895751104901,0.12008860425697065,0.7019895751104901,300.0,6.428571428571418,[0.34203823]
-1.9697486490602737e-18,0.6541627533986143,-1.8875740454674183e-17,0.6541627533986143,-8.627824661173101e-19,0.005968830405631305,-1.8875740454674183e-17,0.005968830405631305,1.7083635459604573e-17,0.6541899837741842,1.742644863203036e-17,-0.6541899837741842,0.7019090393503924,0.12102644734279587,0.7019090393503924,300.0,6.428571428571418,[0.34203823]
-1.1123924877613116e-18,0.6542799044255599,-1.967110108342352e-17,0.6542799044255599,-8.551856393716231e-19,0.006728338326791585,-1.967110108342352e-17,0.006728338326791585,1.8110292331235988e-17,0.6543144992064288,1.8512661674798192e-17,-0.6543144992064287,0.701809374782325,0.12217693290995606,0.701809374782325,300.0,6.428571428571418,[0.34203823]
-2.734857628447322e-19,0.652451373942958,-2.0461137150569855e-17,0.652451373942958,-8.812319024996927e-19,0.007649373051459632,-2.0461137150569855e-17,0.007649373051459632,1.9126639223712542e-17,0.6524962132212986,1.9603862499221784e-17,-0.6524962132212986,0.7016842164378511,0.1236063137707687,0.701684216437851,300.0,6.428571428571418,[0.34203823]
4.992200432880033e-19,0.6483018986579315,-2.1248460065307015e-17,0.6483018986579315,-9.23557080082806e-19,0.008803070787742633,-2.1248460065307015e-17,0.008803070787742633,2.0147327160043775e-17,0.6483616628539763,2.072084327817034e-17,-0.6483616628539761,0.7015209380410788,0.12544619157204445,0.7015209380410786,300.0,6.428571428571418,[0.34203823]
1.2176628012372601e-18,0.6408596349751351,-2.2028016581272915e-17,0.6408596349751351,-1.0196026753675632e-18,0.010326579622052216,-2.2028016581272915e-17,0.010326579622052216,2.1150650920956295e-17,0.6409428289536858,2.1855092961267856e-17,-0.6409428289536857,0.7012938726467096,0.12796018277714785,0.7012938726467095,300.0,6.428571428571418,[0.34203823]
1.8362615505289163e-18,0.6278670213000571,-2.2783866928063657e-17,0.6278670213000571,-1.1970428429275383e-18,0.012509414733452653,-2.2783866928063657e-17,0.012509414733452653,2.2135525245486432e-17,0.6279916256552949,2.3035189911129446e-17,-0.6279916256552948,0.7009441615474028,0.1317367252713426,0.7009441615474027,300.0,6.428571428571418,[0.34203823]
2.268195414069406e-18,0.6034520627704598,-2.3514654529474655e-17,0.6034520627704598,-1.5356442635924448e-18,0.01606929701770149,-2.3514654529474655e-17,0.01606929701770149,2.3087299110624647e-17,0.6036659791379388,2.432712250632203e-17,-0.603665979137939,0.7003041562766507,0.1383769395647162,0.7003041562766507,300.0,6.428571428571418,[0.34203823]
2.0923831379549354e-18,0.5476313113028417,-2.4149328706790667e-17,0.5476313113028417,-2.3864888591093895e-18,0.02329889239333598,-2.4149328706790667e-17,0.02329889239333598,2.3934345292768748e-17,0.5481267111772844,2.5945254415125042e-17,-0.5481267111772846,0.6986603064049911,0.15410240915757292,0.6986603064049912,300.0,6.428571428571418,[0.34342144]
-5.816998765268908e-19,0.36046480654148977,-2.4397378665799394e-17,0.36046480654148977,-7.034661566506168e-18,0.040987767862599125,-2.4397378665799394e-17,0.040987767862599125,2.3916981117350035e-17,0.3627876429391608,2.9112403953869753e-17,-0.362787642939161,0.6892169600709914,0.22351725638304393,0.6892169600709913,300.0,6.428571428571418,[0.47845588]
-5.230957844887339e-19,0.36344110952545033,-2.377552413361673e-17,0.36344110952545033,-6.971716430613333e-18,0.047283891024222355,-2.377552413361673e-17,0.047283891024222355,2.2843658024280828e-17,0.366504033324984,2.8579554424928375e-17,-0.36650403332498394,0.6317184370644913,0.44929236867054867,0.6317184370644915,300.0,19.28571428571425,[1.22465405]
2.0185853924254045e-18,0.5511930071708672,-2.2843793681901286e-17,0.5511930071708672,-2.190056624685197e-18,0.031042641299042807,-2.2843793681901286e-17,0.031042641299042807,2.1006853843270076e-17,0.552066460431065,2.351404513969192e-17,-0.552066460431065,0.6532382585975708,0.3828309744636997,0.6532382585975709,300.0,19.28571428571425,[0.966908]
2.0511432213354917e-18,0.60638803444449,-2.1498782289458425e-17,0.60638803444449,-1.2100659744915731e-18,0.02274437304922412,-2.1498782289458425e-17,0.02274437304922412,1.8288817759759633e-17,0.6068144319500437,1.988171629996724e-17,-0.606814431950044,0.6582037672225983,0.36542523397811405,0.6582037672225983,300.0,19.28571428571425,[0.96544249]
1.5280474368467578e-18,0.630685122399963,-2.003018680477769e-17,0.630685122399963,-7.542563697503528e-19,0.01916896557712472,-2.003018680477769e-17,0.01916896557712472,1.5453573492172875e-17,0.6309763647379779,1.6662122765219528e-17,-0.6309763647379777,0.6600232493929644,0.3588016450930874,0.6600232493929642,300.0,19.28571428571425,[0.96092888]
8.030931131154836e-19,0.6437955597489936,-1.8512890234352285e-17,0.6437955597489936,-4.482127779955334e-19,0.017458482817447708,-1.8512890234352285e-17,0.017458482817447708,1.2567864589775484e-17,0.6440322362854262,1.3559727773595426e-17,-0.6440322362854263,0.6608501373574147,0.3557445599153584,0.6608501373574149,300.0,19.28571428571425,[0.96092888]
-2.387574120073059e-20,0.6514917643495486,-1.697290492690516e-17,0.6514917643495486,-2.203079756249232e-19,0.01668828760414385,-1.697290492690516e-17,0.01668828760414385,9.669132555814054e-18,0.6517054687191497,1.0534500615654185e-17,-0.6517054687191496,0.6612270960554661,0.3543408738546975,0.6612270960554663,300.0,19.28571428571425,[0.96092888]
-9.00766599845745e-19,0.6559969309892907,-1.5422067009821343e-17,0.6559969309892907,-5.643357011081776e-20,0.016497358476097727,-1.5422067009821343e-17,0.016497358476097727,6.754664237879419e-18,0.6562043403575266,7.523781306793402e-18,-0.6562043403575268,0.6613439513725589,0.3539044446822631,0.661343951372559,300.0,19.28571428571425,[0.96092888]
-1.831920506674238e-18,0.6582772042201267,-1.3860410397505944e-17,0.6582772042201267,1.0418505251227895e-19,0.0167365738737274,-1.3860410397505944e-17,0.0167365738737274,3.837482767535608e-18,0.6584899319662357,4.539246991959447e-18,-0.6584899319662356,0.6612748313640782,0.354162667158497,0.661274831364078,300.0,19.28571428571425,[0.96092888]
-2.793461720485479e-18,0.6587206823044899,-1.2287460288287356e-17,0.6587206823044899,2.2139323658859275e-19,0.01736131527352494,-1.2287460288287356e-17,0.01736131527352494,9.029371217730842e-19,0.6589494309609193,1.5453215015549374e-18,-0.6589494309609193,0.6610414752322515,0.35503286614838514,0.6610414752322515,300.0,19.28571428571425,[0.96092888]
-3.778878675497451e-18,0.6573510520333864,-1.0706777694702624e-17,0.6573510520333864,3.179814623551847e-19,0.018401266846311062,-1.0706777694702624e-17,0.018401266846311062,-2.0316085239894394e-18,0.6576085554727439,-1.437282236230271e-18,-0.6576085554727439,0.6606299448269487,0.35656156831027785,0.6606299448269487,300.0,19.28571428571425,[0.96092888]
-4.803365025201527e-18,0.6538351470981497,-9.1117832221595e-18,0.6538351470981497,3.841823811390286e-19,0.019969893537977113,-9.1117832221595e-18,0.019969893537977113,-4.9824330842070065e-18,0.6541400432849046,-4.425261531928456e-18,-0.6541400432849046,0.6599855178061489,0.35894043039520956,0.6599855178061489,300.0,19.28571428571425,[0.96217583]
-5.8907965107984385e-18,0.6472903105226615,-7.499255002172089e-18,0.6472903105226615,3.9937603463040266e-19,0.022320971734064592,-7.499255002172089e-18,0.022320971734064592,-7.949536558879617e-18,0.6476750511449985,-7.436957520614105e-18,-0.6476750511449986,0.6589811997805625,0.3626121297909666,0.6589811997805625,300.0,19.28571428571425,[0.96928219]
-7.045514176142863e-18,0.635653149185166,-5.849556594178995e-18,0.635653149185166,3.407719425922457e-19,0.02601587501301198,-5.849556594178995e-18,0.02601587501301198,-1.0943771557643967e-17,0.6361853124850587,-1.0468987229809727e-17,-0.6361853124850587,0.6573176231878322,0.36860152535413926,0.6573176231878322,300.0,19.28571428571425,[0.96928219]
-8.406431424584507e-18,0.6135368369301126,-4.140372319614762e-18,0.6135368369301126,1.063555744396181e-19,0.03246273255904148,-4.140372319614762e-18,0.03246273255904148,-1.3997695909410144e-17,0.6143950514737302,-1.3545491559280354e-17,-0.6143950514737304,0.6541543464036774,0.3796895865866689,0.6541543464036774,300.0,19.28571428571425,[0.96544249]
-1.0264398194386815e-17,0.5624957089752906,-2.2384863951889516e-18,0.5624957089752906,-6.272808370010128e-19,0.046106531305162284,-2.2384863951889516e-18,0.046106531305162284,-1.7223091493436113e-17,0.564382170913122,-1.686345314928623e-17,-0.5643821709131221,0.6461164314162827,0.4062845235887973,0.6461164314162828,300.0,19.28571428571425,[0.96631199]
-1.4405754031749903e-17,0.3864797808914295,3.69260042888572e-19,0.3864797808914295,-5.153904316466799e-18,0.0772009452867152,3.69260042888572e-19,0.0772009452867152,-2.1557623782332384e-17,0.394114966717898,-2.1977069960787896e-17,-0.3941149667178978,0.6087489313179707,0.5087725201290423,0.6087489313179707,300.0,19.28571428571425,[1.27900125]
-1.431459211080166e-17,0.3919059981404788,1.0280812766462317e-18,0.3919059981404788,-5.133284358157077e-18,0.0815693641129659,1.0280812766462317e-18,0.0815693641129659,-2.2920711552701367e-17,0.4003047246039928,-2.392493939149984e-17,-0.40030472460399297,0.5095043868186336,0.6934050473028998,0.5095043868186335,300.0,32.142857142857125,[1.29444959]
-1.0533542913376869e-17,0.5691035781566687,-6.521740103551836e-19,0.5691035781566687,-5.448010037621253e-19,0.051502221921917196,-6.521740103551836e-19,0.051502221921917196,-2.0822902109928084e-17,0.5714292270558252,-2.073298825100319e-17,-0.5714292270558253,0.562380922603587,0.606180992594684,0.5623809226035869,300.0,32.142857142857125,[1.3942766]
-8.988131301111398e-18,0.6191429943228575,-1.6001155477154405e-18,0.6191429943228575,2.4961002164400163e-19,0.03714397501374333,-1.6001155477154405e-18,0.03714397501374333,-1.9854849330334825e-17,0.6202561747366128,-1.9660976894015783e-17,-0.620256174736613,0.5751209800128166,0.5817832213962474,0.5751209800128165,300.0,32.142857142857125,[1.38562643]
-7.920234512860539e-18,0.6411716663658635,-2.347080320366138e-18,0.6411716663658635,5.274368283434121e-19,0.03071138175296091,-2.347080320366138e-18,0.03071138175296091,-1.9088655089984107e-17,0.6419067648183451,-1.8835793604415114e-17,-0.641906764818345,0.5800396996401257,0.5719334696298042,0.5800396996401255,300.0,32.142857142857125,[1.38562643]
-7.047684698070203e-18,0.6531447206378572,-3.0149227858843012e-18,0.6531447206378572,6.533271001290825e-19,0.027368369662790507,-3.0149227858843012e-18,0.027368369662790507,-1.839517333419925e-17,0.653717870151263,-1.811682168445161e-17,-0.6537178701512628,0.5824494591190185,0.5670143341608975,0.5824494591190184,300.0,32.142857142857125,[1.38777609]
-6.246762106882059e-18,0.6602694118500788,-3.652683174065748e-18,0.6602694118500788,6.967375386758654e-19,0.02556366509921204,-3.652683174065748e-18,0.02556366509921204,-1.7730993624433472e-17,0.6607641010210479,-1.743434883104071e-17,-0.6607641010210477,0.5837216066660565,0.5643918601666715,0.5837216066660565,300.0,32.142857142857125,[1.38828492]
-5.474056300749323e-18,0.6645470656210365,-4.265855618539057e-18,0.6645470656210365,6.880554509665088e-19,0.024686443815233147,-4.265855618539057e-18,0.024686443815233147,-1.7089604394904755e-17,0.6650054307550974,-1.6752564977408507e-17,-0.6650054307550975,0.5843462537259022,0.5630976038956362,0.5843462537259023,300.0,32.142857142857125,[1.38828492]
-4.7642956305094224e-18,0.6668499320230413,-4.858611591133331e-18,0.6668499320230413,6.381334466377085e-19,0.024474671768632918,-4.858611591133331e-18,0.024474671768632918,-1.6460153035976403e-17,0.6672989145782549,-1.608437789353621e-17,-0.6672989145782549,0.584523480240357,0.5627295994484405,0.584523480240357,300.0,32.142857142857125,[1.38828492]
-4.0588760041242004e-18,0.6675341722169122,-5.441566300649465e-18,0.6675341722169122,5.795293545995516e-19,0.02483326043191796,-5.441566300649465e-18,0.02483326043191796,-1.5845895330539425e-17,0.6679959295542135,-1.5422744048947455e-17,-0.6679959295542134,0.5843248972780574,0.563141926020409,0.5843248972780573,300.0,32.142857142857125,[1.38828492]
-3.399037338213101e-18,0.6666339652968049,-6.008750811787275e-18,0.6666339652968049,4.79685345941951e-19,0.025778708399277418,-6.008750811787275e-18,0.025778708399277418,-1.5245746017630152e-17,0.6671322099060095,-1.4766629627207257e-17,-0.6671322099060095,0.583740359771885,0.564353067455809,0.5837403597718849,300.0,32.142857142857125,[1.38828492]
-2.7652449354300702e-18,0.6638724308671806,-6.554603162107956e-18,0.6638724308671806,3.646476837929763e-19,0.027444361590597814,-6.554603162107956e-18,0.027444361590597814,-1.46662166630306e-17,0.6644394610862716,-1.410906901355067e-17,-0.6644394610862715,0.5826745644255014,0.5665515898337101,0.5826745644255013,300.0,32.142857142857125,[1.38828492]
-2.177033493121162e-18,0.6584978650667418,-7.085227944532147e-18,0.6584978650667418,1.9317645153318387e-19,0.030150384782120534,-7.085227944532147e-18,0.030150384782120534,-1.410839252770444e-17,0.6591877456384991,-1.3434577969283313e-17,-0.6591877456384991,0.5808907658474058,0.5702033289155971,0.5808907658474058,300.0,32.142857142857125,[1.38828492]
-1.6495966647777501e-18,0.6487397686567882,-7.566032465842882e-18,0.6487397686567882,-5.2092526256139477e-20,0.03461884472365649,-7.566032465842882e-18,0.03461884472365649,-1.3596149352852403e-17,0.6496627985708155,-1.275781040225168e-17,-0.6496627985708157,0.5778268578141245,0.5763959097506778,0.5778268578141244,300.0,32.142857142857125,[1.38562643]
-1.276266893275417e-18,0.6299479970820281,-7.959812623629363e-18,0.6299479970820281,-4.536390828138812e-19,0.04266940111294438,-7.959812623629363e-18,0.04266940111294438,-1.3176153359912279e-17,0.6313914449998477,-1.201154552681047e-17,-0.631391444999848,0.5719318441818583,0.5880373552942678,0.5719318441818583,300.0,32.142857142857125,[1.38562643]
-1.3196773318222e-18,0.585996243856339,-8.120804304708722e-18,0.585996243856339,-1.3782814238603568e-18,0.06001899408927343,-8.120804304708722e-18,0.06001899408927343,-1.3029643129816887e-17,0.5890618621717303,-1.1243423206938787e-17,-0.5890618621717301,0.5572774764671566,0.615535237370531,0.5572774764671569,300.0,32.142857142857125,[1.4456773]
-3.2753175883547696e-18,0.4258423012926488,-7.385573916227701e-18,0.4258423012926488,-6.094825571968318e-18,0.09835454834939596,-7.385573916227701e-18,0.09835454834939596,-1.4356917288384772e-17,0.43705295188481763,-1.0967990591022067e-17,-0.4370529518848178,0.49870584550618957,0.7089322670861535,0.4987058455061897,300.0,32.142857142857125,[1.32274242]
-3.1407452288597426e-18,0.43263873871782244,-7.100828570884897e-18,0.43263873871782244,-6.110019225459692e-18,0.099926631914307,-7.100828570884897e-18,0.099926631914307,-1.4379707768621833e-17,0.4440288391592213,-1.00563146511615e-17,-0.4440288391592215,0.37465146119057663,0.848099384067417,0.3746514611905766,300.0,45.0,[1.33691592]
-1.5215358710647404e-18,0.5943281482002923,-7.413248070801275e-18,0.5943281482002923,-1.4130097746977831e-18,0.061987839834032055,-7.413248070801275e-18,0.061987839834032055,-1.2492438952800448e-17,0.5975520396002999,-1.0936204367147187e-17,-0.5975520396002999,0.4454342660451302,0.7766444677364749,0.4454342660451302,300.0,45.0,[1.531299]
-1.786339546200116e-18,0.6370925918064747,-6.827173236014592e-18,0.6370925918064747,-5.10072652924699e-19,0.04441302787817645,-6.827173236014592e-18,0.04441302787817645,-1.2109341832625088e-17,0.6386387770719835,-1.116110081528701e-17,-0.6386387770719836,0.464017833872852,0.7545693471748591,0.46401783387285184,300.0,45.0,[1.53049997]
-2.428814036692503e-18,0.6558368433776218,-5.986469047626934e-18,0.6558368433776218,-1.2371974985833124e-19,0.03639740654412045,-5.986469047626934e-18,0.03639740654412045,-1.2031203043240879e-17,0.6568460522334446,-1.1322789666127077e-17,-0.6568460522334448,0.47152558405980255,0.7452028228302172,0.47152558405980255,300.0,45.0,[1.50688313]
-3.2123724524619344e-18,0.6660755157068267,-5.059520527032661e-18,0.6660755157068267,1.0418505251227895e-19,0.03208460811691353,-5.059520527032661e-18,0.03208460811691353,-1.2058334567332618e-17,0.6668478197476029,-1.155786063490544e-17,-0.6668478197476028,0.4753640102099116,0.7403094728519299,0.4753640102099116,300.0,45.0,[1.51607529]
-4.054534960269522e-18,0.6722348004480061,-4.0895685407529805e-18,0.6722348004480061,2.474394997166625e-19,0.029603963834942276,-4.0895685407529805e-18,0.029603963834942276,-1.2137558617680497e-17,0.6728863363214554,-1.176210231389358e-17,-0.6728863363214556,0.47751812001875893,0.737531619734029,0.47751812001875893,300.0,45.0,[1.51607529]
-4.9444489504785714e-18,0.6760077625425729,-3.095689941664898e-18,0.6760077625425729,3.4294246451958485e-19,0.028215816333037675,-3.095689941664898e-18,0.028215816333037675,-1.2250425757902132e-17,0.6765963547855953,-1.1989468082938071e-17,-0.6765963547855953,0.47871374241649,0.7359798269267963,0.47871374241648995,300.0,45.0,[1.51420667]
-5.843045028396977e-18,0.6781330899777263,-2.0848371828169204e-18,0.6781330899777263,4.1891073197645496e-19,0.02759710279206778,-2.0848371828169204e-18,0.02759710279206778,-1.2383912856433491e-17,0.6786943994208695,-1.2203892754137553e-17,-0.6786943994208696,0.47925545557821114,0.7352743818446573,0.47925545557821114,300.0,45.0,[1.52481124]
-6.7807105010074886e-18,0.6789162988713069,-1.0481755616766761e-18,0.6789162988713069,4.601506485958987e-19,0.0276210792668371,-1.0481755616766761e-18,0.0276210792668371,-1.2541275696165579e-17,0.6794779355453557,-1.2446202092775872e-17,-0.6794779355453558,0.47926149292966647,0.7352665114022632,0.4792614929296665,300.0,45.0,[1.52481124]
-7.727058061327355e-18,0.6783953302455876,-1.3565762045869654e-21,0.6783953302455876,4.775148240146118e-19,0.028287768906336382,-1.3565762045869654e-21,0.028287768906336382,-1.2712746928425372e-17,0.6789848466414535,-1.2691991449302087e-17,-0.6789848466414535,0.4787349559824189,0.7359522293199628,0.4787349559824189,300.0,45.0,[1.52481124]
-8.70379292862997e-18,0.6763526732400807,1.0601812610872708e-18,0.6763526732400807,4.6449169245057695e-19,0.02972396269614791,1.0601812610872708e-18,0.02972396269614791,-1.2912434945740573e-17,0.6770055040820314,-1.3008332094622254e-17,-0.6770055040820315,0.4775653274936907,0.7374704848003669,0.4775653274936907,300.0,45.0,[1.51607529]
-9.706574059060655e-18,0.672183446790389,2.1491897665220146e-18,0.672183446790389,4.015465565577418e-19,0.03225277339571174,2.1491897665220146e-18,0.03225277339571174,-1.3153362879675218e-17,0.6729567798385889,-1.3356813858240129e-17,-0.6729567798385888,0.47546194092001515,0.7401836836037016,0.47546194092001515,300.0,45.0,[1.51607529]
-1.0761447715747479e-17,0.6644507966395782,3.2869841437142175e-18,0.6644507966395782,2.669741970627148e-19,0.03661391640816239,3.2869841437142175e-18,0.03661391640816239,-1.345289490564802e-17,0.665458819183963,-1.3833283120954974e-17,-0.6654588191839629,0.4717323312367536,0.7449410817855839,0.4717323312367536,300.0,45.0,[1.50688313]
-1.192484746880126e-17,0.6493468973322845,4.509479747680318e-18,0.6493468973322845,-3.9069394692104603e-20,0.04467814330187049,4.509479747680318e-18,0.04467814330187049,-1.3893510856897865e-17,0.6508821164880523,-1.452690186568458e-17,-0.6508821164880523,0.46449943754255296,0.7539764883902572,0.46449943754255296,300.0,45.0,[1.53049997]
-1.3409484467101237e-17,0.6133870279463113,5.9797879098193434e-18,0.6133870279463113,-8.508445955169448e-19,0.06230200171270634,5.9797879098193434e-18,0.06230200171270634,-1.47161386673594e-17,0.6165429307600725,-1.5973795908642727e-17,-0.616542930760072,0.44691537177648716,0.7749408370577519,0.44691537177648716,300.0,45.0,[1.531299]
-1.6357053244427794e-17,0.47066273232984096,8.352558392059847e-18,0.47066273232984096,-5.463203691112627e-18,0.10029088639870838,8.352558392059847e-18,0.10029088639870838,-1.7414097423041957e-17,0.4812293315030064,-2.0914209142785435e-17,-0.481229331503006,0.38481844485077793,0.8389454863131798,0.38481844485077815,300.0,45.0,[1.47613123]
-1.5471480298073423e-17,0.4774757049158709,8.716129293490433e-18,0.4774757049158709,-5.521807783150784e-18,0.09876331227490992,8.716129293490433e-18,0.09876331227490992,-1.6611004309926474e-17,0.4875830602435027,-2.0072632872041855e-17,-0.48758306024350273,0.24712921514041133,0.9369387931173354,0.24712921514041136,300.0,57.8571428571429,[1.47900438]
-1.1325783416855657e-17,0.621771130925233,7.212042383857192e-18,0.621771130925233,-1.0179747839220588e-18,0.06047814229340087,7.212042383857192e-18,0.06047814229340087,-1.169911318835799e-17,0.6247054865673138,-1.3172746022931889e-17,-0.6247054865673138,0.31647349396129765,0.8942533507009393,0.31647349396129776,300.0,57.8571428571429,[1.51596808]
-8.643018314664474e-18,0.6565790906147493,6.5943169304972395e-18,0.6565790906147493,-3.2774881102821084e-19,0.043178793241581734,6.5943169304972395e-18,0.043178793241581734,-8.697281362847952e-18,0.6579973483368229,-9.552002388735167e-18,-0.6579973483368229,0.33610340110695386,0.8798119159960703,0.33610340110695386,300.0,57.8571428571429,[1.53657425]
-6.2380800191727024e-18,0.6716709133018604,6.221207602628152e-18,0.6716709133018604,-1.367428814223661e-19,0.03517888757879472,6.221207602628152e-18,0.03517888757879472,-6.112189747387031e-18,0.6725915327351634,-6.751899855443407e-18,-0.6725915327351634,0.3443731755110975,0.8733923700014821,0.3443731755110974,300.0,57.8571428571429,[1.53657425]
-3.919962600774495e-18,0.6799197419763209,5.933647361660829e-18,0.6799197419763209,-1.1286714022163552e-19,0.030761622565295733,5.933647361660829e-18,0.030761622565295733,-3.6703525791304936e-18,0.6806152605929411,-4.2068391764173e-18,-0.6806152605929411,0.34875862806582864,0.8699050745335852,0.3487586280658285,300.0,57.8571428571429,[1.55749381]
-1.6539377086324284e-18,0.6849095191841793,5.6883359908651126e-18,0.6849095191841793,-1.6278914455043585e-19,0.028107378157467947,5.6883359908651126e-18,0.028107378157467947,-1.3109952441128433e-18,0.685486013114776,-1.7840607003740303e-18,-0.685486013114776,0.3513372592067578,0.8678273218712159,0.35133725920675785,300.0,57.8571428571429,[1.55749381]
5.947230080909256e-19,0.6879997207314432,5.4716695744893775e-18,0.6879997207314432,-2.7999732862674966e-19,0.026494098491146336,5.4716695744893775e-18,0.026494098491146336,1.0158042619947197e-18,0.6885096607756513,5.944872805647272e-19,-0.6885096607756513,0.3528857261642581,0.8665698636226906,0.3528857261642581,300.0,57.8571428571429,[1.55755671]
2.8129964178315314e-18,0.6897822603928019,5.268111075690464e-18,0.6897822603928019,-4.0805812233975924e-19,0.025601617010978198,5.268111075690464e-18,0.025601617010978198,3.3035343734101785e-18,0.6902572053562208,2.9195995443668147e-18,-0.6902572053562207,0.3537379658171223,0.8658746462849741,0.3537379658171224,300.0,57.8571428571429,[1.5365076]
5.031269827572137e-18,0.6905033278745827,5.0736077230571685e-18,0.6905033278745827,-5.665062230355167e-19,0.025296578560355932,5.0736077230571685e-18,0.025296578560355932,5.569559265552245e-18,0.6909665423830113,5.2050899000387066e-18,-0.6909665423830114,0.3540317320467558,0.8656344871872586,0.35403173204675586,300.0,57.8571428571429,[1.53635797]
7.227838018039352e-18,0.6901971404434658,4.905119103753438e-18,0.6901971404434658,-7.51000586859344e-19,0.02556247015968235,4.905119103753438e-18,0.02556247015968235,7.803026328784225e-18,0.6906703501360124,7.442940408442665e-18,-0.6906703501360123,0.3537862848228276,0.8658351629164307,0.3537862848228276,300.0,57.8571428571429,[1.5365076]
9.424406208506566e-18,0.688696865722681,4.743266579688005e-18,0.688696865722681,-9.658822576659194e-19,0.026494362441863692,4.743266579688005e-18,0.026494362441863692,1.0012617650815474e-17,0.6892063000999378,9.643471883739405e-18,-0.6892063000999377,0.35290934212736313,0.8665506289181629,0.352909342127363,300.0,57.8571428571429,[1.55755671]
1.1573222916572319e-17,0.6855312140274573,4.609198696969059e-18,0.6855312140274573,-1.230685932801295e-18,0.028354270221534035,4.609198696969059e-18,0.028354270221534035,1.2167945924663245e-17,0.6861173442245538,1.1785753899664498e-17,-0.686117344224554,0.3511394115902853,0.8679874580061954,0.3511394115902854,300.0,57.8571428571429,[1.55749381]
1.370467544921936e-17,0.6795716188241956,4.508097735671895e-18,0.6795716188241956,-1.5692873534662018e-18,0.031753001943575124,4.508097735671895e-18,0.031753001943575124,1.4240794365272128e-17,0.6803130442992892,1.3840559997554508e-17,-0.6803130442992893,0.3478485651822658,0.8706335345030526,0.34784856518226576,300.0,57.8571428571429,[1.55749381]
1.5762330236336868e-17,0.6677913493409511,4.480881425567369e-18,0.6677913493409511,-2.072848440608883e-18,0.03824183341036172,4.480881425567369e-18,0.03824183341036172,1.613783052976654e-17,0.6688854341942229,1.5636180854529068e-17,-0.668885434194223,0.3413575842785631,0.8757568151667491,0.341357584278563,300.0,57.8571428571429,[1.53657425]
1.7628979093848533e-17,0.6391462648398132,4.664722937092739e-18,0.6391462648398132,-3.0929937464582815e-18,0.05265691919558706,4.664722937092739e-18,0.05265691919558706,1.755735187024634e-17,0.6413117019031035,1.68523888932614e-17,-0.6413117019031035,0.32577305341563206,0.8875493424799048,0.3257730534156322,300.0,57.8571428571429,[1.5109068]
1.8358274461434485e-17,0.5119707953409537,5.573213542703351e-18,0.5119707953409537,-7.900699815514486e-18,0.08278194298169839,5.573213542703351e-18,0.08278194298169839,1.6717359884366092e-17,0.5186202323144304,1.452200950554033e-17,-0.5186202323144304,0.2758118938794522,0.9207907462552278,0.2758118938794522,300.0,57.8571428571429,[1.47645457]
1.880106093461167e-17,0.5174492130229542,5.3821821772936705e-18,0.5174492130229542,-7.900699815514486e-18,0.07846534061748775,5.3821821772936705e-18,0.07846534061748775,1.684759120000644e-17,0.523364593506566,1.5071785087218674e-17,-0.5233645935065661,0.1308391602333049,0.9827320226281868,0.13083916023330494,300.0,70.71428571428567,[1.50870488]
1.8479823689365477e-17,0.6459180970530275,4.491844257020688e-18,0.6459180970530275,-3.099505312240299e-18,0.04742560696690271,4.491844257020688e-18,0.04742560696690271,1.8438583772746034e-17,0.6476568352891702,1.782203857436049e-17,-0.64765683528917,0.1840423272463205,0.9655344859524781,0.18404232724632047,300.0,70.71428571428567,[1.53936841]
1.7038597129612285e-17,0.6736725264505355,4.311148306569704e-18,0.6736725264505355,-2.085871572172918e-18,0.03383610113644194,4.311148306569704e-18,0.03383610113644194,1.7741846234070168e-17,0.6745217228780427,1.7290948027737224e-17,-0.674521722878043,0.1997683705520386,0.9592628400255931,0.19976837055203864,300.0,70.71428571428567,[1.5601598]
1.5436751947235997e-17,0.6854762541358795,4.307468593614762e-18,0.6854762541358795,-1.5823104850302366e-18,0.02744347531673593,4.307468593614762e-18,0.02744347531673593,1.654154760825162e-17,0.6860253926215978,1.620192672231116e-17,-0.6860253926215976,0.20665617695742294,0.9563401325107529,0.20665617695742292,300.0,70.71428571428567,[1.57712277]
1.3769791107039535e-17,0.6918830973597043,4.373364282752574e-18,0.6918830973597043,-1.2523911520746864e-18,0.023802763222603916,4.373364282752574e-18,0.023802763222603916,1.5158925140536586e-17,0.6922924179485785,1.4857747015444594e-17,-0.6922924179485787,0.21045667808685914,0.9546810846022289,0.21045667808685922,300.0,70.71428571428567,[1.56509836]
1.2089807135279036e-17,0.6957403065026919,4.471868672408145e-18,0.6957403065026919,-9.8975799886665e-19,0.021505784803529788,4.471868672408145e-18,0.021505784803529788,1.3689481795727987e-17,0.6960726060350857,1.3412909802539682e-17,-0.6960726060350859,0.21281034132357005,0.9536369944855805,0.21281034132357007,300.0,70.71428571428567,[1.56365465]
1.0366412724971755e-17,0.6981144374979434,4.5922987249703526e-18,0.6981144374979434,-7.770468499874139e-19,0.019991096071594112,4.5922987249703526e-18,0.019991096071594112,1.2161434358881227e-17,0.6984006097972809,1.1892316318827337e-17,-0.6984006097972807,0.21434238532799027,0.9529505148242561,0.2143423853279903,300.0,70.71428571428567,[1.56309179]
8.669064577792544e-18,0.6994664162057747,4.72132607922913e-18,0.6994664162057747,-6.034050958002822e-19,0.019004843021386993,4.72132607922913e-18,0.019004843021386993,1.0594317527342365e-17,0.6997245539910811,1.0333379294351794e-17,-0.6997245539910811,0.21532879982720837,0.9525056513900315,0.21532879982720837,300.0,70.71428571428567,[1.56309179]
6.932647035921229e-18,0.6999861051321246,4.8661745034739035e-18,0.6999861051321246,-4.449569951045246e-19,0.018433480014838716,4.8661745034739035e-18,0.018433480014838716,8.994642866893415e-18,0.7002287773031745,8.735515829973035e-18,-0.7002287773031745,0.2158916707004234,0.9522507931445159,0.21589167070042342,300.0,70.71428571428567,[1.56141854]
5.2005705379045905e-18,0.6996971826377052,5.016364446524238e-18,0.6996971826377052,-3.1472567946417597e-19,0.01824724104339806,5.016364446524238e-18,0.01824724104339806,7.371092465243735e-18,0.6999350749868437,7.109193337033564e-18,-0.6999350749868436,0.21606344802103344,0.9521728692094332,0.2160634480210334,300.0,70.71428571428567,[1.56309179]
3.446788820614562e-18,0.6984647024943365,5.17542300651206e-18,0.6984647024943365,-2.1488167080657534e-19,0.018490663005988523,5.17542300651206e-18,0.018490663005988523,5.704131625047272e-18,0.6987094140262484,5.428385463849937e-18,-0.6987094140262483,0.21579798392829974,0.9522932637927051,0.2157979839282997,300.0,70.71428571428567,[1.56309179]
1.6973481471792113e-18,0.6959112153470406,5.346809452759065e-18,0.6959112153470406,-1.6278914455043585e-19,0.019312787676999784,5.346809452759065e-18,0.019312787676999784,3.976396170885313e-18,0.6961791460634627,3.677638822356074e-18,-0.6961791460634628,0.21493753178040115,0.9526823787938443,0.21493753178040115,300.0,70.71428571428567,[1.56309179]
-9.116192094824407e-20,0.6911299686341695,5.545971796794989e-18,0.6911299686341695,-1.8666488575116644e-19,0.021074561779836857,5.545971796794989e-18,0.021074561779836857,2.1531577519204315e-18,0.6914512063034385,1.8091074633916837e-18,-0.6914512063034386,0.21309175107840475,0.9535113063014399,0.2130917510784048,300.0,70.71428571428567,[1.56614615]
-1.9122298179857864e-18,0.6816593442930812,5.787781505262616e-18,0.6816593442930812,-3.798413372843503e-19,0.02470056211110195,5.787781505262616e-18,0.02470056211110195,1.2589027178567039e-19,0.682106721437839,-2.972999593203112e-19,-0.6821067214378391,0.20922043715243308,0.9552243806328907,0.20922043715243316,300.0,70.71428571428567,[1.57712277]
-3.846164855244964e-18,0.6582113417186156,6.152276574232576e-18,0.6582113417186156,-1.0787493978875549e-18,0.03304871784183549,6.152276574232576e-18,0.03304871784183549,-2.4548602998205726e-18,0.659040505673217,-3.083154607692338e-18,-0.659040505673217,0.19977949752531898,0.9592582054572494,0.19977949752531898,300.0,70.71428571428567,[1.5601598]
-6.656990751149157e-18,0.5416320127390142,6.931019144475724e-18,0.5416320127390142,-5.580411875188941e-18,0.049339372332863604,6.931019144475724e-18,0.049339372332863604,-7.546904741358206e-18,0.5438746279115406,-9.019524360182928e-18,-0.5438746279115405,0.17203180570816212,0.9699536667540248,0.17203180570816215,300.0,70.71428571428567,[1.49138924]
-7.295124197786865e-18,0.5446966596844883,6.8369575418901756e-18,0.5446966596844883,-5.510955173514088e-18,0.04308482948672912,6.8369575418901756e-18,0.04308482948672912,-8.558367959498247e-18,0.546397980965651,-9.623892784991782e-18,-0.546397980965651,0.02351779975650911,0.9994467600573959,0.023517799756509132,300.0,83.57142857142856,[1.62004446]
-6.0101752168020914e-18,0.6620482694366707,6.443804800598316e-18,0.6620482694366707,-8.595266832263014e-19,0.02543445620160997,6.443804800598316e-18,0.02543445620160997,-5.217934713323304e-18,0.6625366575717616,-5.7066537091368584e-18,-0.6625366575717616,0.05213768338863304,0.997277957212398,0.05213768338863305,300.0,83.57142857142856,[1.61826542]
-5.573900309406923e-18,0.6850556976145253,6.433511778646012e-18,0.6850556976145253,-6.5115657820174346e-21,0.018241724672825504,6.433511778646012e-18,0.018241724672825504,-4.4061595124984636e-18,0.6852985257193852,-4.749114037145734e-18,-0.6852985257193853,0.060438906123977044,0.9963404424457909,0.06043890612397706,300.0,83.57142857142856,[1.62627282]
-5.265686195724765e-18,0.6945927843612119,6.5189591223324336e-18,0.6945927843612119,3.407719425922457e-19,0.014717171951021962,6.5189591223324336e-18,0.014717171951021962,-4.16089053470914e-18,0.6947486820692048,-4.436415121182102e-18,-0.6947486820692047,0.06426830027299106,0.9958610200023102,0.06426830027299106,300.0,83.57142857142856,[1.61205082]
-4.970495213606641e-18,0.6996755253697103,6.633844169658392e-18,0.6996755253697103,5.144136967793773e-19,0.01256809680849706,6.633844169658392e-18,0.01256809680849706,-4.123991661944375e-18,0.699788395058655,-4.3621376206958436e-18,-0.6997883950586551,0.06653838880249408,0.9955627984367116,0.06653838880249409,300.0,83.57142857142856,[1.61205082]
-4.714373626180622e-18,0.7026659412396528,6.76261716587881e-18,0.7026659412396528,6.185987492916562e-19,0.01107671264496222,6.76261716587881e-18,0.01107671264496222,-4.191277841691888e-18,0.7027532415729054,-4.404896888238662e-18,-0.7027532415729053,0.06808575211142254,0.995353535543449,0.06808575211142255,300.0,83.57142857142856,[1.61037758]
-4.4495699510452465e-18,0.7044363531149808,6.904091106814673e-18,0.7044363531149808,6.663502316931174e-19,0.009953431835157898,6.904091106814673e-18,0.009953431835157898,-4.31282706962288e-18,0.7045066688082025,-4.507505726821242e-18,-0.7045066688082026,0.0692355876414175,0.9951948888574015,0.0692355876414175,300.0,83.57142857142856,[1.61037758]
-4.215153582892619e-18,0.7053584329157494,7.047718612475317e-18,0.7053584329157494,6.880554509665088e-19,0.009061031783045256,7.047718612475317e-18,0.009061031783045256,-4.477786736100655e-18,0.7054166295050995,-4.658903475753768e-18,-0.7054166295050996,0.07013867744127888,0.9950684056152002,0.07013867744127893,300.0,83.57142857142856,[1.60948917]
-3.9698846051032955e-18,0.7055798792314995,7.191193503312946e-18,0.7055798792314995,6.837144071118306e-19,0.00832829968269699,7.191193503312946e-18,0.00832829968269699,-4.686156841125213e-18,0.705629028988988,-4.85602058733686e-18,-0.705629028988988,0.07087206093163366,0.9949644727117677,0.07087206093163369,300.0,83.57142857142856,[1.60948917]
-3.7311271930959896e-18,0.7051091146075623,7.345927976648647e-18,0.7051091146075623,6.576681439837608e-19,0.007718136617988738,7.345927976648647e-18,0.007718136617988738,-4.918402687350502e-18,0.7051513547710976,-5.078952408286308e-18,-0.7051513547710974,0.07147522292431444,0.9948781759672081,0.07147522292431446,300.0,83.57142857142856,[1.60948917]
-3.498881346870701e-18,0.7038179838906016,7.503460388406308e-18,0.7038179838906016,5.925524861635865e-19,0.00721573188236702,7.503460388406308e-18,0.00721573188236702,-5.196229494049912e-18,0.703854971733829,-5.349769433320028e-18,-0.7038549717338289,0.0719631919104409,0.9948078196416241,0.07196319191044091,300.0,83.57142857142856,[1.61037758]
-3.2861701979914653e-18,0.7013645529591903,7.658262690552238e-18,0.7013645529591903,4.905379555786467e-19,0.006827606811491681,7.658262690552238e-18,0.006827606811491681,-5.539171958569497e-18,0.701397784685992,-5.687935252617932e-18,-0.701397784685992,0.07232718941902924,0.9947550227777127,0.07232718941902924,300.0,83.57142857142856,[1.61037758]
-3.0560948736935156e-18,0.6969334825498261,7.817558651375863e-18,0.6969334825498261,3.0821411368215854e-19,0.006593247150250409,7.817558651375863e-18,0.006593247150250409,-5.984128953674022e-18,0.6969646691239182,-6.131652629514552e-18,-0.6969646691239183,0.07252016696472056,0.9947269227113631,0.07252016696472059,300.0,83.57142857142856,[1.61205082]
-2.8998172949250972e-18,0.6883003405811894,7.983603578817307e-18,0.6883003405811894,-4.775148240146118e-20,0.0066270668793063335,7.983603578817307e-18,0.0066270668793063335,-6.641797097657783e-18,0.688332243077138,-6.795226157000622e-18,-0.6883322430771383,0.07240215430549038,0.9947441158930511,0.07240215430549042,300.0,83.57142857142856,[1.62352064]
-2.804314330122175e-18,0.666900888011811,8.170692394632407e-18,0.666900888011811,-9.072781656277625e-19,0.007241506710211315,8.170692394632407e-18,0.007241506710211315,-7.876824074313756e-18,0.6669402026046837,-8.053619604263917e-18,-0.6669402026046836,0.07153682108568789,0.9948693212969774,0.0715368210856879,300.0,83.57142857142856,[1.61421777]
-3.5032223907253794e-18,0.5538635382374152,8.372517019469833e-18,0.5538635382374152,-5.567388743624906e-18,0.0064507325196431235,8.372517019469833e-18,0.0064507325196431235,-1.1740353104977433e-17,0.5539011021282666,-1.193419110231028e-17,-0.5539011021282667,0.0709822849794231,0.9949487576946866,0.07098228497942315,300.0,83.57142857142856,[1.57990076]
