stress_11,stress_12,stress_13,stress_21,stress_22,stress_23,stress_31,stress_32,stress_33,e1,e2,e3,anev1,anev2,anev3,temp,miss,velo
-8.226278104615358e-18,0.5433031354264058,-1.3658026184984126e-17,0.5433031354264058,-6.110019225459692e-18,-0.04376985021324122,-1.3658026184984126e-17,-0.04376985021324122,-7.679306578925894e-18,0.5450633878292075,-9.843679677466306e-18,-0.5450633878292075,0.17919247621072149,0.9673572829823218,0.17919247621072157,100.0,109.28571428571416,[1.44268549]
-6.127383400878405e-18,0.6599777718559158,-1.3027540436699777e-17,0.6599777718559158,-1.4802959544452966e-18,-0.027505284047732684,-1.3027540436699777e-17,-0.027505284047732684,-3.4077194259224574e-18,0.6605506793535572,-4.505957943740239e-18,-0.6605506793535572,0.20554842416502703,0.9568174803203316,0.20554842416502703,100.0,109.28571428571416,[1.50188334]
-4.8858448584404145e-18,0.6835180054548949,-1.2807156153663346e-17,0.6835180054548949,-6.403039685650477e-19,-0.01919310471406089,-1.2807156153663346e-17,-0.01919310471406089,-1.6517671867050892e-18,0.6837874224125526,-2.372289902144037e-18,-0.6837874224125524,0.2147166795670699,0.9527819766512087,0.21471667956706988,100.0,109.28571428571416,[1.53821637]
-3.791901807061486e-18,0.6930793316963995,-1.2713018243666289e-17,0.6930793316963995,-3.103846356094977e-19,-0.015608339216046567,-1.2713018243666289e-17,-0.015608339216046567,-4.547243437775508e-19,0.6932550614873367,-1.0302196429188978e-18,-0.6932550614873367,0.21845654899360378,0.9510801608716326,0.21845654899360384,100.0,109.28571428571416,[1.5289515]
-2.7435397161566788e-18,0.6979501056632115,-1.2656228572301767e-17,0.6979501056632115,-1.5410705684107927e-19,-0.01389183788850841,-1.2656228572301767e-17,-0.01389183788850841,5.40459959907447e-19,0.6980883419419125,3.447421078565298e-20,-0.6980883419419124,0.22021464941819333,0.9502689179191567,0.22021464941819327,100.0,109.28571428571416,[1.5289515]
-1.6864955375425156e-18,0.7005920273892532,-1.2632751325361134e-17,0.7005920273892532,-6.945670167485263e-20,-0.01311858299525589,-1.2632751325361134e-17,-0.01311858299525589,1.4433970816805312e-18,0.700714839332797,9.695423152053688e-19,-0.7007148393327971,0.22100626762952608,0.9499012892595381,0.22100626762952613,100.0,109.28571428571416,[1.5289515]
-6.4464501241972595e-19,0.7019118622260905,-1.2620186038266147e-17,0.7019118622260905,-3.0387306982748025e-20,-0.01292738605586492,-1.2620186038266147e-17,-0.01292738605586492,2.2877301114154584e-18,0.7020308965023794,1.821922515655216e-18,-0.7020308965023794,0.2212127978499982,0.9498051358751181,0.22121279784999823,100.0,109.28571428571416,[1.5289515]
3.60306639938298e-19,0.7022870503894107,-1.2615115834701503e-17,0.7022870503894107,-1.5193653491374012e-20,-0.0131690286578597,-1.2615115834701503e-17,-0.0131690286578597,3.0886527026036028e-18,0.702410509930233,2.614036763683592e-18,-0.702410509930233,0.22098838268382875,0.9499096111933869,0.22098838268382873,100.0,109.28571428571416,[1.5289515]
1.380451945787696e-18,0.7018525220201566,-1.2623827597515335e-17,0.7018525220201566,-4.123991661944375e-20,-0.013798821094675484,-1.2623827597515335e-17,-0.013798821094675484,3.862443769700008e-18,0.7019881552630765,3.3657816731480746e-18,-0.7019881552630765,0.22037799427525948,0.9501931799789068,0.2203779942752595,100.0,109.28571428571416,[1.5289515]
2.38540359814572e-18,0.7005845819452533,-1.2639610513795577e-17,0.7005845819452533,-8.682087709356578e-20,-0.014846385264374599,-1.2639610513795577e-17,-0.014846385264374599,4.5993359640316474e-18,0.7007418723144947,4.06157345457973e-18,-0.7007418723144945,0.21934960343688636,0.9506689765339781,0.21934960343688634,100.0,109.28571428571416,[1.5289515]
3.3751615970123703e-18,0.6982933539669507,-1.2667818820249707e-17,0.6982933539669507,-1.6278914455043585e-19,-0.016425125597423273,-1.2667818820249707e-17,-0.016425125597423273,5.30258506848953e-18,0.6984865016199698,4.7059093676873276e-18,-0.6984865016199698,0.2177832490229289,0.9513889388100084,0.21778324902292895,100.0,109.28571428571416,[1.5289515]
4.3605785520243415e-18,0.6945179061399258,-1.2713859744843197e-17,0.6945179061399258,-2.821678505540888e-19,-0.018788756524097543,-1.2713859744843197e-17,-0.018788756524097543,5.9515711247639345e-18,0.6947720052799395,5.257977243846355e-18,-0.6947720052799394,0.21540790556414235,0.9524698779703952,0.2154079055641423,100.0,109.28571428571416,[1.5289515]
5.311267156198887e-18,0.6881916935201137,-1.279388290336159e-17,0.6881916935201137,-4.775148240146118e-19,-0.0224985871178802,-1.279388290336159e-17,-0.0224985871178802,6.5093952600900955e-18,0.6885593608777556,5.670518662900425e-18,-0.6885593608777555,0.21160979334916044,0.954171153786076,0.21160979334916044,100.0,109.28571428571416,[1.54805121]
6.205522190262615e-18,0.6764675227704152,-1.2936307507465824e-17,0.6764675227704152,-8.356509420255708e-19,-0.028962680554361825,-1.2936307507465824e-17,-0.028962680554361825,6.8848955535197675e-18,0.6770872515621871,5.7785845290726306e-18,-0.6770872515621871,0.20477937644514013,0.9571472269016293,0.20477937644514016,100.0,109.28571428571416,[1.54294002]
6.921794426284533e-18,0.6487918039421279,-1.3270249936728102e-17,0.6487918039421279,-1.7190533664526027e-18,-0.04262596403658669,-1.3270249936728102e-17,-0.04262596403658669,6.753578976915749e-18,0.6501905702734612,5.0331135695561665e-18,-0.6501905702734609,0.18928421552958533,0.9635055638151234,0.18928421552958533,100.0,109.28571428571416,[1.45501468]
6.528929957436148e-18,0.52040174378737,-1.4310458792678308e-17,0.52040174378737,-6.393272336977451e-18,-0.0737420950298832,-1.4310458792678308e-17,-0.0737420950298832,4.335617549859941e-18,0.5256004866020693,4.388394079393011e-19,-0.5256004866020692,0.13759223155793845,0.9808856995745291,0.1375922315579384,100.0,109.28571428571416,[1.4345694]
-8.028760609227496e-18,0.5462862277096533,-1.3528490114648629e-17,0.5462862277096533,-6.170793839425188e-18,-0.03743423857880646,-1.3528490114648629e-17,-0.03743423857880646,-7.643492967124798e-18,0.5475673153167727,-9.521204604539824e-18,-0.5475673153167727,0.03094847537812707,0.9990417327336926,0.03094847537812712,100.0,96.42857142857144,[1.59685354]
-5.775758848649464e-18,0.6635368084446973,-1.3197655092754982e-17,0.6635368084446973,-1.6647903182691241e-18,-0.019742414550621003,-1.3197655092754982e-17,-0.019742414550621003,-3.026792827674437e-18,0.6638304445363012,-3.813081904179388e-18,-0.6638304445363014,0.05823858988365809,0.9966024951286879,0.05823858988365812,100.0,96.42857142857144,[1.61046606]
-4.4039889905711244e-18,0.6864445989504049,-1.324708533820962e-17,0.6864445989504049,-9.376654726105105e-19,-0.012505284834249019,-1.324708533820962e-17,-0.012505284834249019,-9.344096897195018e-19,0.6865584968354612,-1.4174512604456966e-18,-0.6865584968354614,0.06635912957077582,0.9955867274352435,0.06635912957077586,100.0,96.42857142857144,[1.59180112]
-3.1364041850050644e-18,0.6958818248072118,-1.3393748183128028e-17,0.6958818248072118,-7.314658895132917e-19,-0.008938284176975517,-1.3393748183128028e-17,-0.008938284176975517,5.838703984542299e-19,0.695939226528469,2.393547826652233e-19,-0.695939226528469,0.07013969964960698,0.9950682615108,0.070139699649607,100.0,96.42857142857144,[1.5803956]
-1.8861835548577167e-18,0.7008641278844404,-1.3567203408087029e-17,0.7008641278844404,-7.010785825305437e-19,-0.006750002394049466,-1.3567203408087029e-17,-0.006750002394049466,1.890524598712395e-18,0.7008966316708457,1.6287562843280054e-18,-0.7008966316708458,0.07240017804939221,0.994744403571507,0.07240017804939226,100.0,96.42857142857144,[1.5803956]
-6.728617974751348e-19,0.70375346680932,-1.3760345945215098e-17,0.70375346680932,-7.20613279876596e-19,-0.005223105693549917,-1.3760345945215098e-17,-0.005223105693549917,3.103846356094977e-18,0.7037728489215983,2.8993525982342834e-18,-0.7037728489215983,0.07395380855291335,0.9945157959535073,0.07395380855291338,100.0,96.42857142857144,[1.57087531]
5.339483941254296e-19,0.7054221785973669,-1.3971310502230927e-17,0.7054221785973669,-8.139457227521793e-19,-0.004068232139627085,-1.3971310502230927e-17,-0.004068232139627085,4.2542229775847235e-18,0.7054339094272385,4.092971768110633e-18,-0.7054339094272386,0.07511728502591186,0.9943413835201028,0.07511728502591189,100.0,96.42857142857144,[1.57087531]
1.7450996295806723e-18,0.7062419792555671,-1.417946016362224e-17,0.7062419792555671,-9.268128629738148e-19,-0.0031482990660997665,-1.417946016362224e-17,-0.0031482990660997665,5.361189160527687e-18,0.7062489964947426,5.234704674539058e-18,-0.7062489964947425,0.07603775067873386,0.9942014488741392,0.07603775067873389,100.0,96.42857142857144,[1.57087531]
2.9519098211812367e-18,0.7063606241784707,-1.4389559903307646e-17,0.7063606241784707,-1.0635557443961809e-18,-0.002392191676554362,-1.4389559903307646e-17,-0.002392191676554362,6.4334269926332254e-18,0.7063646749171536,6.335923865205172e-18,-0.7063646749171537,0.07679073877959944,0.9940856929235862,0.07679073877959947,100.0,96.42857142857144,[1.57087531]
4.130503227726392e-18,0.7057865994917011,-1.4608155201474278e-17,0.7057865994917011,-1.2328564547286341e-18,-0.0017628836886738415,-1.4608155201474278e-17,-0.0017628836886738415,7.477448039683353e-18,0.7057888011161405,7.404452512187411e-18,-0.7057888011161404,0.07741552300967197,0.9939887693501763,0.07741552300967197,100.0,96.42857142857144,[1.57087531]
5.315608200053565e-18,0.7043918177434626,-1.4827157472502286e-17,0.7043918177434626,-1.4325444720438354e-18,-0.0012456188210384332,-1.4827157472502286e-17,-0.0012456188210384332,8.469376560477342e-18,0.7043929190942982,8.416926713068058e-18,-0.7043929190942981,0.0779281609820363,0.9939086494501976,0.07792816098203631,100.0,96.42857142857144,[1.57087531]
6.511565782017435e-18,0.7018344152882593,-1.5043497462728793e-17,0.7018344152882593,-1.6713018840511415e-18,-0.000846958067133128,-1.5043497462728793e-17,-0.000846958067133128,9.402700989233174e-18,0.7018349263330945,9.366388334711905e-18,-0.7018349263330945,0.0783228281341856,0.9938466024423116,0.07832282813418563,100.0,96.42857142857144,[1.57065996]
7.659771881579841e-18,0.6972991253493591,-1.5271317479086616e-17,0.6972991253493591,-1.996880173152013e-18,-0.0006064138564983991,-1.5271317479086616e-17,-0.0006064138564983991,1.0231840365476728e-17,0.6972993890365503,1.0205276642730244e-17,-0.6972993890365503,0.0785597340383009,0.993809205217814,0.07855973403830094,100.0,96.42857142857144,[1.5705621]
8.790613805723536e-18,0.6885615898586829,-1.549779787644241e-17,0.6885615898586829,-2.476565519093964e-18,-0.0006384148862484285,-1.549779787644241e-17,-0.0006384148862484285,1.0854780158623062e-17,0.688561885818758,1.0826040268185278e-17,-0.6885618858187579,0.07851931942528341,0.9938155930322188,0.07851931942528342,100.0,96.42857142857144,[1.58979588]
9.838975896628343e-18,0.6670576449768724,-1.5750951953420895e-17,0.6670576449768724,-3.4728350837426314e-18,-0.0012554052197339372,-1.5750951953420895e-17,-0.0012554052197339372,1.088516746560581e-17,0.6670588263147089,1.082587763828986e-17,-0.6670588263147086,0.07784829223155455,0.9939211672930912,0.07784829223155457,100.0,96.42857142857144,[1.56949162]
1.0103779571763718e-17,0.5539157802299355,-1.601411077990821e-17,0.5539157802299355,-8.269688543162141e-18,-0.00047154311094678734,-1.601411077990821e-17,-0.00047154311094678734,8.302246372072228e-18,0.5539159809399289,8.27498244767971e-18,-0.553915980939929,0.07857264367027397,0.9938071640581632,0.07857264367027401,100.0,96.42857142857144,[1.5083757]
6.110019225459692e-18,0.5149885451604321,-1.420130951911737e-17,0.5149885451604321,-6.4030396856504774e-18,-0.07812051045406868,-1.420130951911737e-17,-0.07812051045406868,4.274842935894445e-18,0.520880039740498,-2.1869139296264887e-19,-0.520880039740498,0.2821529311512934,0.9169402635316364,0.2821529311512934,100.0,122.14285714285735,[1.50111925]
6.16645279557051e-18,0.6422345237980762,-1.2562010115592563e-17,0.6422345237980762,-1.7526964563263593e-18,-0.0480518602904579,-1.2562010115592563e-17,-0.0480518602904579,6.073120352694927e-18,0.6440296304018278,4.131444262384152e-18,-0.644029630401828,0.3304833136619951,0.8840597031773219,0.3304833136619951,100.0,122.14285714285735,[1.5481588]
5.076850788046259e-18,0.670947930398168,-1.1649704139406549e-17,0.670947930398168,-8.920845121363884e-19,-0.03369450567567352,-1.1649704139406549e-17,-0.03369450567567352,5.620566530844715e-18,0.6717934541347607,4.420031194056573e-18,-0.6717934541347607,0.3457003451404901,0.8723431336002433,0.3457003451404901,100.0,122.14285714285735,[1.58159318]
3.7897312851341465e-18,0.6827952053787283,-1.0943729164637574e-17,0.6827952053787283,-5.589093962898297e-19,-0.027265076944701386,-1.0943729164637574e-17,-0.027265076944701386,4.677474753415857e-18,0.6833393570613214,3.8022298778072674e-18,-0.6833393570613213,0.3520149522541004,0.867277894782916,0.3520149522541004,100.0,122.14285714285735,[1.60397735]
2.4353256024745203e-18,0.6888207060768683,-1.0313998011867026e-17,0.6888207060768683,-3.7767081535701116e-19,-0.023927416079914315,-1.0313998011867026e-17,-0.023927416079914315,3.562911743727206e-18,0.6892361615299188,2.847827940352997e-18,-0.689236161529919,0.35519149788635,0.8646837570224747,0.3551914978863502,100.0,122.14285714285735,[1.58902582]
1.0461915689774677e-18,0.6920512300946443,-9.720894416620326e-18,0.6920512300946443,-2.7565628477207137e-19,-0.022130169714049425,-9.720894416620326e-18,-0.022130169714049425,2.3691246836906764e-18,0.692404975059454,1.7466727865464342e-18,-0.6924049750594539,0.3568752727270598,0.8632960554942745,0.35687527272705977,100.0,122.14285714285735,[1.58328115]
-3.5813611801095886e-19,0.6936153722033553,-9.147791841790005e-18,0.6936153722033553,-2.1813745369758403e-19,-0.021262431901345823,-9.147791841790005e-18,-0.021262431901345823,1.11673353161599e-18,0.6939411902799534,5.560407828554288e-19,-0.6939411902799535,0.35768187467274093,0.8626281661649978,0.35768187467274104,100.0,122.14285714285735,[1.58328115]
-1.7754869365634203e-18,0.6939844373835723,-8.593011524322887e-18,0.6939844373835723,-2.0185853924254047e-19,-0.021062083456936914,-8.593011524322887e-18,-0.021062083456936914,-1.5627757876841841e-19,0.6943039757124685,-6.868904334186917e-19,-0.6943039757124685,0.35786772315727655,0.8624739911698519,0.35786772315727655,100.0,122.14285714285735,[1.58328115]
-3.218884018243952e-18,0.6933252683658395,-8.050101248645905e-18,0.6933252683658395,-2.1054062695189705e-19,-0.021433947148042365,-8.050101248645905e-18,-0.021433947148042365,-1.4607612570992443e-18,0.6936565013354296,-1.9610528690947775e-18,-0.6936565013354296,0.357523294211927,0.862759635235506,0.35752329421192713,100.0,122.14285714285735,[1.58328115]
-4.677474753415857e-18,0.6916036565646544,-7.523537716234195e-18,0.6916036565646544,-2.279048023706102e-19,-0.022394429602881086,-7.523537716234195e-18,-0.022394429602881086,-2.789120676630801e-18,0.6919661323004466,-3.2847343253554636e-18,-0.6919661323004467,0.3566296169993328,0.8634990634377192,0.3566296169993329,100.0,122.14285714285735,[1.58328115]
-6.138236010515101e-18,0.688573421415544,-7.014736853501297e-18,0.688573421415544,-2.778268066994105e-19,-0.024076782021601312,-7.014736853501297e-18,-0.024076782021601312,-4.156549490854462e-18,0.6889942293752715,-4.650995393613724e-18,-0.6889942293752717,0.3550514007111556,0.8647988238348228,0.35505140071115565,100.0,122.14285714285735,[1.59788278]
-7.646748750015806e-18,0.6836426616803668,-6.525555474127238e-18,0.6836426616803668,-3.9612025173939394e-19,-0.026801072414916742,-6.525555474127238e-18,-0.026801072414916742,-5.5608771778428885e-18,0.684167805696823,-6.069636656689766e-18,-0.6841678056968231,0.35246075013078076,0.8669157048032379,0.3524607501307808,100.0,122.14285714285735,[1.60159875]
-9.18564879649926e-18,0.6754519244102521,-6.082887701367953e-18,0.6754519244102521,-5.773588326722125e-19,-0.0312892698418989,-6.082887701367953e-18,-0.0312892698418989,-7.039002610360846e-18,0.6761762496544463,-7.578754393209391e-18,-0.6761762496544463,0.34809522040592994,0.8704363475068664,0.34809522040593,100.0,122.14285714285735,[1.58283269]
-1.0798346588512244e-17,0.6604173224373766,-5.734162830776316e-18,0.6604173224373766,-9.365802116468409e-19,-0.039360937836655716,-5.734162830776316e-18,-0.039360937836655716,-8.670149838756213e-18,0.6615892405433563,-9.339205818671746e-18,-0.6615892405433561,0.3399162688755954,0.8768773348122232,0.3399162688755954,100.0,122.14285714285735,[1.58559496]
-1.2701894318788676e-17,0.6256658970342174,-5.606576838734912e-18,0.6256658970342174,-1.7874248071637856e-18,-0.05673293065746403,-5.606576838734912e-18,-0.05673293065746403,-1.0705014145636661e-17,0.6282327913541413,-1.1708176251676528e-17,-0.6282327913541413,0.3205982003455954,0.8913100402611489,0.3205982003455954,100.0,122.14285714285735,[1.53655053]
-1.6077055915801044e-17,0.481427069316301,-6.390864414214309e-18,0.481427069316301,-6.439938558415243e-18,-0.09509213500567595,-6.390864414214309e-18,-0.09509213500567595,-1.4657534575321244e-17,0.49072857794346986,-1.717969336114875e-17,-0.49072857794346963,0.2530534497926618,0.9337707979456549,0.25305344979266187,100.0,122.14285714285735,[1.49116329]
-1.6819374414951032e-17,0.47465923767157037,-5.548735820811835e-18,0.47465923767157037,-6.430171209742217e-18,-0.09667701824104735,-5.548735820811835e-18,-0.09667701824104735,-1.5153498835718238e-17,0.48440462194629824,-1.70378015624977e-17,-0.48440462194629813,0.3901513345514988,0.8340047195881859,0.3901513345514989,100.0,135.00000000000023,[1.49455299]
-1.4347149939711746e-17,0.6174314156301846,-2.927983208372834e-18,0.6174314156301846,-1.7450996295806723e-18,-0.05874028019646483,-2.927983208372834e-18,-0.05874028019646483,-1.2798482544555268e-17,0.6202192947052299,-1.3322151133440416e-17,-0.6202192947052299,0.4503980609787784,0.770897641281327,0.4503980609787784,100.0,135.00000000000023,[1.53900127]
-1.3379097160118489e-17,0.6534374480699012,-1.227464064315401e-18,0.6534374480699012,-8.606119441899709e-19,-0.04116876164897443,-1.227464064315401e-18,-0.04116876164897443,-1.2323138242467994e-17,0.6547330490175483,-1.2479464968445487e-17,-0.6547330490175483,0.46757123940792494,0.7501694956188726,0.4675712394079251,100.0,135.00000000000023,[1.56801099]
-1.2695382753006658e-17,0.6685864046007797,2.3594251638278795e-19,0.6685864046007797,-4.79685345941951e-19,-0.033157531459963654,2.3594251638278795e-19,-0.033157531459963654,-1.2233061582483419e-17,0.6694080984791829,-1.2209651283285827e-17,-0.6694080984791829,0.4746199475211298,0.7412636581069383,0.4746199475211296,100.0,135.00000000000023,[1.57799823]
-1.2146240705389853e-17,0.6763631414423116,1.6150718003710118e-18,0.6763631414423116,-2.734857628447322e-19,-0.028850130442675554,1.6150718003710118e-18,-0.028850130442675554,-1.2269960455248185e-17,0.6769781600083358,-1.2136042714462962e-17,-0.6769781600083359,0.47823774033690053,0.7365984845456242,0.47823774033690053,100.0,135.00000000000023,[1.57612961]
-1.1603610223555067e-17,0.6805755063707565,2.9436347063332562e-18,0.6805755063707565,-1.3457235949502697e-19,-0.02637581207346154,2.9436347063332562e-18,-0.02637581207346154,-1.2380657073542482e-17,0.6810864139992412,-1.2154892034317447e-17,-0.6810864139992412,0.4802618881031049,0.7339598338269483,0.4802618881031048,100.0,135.00000000000023,[1.58629238]
-1.1123924877613116e-17,0.6826603434619054,4.2453204462421215e-18,0.6826603434619054,-4.123991661944375e-20,-0.024994847297676762,4.2453204462421215e-18,-0.024994847297676762,-1.2523911520746866e-17,0.6831177694416686,-1.2210005884539493e-17,-0.6831177694416687,0.4813705085594243,0.7325058818729597,0.4813705085594244,100.0,135.00000000000023,[1.58629238]
-1.06572626632352e-17,0.6832225096470278,5.532490820761906e-18,0.6832225096470278,1.0852609636695723e-20,-0.024384106299006624,5.532490820761906e-18,-0.024384106299006624,-1.2695382753006658e-17,0.6836575036729902,-1.2298908164202506e-17,-0.6836575036729902,0.4818482937789578,0.7318773418849733,0.4818482937789577,100.0,135.00000000000023,[1.58629238]
-1.022749932162205e-17,0.6824794834739576,6.7958024112835185e-18,0.6824794834739576,4.992200432880033e-20,-0.024416782736823715,6.7958024112835185e-18,-0.024416782736823715,-1.2888559204539842e-17,0.6829161183059729,-1.2406614013950374e-17,-0.682916118305973,0.4818034624585468,0.7319363682219318,0.48180346245854694,100.0,135.00000000000023,[1.58629238]
-9.806418067718255e-18,0.6803932858033008,8.056519549813857e-18,0.6803932858033008,5.1007265292469905e-20,-0.02509284223086112,8.056519549813857e-18,-0.02509284223086112,-1.309801457052807e-17,0.6808558394384491,-1.2500504355816955e-17,-0.680855839438449,0.4812328877967148,0.7326867102695868,0.48123288779671464,100.0,135.00000000000023,[1.58629238]
-9.394018901523818e-18,0.6766583581634752,9.291054767595667e-18,0.6766583581634752,3.689887276476546e-20,-0.026539023512457384,9.291054767595667e-18,-0.026539023512457384,-1.3328089894826019e-17,0.6771785978908994,-1.2587637034631053e-17,-0.6771785978908992,0.48002058591030755,0.734275475693319,0.4800205859103075,100.0,135.00000000000023,[1.58629238]
-9.029371217730842e-18,0.6705359680745665,1.0502002516620222e-17,0.6705359680745665,-4.123991661944375e-20,-0.02907839290865611,1.0502002516620222e-17,-0.02907839290865611,-1.3592893569961395e-17,0.6711661771989458,-1.2691282538306575e-17,-0.6711661771989456,0.47786792374057147,0.737078350597649,0.4778679237405714,100.0,135.00000000000023,[1.57612961]
-8.750459150067762e-18,0.6603330087563051,1.1661637770706275e-17,0.6603330087563051,-1.9100592960584473e-19,-0.03345062610985273,1.1661637770706275e-17,-0.03345062610985273,-1.3910875032316578e-17,0.6611797235550221,-1.270762131244709e-17,-0.6611797235550221,0.47406352638571697,0.7419754348369473,0.47406352638571686,100.0,135.00000000000023,[1.57799823]
-8.586584744553656e-18,0.6416232643760287,1.2738691448338097e-17,0.6416232643760287,-5.0356108714268155e-19,-0.04152644386131519,1.2738691448338097e-17,-0.04152644386131519,-1.433304154718404e-17,0.642965674766793,-1.262635088503958e-17,-0.6429656747667931,0.4666631859720767,0.7512995020075429,0.4666631859720766,100.0,135.00000000000023,[1.5375194]
-8.809063242105918e-18,0.5988921800631503,1.356369326715766e-17,0.5988921800631503,-1.3337857243499044e-18,-0.05916238027751894,1.356369326715766e-17,-0.05916238027751894,-1.5061251653806325e-17,0.6018073035290401,-1.2244919240640965e-17,-0.6018073035290404,0.4484241023834539,0.7731957377037117,0.4484241023834539,100.0,135.00000000000023,[1.53900127]
-1.091121372873388e-17,0.4372354135398595,1.3494575709533954e-17,0.4372354135398595,-5.9515711247639345e-18,-0.09716387109856083,1.3494575709533954e-17,-0.09716387109856083,-1.7292548195110965e-17,0.4479013559928456,-1.0731012160418863e-17,-0.44790135599284514,0.3796277214739361,0.8436620094427714,0.3796277214739361,100.0,135.00000000000023,[1.40506889]
-1.0745168801292435e-17,0.43046203054570387,1.3109138495405683e-17,0.43046203054570387,-5.882114423089082e-18,-0.09563808362856789,1.3109138495405683e-17,-0.09563808362856789,-1.658441541631657e-17,0.44095827782419006,-1.131909756660192e-17,-0.44095827782418995,0.5028792094178633,0.703011380754629,0.5028792094178631,100.0,147.8571428571427,[1.38017586]
-7.667368708325528e-18,0.5906383854814875,1.2282508785140614e-17,0.5906383854814875,-1.1254156193253465e-18,-0.057343881745848264,1.2282508785140614e-17,-0.057343881745848264,-1.354242893515076e-17,0.5934155569058328,-1.1016783149214708e-17,-0.5934155569058331,0.5595685086673328,0.6113641862389669,0.5595685086673325,100.0,147.8571428571427,[1.48809407]
-6.512651042981104e-18,0.6346104778949051,1.0557181253741797e-17,0.6346104778949051,-1.3457235949502697e-19,-0.04003602756571717,1.0557181253741797e-17,-0.04003602756571717,-1.196554475493887e-17,0.6358721114793784,-1.0669940943172307e-17,-0.6358721114793782,0.5738498235782573,0.5842882507447895,0.5738498235782572,100.0,147.8571428571427,[1.42557194]
-5.764906239012768e-18,0.6534208189290582,8.598353043128448e-18,0.6534208189290582,3.2015198428252383e-19,-0.03202809947871641,8.598353043128448e-18,-0.03202809947871641,-1.0665402120462722e-17,0.6542052932880777,-9.821565910387875e-18,-0.6542052932880777,0.5795885847320835,0.5728474010559188,0.5795885847320835,100.0,147.8571428571427,[1.42177215]
-5.1701832309218425e-18,0.6631957303130767,6.550024717417475e-18,0.6631957303130767,6.0557561772762135e-19,-0.02760330519327389,6.550024717417475e-18,-0.02760330519327389,-9.459134559343992e-18,0.6637699293905142,-8.906779532957084e-18,-0.6637699293905142,0.5825618247634012,0.5667834160035669,0.5825618247634011,100.0,147.8571428571427,[1.42177215]
-4.649257968360448e-18,0.6685853031505407,4.4589303268568965e-18,0.6685853031505407,8.367362029892403e-19,-0.024942052411585956,4.4589303268568965e-18,-0.024942052411585956,-8.300075850144889e-18,0.6690503819350249,-7.963945864153254e-18,-0.6690503819350249,0.5842834460803839,0.5632279372268943,0.5842834460803839,100.0,147.8571428571427,[1.42177215]
-4.1804252320551925e-18,0.6713599632375534,2.3412470426864142e-18,0.6713599632375534,9.940990427213282e-19,-0.023322321889403065,2.3412470426864142e-18,-0.023322321889403065,-7.15729605540083e-18,0.6717649372635058,-6.989195329091408e-18,-0.6717649372635057,0.5853024562337938,0.5611078946632062,0.5853024562337938,100.0,147.8571428571427,[1.42177215]
-3.735468236950668e-18,0.6722713325785307,2.0335077306758614e-19,0.6722713325785307,1.1362682289620422e-18,-0.022423990381246463,2.0335077306758614e-19,-0.022423990381246463,-6.046531459085022e-18,0.672645211052254,-6.033992808343322e-18,-0.6726452110522543,0.585850127002666,0.5599636214808245,0.585850127002666,100.0,147.8571428571427,[1.42177215]
-3.302449112446509e-18,0.6715962052436311,-1.9388865404059203e-18,0.6715962052436311,1.2545616740020256e-18,-0.022113751821175826,-1.9388865404059203e-18,-0.022113751821175826,-4.935766862769215e-18,0.6719601780740088,-5.0602247367866385e-18,-0.6719601780740089,0.5860195183828251,0.5596090136414201,0.5860195183828252,100.0,147.8571428571427,[1.42228691]
-2.9160962093801408e-18,0.6693003132554038,-4.104830023054584e-18,0.6693003132554038,1.3533204216959567e-18,-0.022375147544149963,-4.104830023054584e-18,-0.022375147544149963,-3.8505058990996426e-18,0.6696742167288539,-4.122419953435435e-18,-0.669674216728854,0.5858204266166468,0.5600257632621736,0.5858204266166469,100.0,147.8571428571427,[1.42177215]
-2.557960091369182e-18,0.6650274054277991,-6.286815019322489e-18,0.6650274054277991,1.3913045554243917e-18,-0.0233033073059036,-6.286815019322489e-18,-0.0233033073059036,-2.7744696536212616e-18,0.6654355672049874,-3.210224249893278e-18,-0.6654355672049874,0.5851826732964139,0.5613577092615052,0.585182673296414,100.0,147.8571428571427,[1.42177215]
-2.2497459776870234e-18,0.657905142205838,-8.482738836092524e-18,0.657905142205838,1.4054129479520961e-18,-0.025160309581181976,-8.482738836092524e-18,-0.025160309581181976,-1.7195959969344375e-18,0.6583860701132012,-2.3719345626840325e-18,-0.6583860701132012,0.5839104104733964,0.564001121525108,0.5839104104733964,100.0,147.8571428571427,[1.42177215]
-1.9936243902610043e-18,0.6459321121333313,-1.07196651686462e-17,0.6459321121333313,1.3435530730229305e-18,-0.028557031099502625,-1.07196651686462e-17,-0.028557031099502625,-6.9565227771219585e-19,0.646563065377419,-1.661763583517889e-18,-0.646563065377419,0.5815242109770073,0.5689105238041726,0.5815242109770072,100.0,147.8571428571427,[1.41655363]
-1.95346973460523e-18,0.6239009867425604,-1.3032831083897666e-17,0.6239009867425604,1.1080514439066333e-18,-0.03504482195098122,-1.3032831083897666e-17,-0.03504482195098122,2.550363264623495e-19,0.6248844539624239,-1.2208529158427962e-18,-0.6248844539624239,0.5766838521286637,0.5786808009499634,0.5766838521286636,100.0,147.8571428571427,[1.41655363]
-2.3767215104363634e-18,0.5738566123565263,-1.554771988077121e-17,0.5738566123565263,3.7767081535701116e-19,-0.04945992463790918,-1.554771988077121e-17,-0.04945992463790918,1.0082074352490327e-18,0.5759841106232847,-1.6758022399817662e-18,-0.5759841106232848,0.564208225441902,0.6027753783022333,0.5642082254419019,100.0,147.8571428571427,[1.44472446]
-5.059486612627546e-18,0.3966517415943079,-1.879553288657798e-17,0.3966517415943079,-4.174998927236845e-18,-0.07958616086967923,-1.879553288657798e-17,-0.07958616086967923,6.299939894101867e-19,0.40455724083468364,-6.8696886560235984e-18,-0.4045572408346832,0.513016386291651,0.6882066366960661,0.5130163862916512,100.0,147.8571428571427,[1.33028544]
-5.677000100955533e-18,0.3912115137569779,-1.8920134410969292e-17,0.3912115137569779,-4.061589156533374e-18,-0.07526009020991267,-1.8920134410969292e-17,-0.07526009020991267,8.530151174442839e-19,0.3983849014137336,-6.811634758633066e-18,-0.3983849014137338,0.6112892812682871,0.5026438393266178,0.6112892812682869,100.0,160.7142857142859,[1.29377702]
-3.764770282969746e-18,0.5672109655338697,-1.630631729437624e-17,0.5672109655338697,7.070475178307264e-19,-0.04420010924367183,-1.630631729437624e-17,-0.04420010924367183,1.1856476028090077e-18,0.5689305134012566,-1.3957684783325194e-18,-0.5689305134012566,0.6472651800232955,0.40261094552784177,0.6472651800232953,100.0,160.7142857142859,[0.94619947]
-4.133759010617401e-18,0.6182324507123472,-1.4404092225899284e-17,0.6182324507123472,1.6658755792327937e-18,-0.03059156572708354,-1.4404092225899284e-17,-0.03059156572708354,4.1511231860361146e-19,0.6189888585487056,-1.0097204845910805e-18,-0.6189888585487054,0.6550686025769162,0.37652390606155745,0.6550686025769162,100.0,160.7142857142859,[0.95516724]
-4.991115171916363e-18,0.6403260503156576,-1.268124044607384e-17,0.6403260503156576,2.1124604657828225e-18,-0.024181146938142703,-1.268124044607384e-17,-0.024181146938142703,-5.317778721980904e-19,0.6407824736836162,-1.5071341531334474e-18,-0.6407824736836163,0.6581377285697595,0.365663042248017,0.6581377285697597,100.0,160.7142857142859,[0.95516724]
-6.062267743058231e-18,0.6519374055190171,-1.1027981025543703e-17,0.6519374055190171,2.3989693601915896e-18,-0.020523969542208843,-1.1027981025543703e-17,-0.020523969542208843,-1.5318458502196013e-18,0.652260388219794,-2.227910787747357e-18,-0.652260388219794,0.6597471806950235,0.35981566826631634,0.6597471806950235,100.0,160.7142857142859,[0.94806087]
-7.193109667201925e-18,0.658453293866111,-9.409958671927715e-18,0.658453293866111,2.6149362919618345e-18,-0.018211946704011998,-9.409958671927715e-18,-0.018211946704011998,-2.5644716571511994e-18,0.6587051048882808,-3.0916186873685035e-18,-0.6587051048882809,0.6607141496148211,0.35624938596091293,0.6607141496148212,100.0,160.7142857142859,[0.94806087]
-8.40100511976616e-18,0.6619370562533298,-7.806349940485463e-18,0.6619370562533298,2.7728417621757573e-18,-0.016683729168798903,-7.806349940485463e-18,-0.016683729168798903,-3.609035334683163e-18,0.6621472746000707,-4.006751184633941e-18,-0.6621472746000705,0.6613299767521035,0.35395666923809216,0.6613299767521035,100.0,160.7142857142859,[0.94806087]
-9.636032096422133e-18,0.6632712991481887,-6.215221710125412e-18,0.6632712991481887,2.9139256874528017e-18,-0.01568555673766114,-6.215221710125412e-18,-0.01568555673766114,-4.6687926657065e-18,0.6634567453601602,-4.967236572711496e-18,-0.6634567453601602,0.6617182948859507,0.35250219350588446,0.6617182948859507,100.0,160.7142857142859,[0.94806087]
-1.0899275858133515e-17,0.6627891420741354,-4.642135943286366e-18,0.6627891420741354,3.0099712827375588e-18,-0.015103975544353885,-4.642135943286366e-18,-0.015103975544353885,-5.731263149139011e-18,0.6629612182689214,-5.945591222887487e-18,-0.6629612182689215,0.6619323632018854,0.35169744538727377,0.6619323632018854,100.0,160.7142857142859,[0.94865508]
-1.2185310100081958e-17,0.6604668562698498,-3.07230595933833e-18,0.6604668562698498,3.090280594049107e-18,-0.014909308621044321,-3.07230595933833e-18,-0.014909308621044321,-6.805942818412806e-18,0.6606351154113261,-6.94816160029755e-18,-0.660635115411326,0.6619856924046196,0.351496637399496,0.6619856924046196,100.0,160.7142857142859,[0.94865508]
-1.3536459999850577e-17,0.6559163071446457,-1.512107666442861e-18,0.6559163071446457,3.135590239282312e-18,-0.015146178683074805,-1.512107666442861e-18,-0.015146178683074805,-7.889575890636873e-18,0.6560911588392034,-7.960783738993019e-18,-0.6560911588392034,0.6618569889698923,0.3519810396930722,0.6618569889698923,100.0,160.7142857142859,[0.94865508]
-1.4924508772383958e-17,0.6481713203096549,3.944245314836602e-20,0.6481713203096549,3.1440010117507514e-18,-0.015963709810224127,3.944245314836602e-20,-0.015963709810224127,-8.985960779184059e-18,0.6483678743605872,-8.988413557246712e-18,-0.6483678743605872,0.6614738323550048,0.35341864441362764,0.6614738323550047,100.0,160.7142857142859,[0.94806087]
-1.6412401553574942e-17,0.6350086788891537,1.559893063249437e-18,0.6350086788891537,3.0775287777259897e-18,-0.017722927652686096,1.559893063249437e-18,-0.017722927652686096,-1.0107849300377479e-17,0.6352559519037428,-1.0029544866640767e-17,-0.6352559519037428,0.6606509329310338,0.35648378593522195,0.6606509329310339,100.0,160.7142857142859,[0.94806087]
-1.8116803897018005e-17,0.6106559535961207,3.037696308918805e-18,0.6106559535961207,2.8298179627684098e-18,-0.02134848603894778,3.037696308918805e-18,-0.02134848603894778,-1.1264466172408326e-17,0.6110290103739286,-1.1054061469805162e-17,-0.6110290103739285,0.6588591684103969,0.3630553572158385,0.6588591684103968,100.0,160.7142857142859,[0.95132753]
-2.036329409181402e-17,0.555401866067072,4.3910167306147616e-18,0.555401866067072,2.079631321631818e-18,-0.02969839708221353,4.3910167306147616e-18,-0.02969839708221353,-1.2543717533333836e-17,0.556195314273717,-1.2095711175547353e-17,-0.556195314273717,0.6540040257148938,0.38020713919839216,0.6540040257148938,100.0,160.7142857142859,[0.95405407]
-2.5122163417505098e-17,0.36758756630479167,5.33175145688815e-18,0.36758756630479167,-2.465441594216351e-18,-0.04599312967888496,5.33175145688815e-18,-0.04599312967888496,-1.4702844220554448e-17,0.3704537580853222,-1.3654912231377939e-17,-0.37045375808532216,0.6332673161635687,0.4449101173922451,0.6332673161635688,100.0,160.7142857142859,[1.25273499]
-2.54840979488889e-17,0.36454646443394906,6.246965593312747e-18,0.36454646443394906,-2.4844336610805684e-18,-0.039731272110332956,6.246965593312747e-18,-0.039731272110332956,-1.5117142593435307e-17,0.3667051931931124,-1.3804272128690714e-17,-0.36670519319311223,0.6899463091731121,0.21897073073084697,0.6899463091731121,100.0,173.57142857142813,[0.53981174]
-2.1172356140229686e-17,0.5516472866329553,6.571441664247392e-18,0.5516472866329553,2.0449029707943916e-18,-0.022061968869391872,6.571441664247392e-18,-0.022061968869391872,-1.4069323133012335e-17,0.5520882713116588,-1.3554767854966271e-17,-0.5520882713116588,0.6989356450957904,0.1515847222811796,0.6989356450957905,100.0,173.57142857142813,[0.381508]
-1.9380047658729388e-17,0.6073993761851997,6.5076825826318044e-18,0.6073993761851997,2.745710238084018e-18,-0.014852449582728631,6.5076825826318044e-18,-0.014852449582728631,-1.3868549854733466e-17,0.6075809390104149,-1.3553338137091156e-17,-0.6075809390104147,0.7005153181716034,0.13622253122693803,0.7005153181716033,100.0,173.57142857142813,[0.37878146]
-1.815695855267378e-17,0.6317427479649868,6.356271720997342e-18,0.6317427479649868,2.964254664642978e-18,-0.01131326578405823,6.356271720997342e-18,-0.01131326578405823,-1.3792852902517513e-17,0.6318440389756429,-1.35675943683856e-17,-0.6318440389756428,0.7011304323241393,0.12973909872482886,0.7011304323241393,100.0,173.57142857142813,[0.37878146]
-1.71558053136886e-17,0.6446608881399484,6.167300655698377e-18,0.6446608881399484,3.0144479842126958e-18,-0.009151774075191521,6.167300655698377e-18,-0.009151774075191521,-1.3743744843911465e-17,0.6447258453529766,-1.3569396078664555e-17,-0.6447258453529766,0.7014660312657687,0.12605877185068434,0.7014660312657687,100.0,173.57142857142813,[0.37878146]
-1.623875979938781e-17,0.652025829806031,5.9707327636537254e-18,0.652025829806031,2.979990948616187e-18,-0.007650252182139866,5.9707327636537254e-18,-0.007650252182139866,-1.3716613319819726e-17,0.6520707086602602,-1.357662136832305e-17,-0.6520707086602602,0.7016834298919636,0.12361524351834444,0.7016834298919638,100.0,173.57142857142813,[0.37878146]
-1.54009383354349e-17,0.6560951766537512,5.7557154352266914e-18,0.6560951766537512,2.899410322063721e-18,-0.006519175564823668,5.7557154352266914e-18,-0.006519175564823668,-1.36943654700645e-17,0.6561275641812053,-1.3580253477417928e-17,-0.6561275641812052,0.7018393292391596,0.1218323104363233,0.7018393292391595,100.0,173.57142857142813,[0.37878146]
-1.458699261268272e-17,0.6578408191502924,5.540138519115265e-18,0.6578408191502924,2.797124476237864e-18,-0.005621382491422529,5.540138519115265e-18,-0.005621382491422529,-1.3681613653741382e-17,0.6578648366354919,-1.3586977496246422e-17,-0.6578648366354919,0.7019584831614564,0.12045154974235456,0.7019584831614564,100.0,173.57142857142813,[0.38998401]
-1.3818085219922831e-17,0.6576380725382845,5.319287913008507e-18,0.6576380725382845,2.6503429309015543e-18,-0.004885720018051896,5.319287913008507e-18,-0.004885720018051896,-1.3670761044104687e-17,0.6576562207658078,-1.359173018332588e-17,-0.6576562207658075,0.7020530928208647,0.11934366225869159,0.7020530928208645,100.0,173.57142857142813,[0.38998401]
-1.309584404860073e-17,0.6554784968732034,5.09652114301277e-18,0.6554784968732034,2.490945226862586e-18,-0.004275151482253869,5.09652114301277e-18,-0.004275151482253869,-1.3668454864556889e-17,0.655492438387622,-1.3601982522084531e-17,-0.6554924383876221,0.702129341619914,0.11844313096491509,0.702129341619914,100.0,173.57142857142813,[0.37878146]
-1.2403447553779543e-17,0.6509671996686645,4.868548511831931e-18,0.6509671996686645,2.3002106124976585e-18,-0.003774938369422237,4.868548511831931e-18,-0.003774938369422237,-1.3666962630731843e-17,0.6509781449512383,-1.3610455317500209e-17,-0.6509781449512384,0.7021897264122682,0.11772500262105579,0.7021897264122682,100.0,173.57142857142813,[0.37878146]
-1.1743608887868442e-17,0.6431025224878365,4.640575880651091e-18,0.6431025224878365,2.0573834718765917e-18,-0.00339170179516008,4.640575880651091e-18,-0.00339170179516008,-1.3682427599464134e-17,0.6431114662881432,-1.3633421059968476e-17,-0.6431114662881432,0.7022333315771793,0.11720365200807674,0.7022333315771793,100.0,173.57142857142813,[0.37878146]
-1.1225939408198056e-17,0.6295698589183181,4.402751114784439e-18,0.6295698589183181,1.7391306942804896e-18,-0.003165101700043548,4.402751114784439e-18,-0.003165101700043548,-1.3707388601628535e-17,0.6295778149896983,-1.3663083247236887e-17,-0.6295778149896984,0.702253743804881,0.11695879028126265,0.7022537438048813,100.0,173.57142857142813,[0.37878146]
-1.0917725294515897e-17,0.6043595929799828,4.167758201744862e-18,0.6043595929799828,1.2711119036979866e-18,-0.00320995154155497,4.167758201744862e-18,-0.00320995154155497,-1.3769519791798618e-17,0.6043681174713219,-1.3725154801071926e-17,-0.6043681174713219,0.7022302349696181,0.1172407531067166,0.702230234969618,100.0,173.57142857142813,[0.37878146]
-1.1182528969651273e-17,0.5470365867912836,3.908075601781802e-18,0.5470365867912836,2.7294313236289744e-19,-0.0038399685482491002,3.908075601781802e-18,-0.0038399685482491002,-1.3910875032316578e-17,0.5470500641136141,-1.3855855971842906e-17,-0.5470500641136141,0.7020875985952761,0.11893699087095054,0.7020875985952761,100.0,173.57142857142813,[0.38486561]
-1.4067152611084996e-17,0.35565910487120556,3.635115512216347e-18,0.35565910487120556,-4.515703041018861e-18,-0.00307442399343249,3.635115512216347e-18,-0.00307442399343249,-1.4829955410924247e-17,0.35567239274461376,-1.476703072729732e-17,-0.3556723927446138,0.7019500399298921,0.12054991864304901,0.7019500399298921,100.0,173.57142857142813,[0.31384809]
-1.3878045888165573e-17,0.3556147051965801,4.375195660628766e-18,0.3556147051965801,-4.637998385862376e-18,0.003887045198294529,4.375195660628766e-18,0.003887045198294529,-1.4781932613281868e-17,0.355635948228556,-1.4877426370437073e-17,-0.35563594822855615,0.7017533455901632,0.12281890695664874,0.7017533455901634,100.0,173.57142857142813,[0.31384809]
-1.0611139072279243e-17,0.5469036616197609,5.5059867131647884e-18,0.5469036616197609,-8.960185831296906e-20,0.004672589311421245,5.5059867131647884e-18,0.004672589311421245,-1.3766264008907609e-17,0.546923621892468,-1.3860064825339063e-17,-0.5469236218924679,0.7019586097316985,0.12045007450011025,0.7019586097316984,100.0,173.57142857142813,[0.38486561]
-9.953470928295482e-18,0.6041385687154437,6.651734018356383e-18,0.6041385687154437,6.554976220564217e-19,0.004061932282953981,6.651734018356383e-18,0.004061932282953981,-1.3524793444491129e-17,0.6041522237842181,-1.361401498508907e-17,-0.604152223784218,0.702112466623413,0.11864302939479694,0.7021124666234129,100.0,173.57142857142813,[0.37878146]
-9.888626585716225e-18,0.6292612337990148,7.808952871078014e-18,0.6292612337990148,8.945941781148743e-19,0.004035913456220038,7.808952871078014e-18,0.004035913456220038,-1.337163599099326e-17,0.6292741763013037,-1.347162700195077e-17,-0.6292741763013038,0.7021384201192047,0.11833544686616303,0.7021384201192047,100.0,173.57142857142813,[0.37878146]
-1.0031881032920609e-17,0.6427068645801212,8.980822746809186e-18,0.6427068645801212,9.704267879512857e-19,0.004280832263863804,8.980822746809186e-18,0.004280832263863804,-1.3248323213996306e-17,0.6427211209407094,-1.3367805256911771e-17,-0.6427211209407092,0.7021177403360565,0.11858059457930203,0.7021177403360563,100.0,173.57142857142813,[0.37878146]
-1.0293157609924059e-17,0.6504851447862102,1.0148995952382857e-17,0.6504851447862102,9.664248881477541e-19,0.004681872020667749,1.0148995952382857e-17,0.004681872020667749,-1.3139118829527055e-17,0.6505019934736209,-1.3285088359583075e-17,-0.650501993473621,0.7020726245163508,0.11911364241532507,0.7020726245163509,100.0,173.57142857142813,[0.37878146]
-1.061141038752016e-17,0.6549107464367001,1.1327301086484538e-17,0.6549107464367001,9.228109631702832e-19,0.005199366058887002,1.1327301086484538e-17,0.005199366058887002,-1.3045175927359407e-17,0.6549313851127384,-1.322488411948819e-17,-0.6549313851127386,0.7020099783305298,0.1198498254013676,0.70200997833053,100.0,173.57142857142813,[0.37878146]
-1.0951368384389654e-17,0.6569853913929836,1.250605558645399e-17,0.6569853913929836,8.359900860767175e-19,0.00582668686230456,1.250605558645399e-17,0.00582668686230456,-1.2950486908279237e-17,0.6570112288108807,-1.3172276758767972e-17,-0.6570112288108806,0.7019308850287885,0.1207727837114101,0.7019308850287886,100.0,173.57142857142813,[0.38998401]
-1.1338806548419691e-17,0.6571040333572222,1.3687582589041565e-17,0.6571040333572222,7.317372047542091e-19,0.006578568093950552,1.3687582589041565e-17,0.006578568093950552,-1.2860071104243516e-17,0.6571369630545036,-1.3133751058916207e-17,-0.6571369630545038,0.7018328555727303,0.12190687296971596,0.7018328555727303,100.0,173.57142857142813,[0.38998401]
-1.1741980996422938e-17,0.6552751712795992,1.4869948973155726e-17,0.6552751712795992,5.98114448602393e-19,0.0074920436321018365,1.4869948973155726e-17,0.0074920436321018365,-1.2777726928625087e-17,0.6553179997629344,-1.3117597977105059e-17,-0.6553179997629344,0.7017095843871849,0.1233179563499525,0.7017095843871849,100.0,173.57142857142813,[0.37878146]
-1.2233875528206171e-17,0.6511235467432941,1.6059878269610462e-17,0.6511235467432941,4.339687278473702e-19,0.00863826605165801,1.6059878269610462e-17,0.00863826605165801,-1.270141951711707e-17,0.6511808448994382,-1.3127343332398902e-17,-0.6511808448994382,0.7015485702298346,0.12513675406110727,0.7015485702298346,100.0,173.57142857142813,[0.37878146]
-1.275561473649032e-17,0.643677324025867,1.7261550428836153e-17,0.643677324025867,2.264125685455645e-19,0.01015439960673072,1.7261550428836153e-17,0.01015439960673072,-1.2639763128618593e-17,0.6437574149448485,-1.3184000870360484e-17,-0.6437574149448485,0.7013244104303593,0.12762500800790458,0.7013244104303595,100.0,173.57142857142813,[0.37878146]
-1.3370415072409132e-17,0.6306789523717836,1.847794991848289e-17,0.6306789523717836,-6.043546991434931e-20,0.012329975378722156,1.847794991848289e-17,0.012329975378722156,-1.2591808159786444e-17,0.6307994683396704,-1.3314612420988281e-17,-0.6307994683396703,0.7009788773675935,0.13136676508514916,0.7009788773675935,100.0,173.57142857142813,[0.37878146]
-1.4215290732625893e-17,0.6062564506704882,1.9723397096110348e-17,0.6062564506704882,-5.219426947148349e-19,0.015882729835630813,1.9723397096110348e-17,0.015882729835630813,-1.2575257930090483e-17,0.6064644631687908,-1.361106649965261e-17,-0.606464463168791,0.7003462258236003,0.13795045469035924,0.7003462258236005,100.0,173.57142857142813,[0.37878146]
-1.562178894154166e-17,0.5504263874532074,2.1065881865372167e-17,0.5504263874532074,-1.478803720620251e-18,0.0231053440743925,2.1065881865372167e-17,0.0231053440743925,-1.2673881020163955e-17,0.5509111225321053,-1.4440073479476607e-17,-0.5509111225321053,0.6987219419285006,0.1535424883715579,0.6987219419285005,100.0,173.57142857142813,[0.37837344]
-1.9561693212523582e-17,0.3632488217617896,2.2792167478715474e-17,0.3632488217617896,-6.239809653833551e-18,0.04078739982047953,2.2792167478715474e-17,0.04078739982047953,-1.3628300208901115e-17,0.36553155608708254,-1.859771008733619e-17,-0.3655315560870827,0.68943836298107,0.22214744495484398,0.6894383629810698,100.0,173.57142857142813,[0.53981174]
-1.9357257178492326e-17,0.3662153750978796,2.2827680100171177e-17,0.3662153750978796,-6.290342117454415e-18,0.047078321035615316,2.2827680100171177e-17,0.047078321035615316,-1.3477177619710127e-17,0.36922902008050923,-1.943731806406152e-17,-0.3692290200805093,0.6322010718909804,0.44793259470571034,0.6322010718909804,100.0,160.7142857142859,[1.25240203]
-1.532591967132124e-17,0.5539587751428926,2.061214103934294e-17,0.5539587751428926,-1.6134099945203928e-18,0.030833873566926673,2.061214103934294e-17,0.030833873566926673,-1.194617962961839e-17,0.5548162329248805,-1.4234764924898507e-17,-0.5548162329248806,0.6534156972596268,0.3822248724892604,0.6534156972596268,100.0,160.7142857142859,[0.95405407]
-1.3793531190619807e-17,0.609143500151413,1.8806203206287183e-17,0.609143500151413,-7.651768081972778e-19,0.02253310636840757,1.8806203206287183e-17,0.02253310636840757,-1.1287087080619813e-17,0.6095601239084826,-1.2680279779723836e-17,-0.6095601239084827,0.6583369538595972,0.364945078560779,0.6583369538595971,100.0,160.7142857142859,[0.95132753]
-1.281910250286499e-17,0.633428490862926,1.7128555089178958e-17,0.633428490862926,-4.107882319514905e-19,0.018955909455737847,1.7128555089178958e-17,0.018955909455737847,-1.075513963639615e-17,0.6337120635905382,-1.1779611713025834e-17,-0.6337120635905382,0.6601418033919157,0.35836517524578027,0.6601418033919157,100.0,160.7142857142859,[0.94806087]
-1.2061590350223627e-17,0.6465250494077086,1.549460992236163e-17,0.6465250494077086,-2.256664516330417e-19,0.017244355620840614,1.549460992236163e-17,0.017244355620840614,-1.0260633695419086e-17,0.6467549824411236,-1.1087500449126149e-17,-0.6467549824411236,0.660962102226602,0.3553282972694152,0.6609621022266019,100.0,160.7142857142859,[0.94806087]
-1.139103473229629e-17,0.6542056107737069,1.3881619618604532e-17,0.6542056107737069,-1.1161230723239258e-19,0.0164738146584121,1.3881619618604532e-17,0.0164738146584121,-9.79448019711789e-18,0.6544129947802064,-1.0494267133180273e-17,-0.6544129947802064,0.6613357299833206,0.35393516990383517,0.6613357299833206,100.0,160.7142857142859,[0.94806087]
-1.0778269260684357e-17,0.6586933905438174,1.2284196026795069e-17,0.6586933905438174,-5.017636236716039e-20,0.01628327014261372,1.2284196026795069e-17,0.01628327014261372,-9.33032764871846e-18,0.6588946255909568,-9.936521519341571e-18,-0.6588946255909569,0.6614509228094433,0.3535043895471052,0.6614509228094433,100.0,160.7142857142859,[0.94806087]
-1.019412754698921e-17,0.6609545576799343,1.069318225755228e-17,0.6609545576799343,-2.1247374804343345e-20,0.016523603604155064,1.069318225755228e-17,0.016523603604155064,-8.882589672394532e-18,0.661161067209757,-9.418591249270675e-18,-0.661161067209757,0.6613811885613506,0.35376524254701713,0.6613811885613506,100.0,160.7142857142859,[0.94806087]
-9.661807044309285e-18,0.6613772383848867,9.119863329178071e-18,0.6613772383848867,-2.4282714062106683e-20,0.017150197657512904,9.119863329178071e-18,0.017150197657512904,-8.436513501921223e-18,0.6615995622227328,-8.910093937547175e-18,-0.6615995622227326,0.6611480558278215,0.35463572373660157,0.6611480558278215,100.0,160.7142857142859,[0.94806087]
-9.168148963460088e-18,0.6599851508319592,7.549325382023266e-18,0.6599851508319592,-3.1777797592449664e-20,0.018192735661129524,7.549325382023266e-18,0.018192735661129524,-8.010514659275801e-18,0.6602358479736763,-8.429922257164911e-18,-0.6602358479736766,0.6607376330602339,0.35616226711418913,0.6607376330602339,100.0,160.7142857142859,[0.94806087]
-8.686767897262404e-18,0.6564451634243392,5.994027720666867e-18,0.6564451634243392,-9.170455143007886e-20,0.01976467981098127,5.994027720666867e-18,0.01976467981098127,-7.588382058813452e-18,0.6567426399673149,-7.95199498308347e-18,-0.6567426399673149,0.660095520667641,0.35853564284326284,0.660095520667641,100.0,160.7142857142859,[0.94806087]
-8.274368731067966e-18,0.6498746571097752,4.4573957000254575e-18,0.6498746571097752,-1.8749578867647595e-19,0.02211980182683076,4.4573957000254575e-18,0.02211980182683076,-7.180900481360643e-18,0.6502509942986681,-7.475398562344116e-18,-0.650250994298668,0.6590955318097648,0.3621963002251777,0.6590955318097647,100.0,160.7142857142859,[0.95516724]
-7.939158750914527e-18,0.6382102797612326,2.958582480387549e-18,0.6382102797612326,-3.5226892592612024e-19,0.025819468737361722,2.958582480387549e-18,0.025819468737361722,-6.802246148255307e-18,0.638732343128787,-7.04175475715175e-18,-0.6387323431287869,0.6574402994624501,0.3681636936003441,0.65744029946245,100.0,160.7142857142859,[0.95516724]
-7.811165786011747e-18,0.6160652491418724,1.5205311568132182e-18,0.6160652491418724,-6.949909468124597e-19,0.032271801333100106,1.5205311568132182e-18,0.032271801333100106,-6.484298600305237e-18,0.6169099288887483,-6.643566496764798e-18,-0.6169099288887483,0.6542953741106295,0.3792032790402303,0.6542953741106297,100.0,160.7142857142859,[0.95516724]
-8.169641048073852e-18,0.564993947157909,2.6707382062773914e-19,0.564993947157909,-1.5590536817228488e-18,0.04592177635722139,2.6707382062773914e-19,0.04592177635722139,-6.342434643710555e-18,0.5668570982786367,-6.42786283402887e-18,-0.5668570982786368,0.6463130361386308,0.40565862327150104,0.6463130361386308,100.0,160.7142857142859,[0.94996345]
-1.081855957396059e-17,0.3889464386674068,-2.7676062258861794e-19,0.3889464386674068,-6.205352618237042e-18,0.07702305591513058,-2.7676062258861794e-19,0.07702305591513058,-7.304094557939696e-18,0.3964995375716901,-7.879083413420267e-18,-0.39649953757169015,0.609344775802461,0.5073439547333708,0.609344775802461,100.0,160.7142857142859,[1.29468722]
-1.0246084415624891e-17,0.3943421982061182,-8.611694122240434e-19,0.3943421982061182,-6.230101655369475e-18,0.08140229501443996,-8.611694122240434e-19,0.08140229501443996,-7.575952429338924e-18,0.402656308679811,-7.458193904831758e-18,-0.40265630867981134,0.5103073595946651,0.6922230836132542,0.510307359594665,100.0,147.85714285714295,[1.33028544]
-6.959235929531132e-18,0.5715103180864973,-1.8777982181931135e-18,0.5715103180864973,-1.6263059470652476e-18,0.05135020141819978,-1.8777982181931135e-18,0.05135020141819978,-6.663078386867241e-18,0.5738125886254315,-6.4658287053003425e-18,-0.5738125886254316,0.5626559384268617,0.6056703640644595,0.5626559384268617,100.0,147.85714285714295,[1.4395964]
-5.926542293789305e-18,0.6215187926859906,-2.164177813932381e-18,0.6215187926859906,-8.180748015748909e-19,0.03700802015233144,-2.164177813932381e-18,0.03700802015233144,-6.886964332231763e-18,0.6226196296435308,-6.624240521668008e-18,-0.6226196296435307,0.5753045956423203,0.5814200241354379,0.5753045956423203,100.0,147.85714285714295,[1.41655363]
-5.380859515494198e-18,0.6435151035512229,-2.2465919380113587e-18,0.6435151035512229,-5.309469692727809e-19,0.030592475877175385,-2.2465919380113587e-18,0.030592475877175385,-7.311030053785647e-18,0.6442418707898736,-7.086141981849496e-18,-0.6442418707898736,0.580184601299004,0.5716394465316681,0.580184601299004,100.0,147.85714285714295,[1.41655363]
-4.982297426586548e-18,0.6554544421463249,-2.25626178276968e-18,0.6554544421463249,-4.0004584413141747e-19,0.027267459617764226,-2.25626178276968e-18,0.027267459617764226,-7.807486073056805e-18,0.6560213716666222,-7.618914342354921e-18,-0.6560213716666223,0.5825701505787061,0.5667663004355566,0.5825701505787061,100.0,147.85714285714295,[1.42177215]
-4.698162540535808e-18,0.6625441312825993,-2.2290751477696295e-18,0.6625441312825993,-3.5692367802810926e-19,0.025481658654778274,-2.2290751477696295e-18,0.025481658654778274,-8.335787718730641e-18,0.6630339665694457,-8.159207232507318e-18,-0.6630339665694456,0.5838238814046044,0.5641802469099083,0.5838238814046043,100.0,147.85714285714295,[1.42177215]
-4.4692403060117575e-18,0.6667855673451145,-2.1766413578120236e-18,0.6667855673451145,-3.507046239902059e-19,0.024624207317245017,-2.1766413578120236e-18,0.024624207317245017,-8.885574140044623e-18,0.6672400950225859,-8.723371050880678e-18,-0.6672400950225857,0.5844329414839838,0.562917643902513,0.5844329414839837,100.0,147.85714285714295,[1.42177215]
-4.25666481475298e-18,0.6690510735303786,-2.1073033565550724e-18,0.6690510735303786,-3.900750090277033e-19,0.024433028024006955,-2.1073033565550724e-18,0.024433028024006955,-9.447196688743627e-18,0.6694970588811978,-9.29037878083933e-18,-0.6694970588811979,0.5845961866733874,0.5625785252334718,0.5845961866733875,100.0,147.85714285714295,[1.42177215]
-4.059791693062297e-18,0.6696968861600877,-2.0300844954095987e-18,0.6696968861600877,-4.371693998300676e-19,0.02481298683429958,-2.0300844954095987e-18,0.02481298683429958,-1.0011956319915738e-17,0.6701564023779498,-9.848700530810112e-18,-0.6701564023779497,0.5843847021163137,0.5630177971120051,0.5843847021163137,100.0,147.85714285714295,[1.42177215]
-3.9112805130651386e-18,0.6687572612003827,-1.9314868411399623e-18,0.6687572612003827,-5.231720919002419e-19,0.025780535299453504,-1.9314868411399623e-18,0.025780535299453504,-1.0607120215273154e-17,0.669253995437131,-1.0449630261991883e-17,-0.6692539954371309,0.5837881891155681,0.5642541098639259,0.5837881891155681,100.0,147.85714285714295,[1.42177215]
-3.774062829971167e-18,0.6659553965359107,-1.8208251970759404e-18,0.6659553965359107,-6.341485040367343e-19,0.0274689709098298,-1.8208251970759404e-18,0.0274689709098298,-1.1219122612770006e-17,0.6665216684685855,-1.1060280494832124e-17,-0.6665216684685853,0.5827114949982868,0.5664756192403371,0.5827114949982867,100.0,147.85714285714295,[1.42177215]
-3.706335762957163e-18,0.6605396676738954,-1.6808657462934797e-18,0.6605396676738954,-7.886498158372718e-19,0.030198408870734918,-1.6808657462934797e-18,0.030198408870734918,-1.1850125555732355e-17,0.6612296094920919,-1.1680026471655143e-17,-0.661229609492092,0.5809184572882591,0.5701469038446654,0.5809184572882592,100.0,147.85714285714295,[1.42177215]
-3.6933465457982426e-18,0.6507396555351624,-1.502822538217559e-18,0.6507396555351624,-1.0222522382671471e-18,0.03469086545977755,-1.502822538217559e-18,0.03469086545977755,-1.2527955813556791e-17,0.6516636827631034,-1.2355569992636547e-17,-0.6516636827631034,0.5778485285622958,0.5763524582031201,0.5778485285622958,100.0,147.85714285714295,[1.41655363]
-3.8287667654211364e-18,0.6319052962285653,-1.2329698560207363e-18,0.6319052962285653,-1.4296172349523751e-18,0.042765949236463145,-1.2329698560207363e-18,0.042765949236463145,-1.3298033253293139e-17,0.6333507952278945,-1.3101120785052744e-17,-0.6333507952278947,0.5719554429080891,0.58799144777422,0.5719554429080892,100.0,147.85714285714295,[1.42644551]
-4.3725503370298215e-18,0.5879103641427815,-7.337307358798561e-19,0.5879103641427815,-2.3393965879573448e-18,0.060140548767365055,-7.337307358798561e-19,0.060140548767365055,-1.4340129657853008e-17,0.5909784106653455,-1.418641683370127e-17,-0.5909784106653455,0.5573320503086681,0.6154364072733044,0.557332050308668,100.0,147.85714285714295,[1.48809407]
-6.8260371034432505e-18,0.4277127324154161,6.651632275141038e-19,0.4277127324154161,-7.047648664014768e-18,0.09850153696276479,6.651632275141038e-19,0.09850153696276479,-1.686102978303313e-17,0.43890857163455804,-1.61945407981137e-17,-0.43890857163455843,0.4990229200825863,0.7084858858611773,0.49902292008258664,100.0,147.85714285714295,[1.38017586]
-6.2329589440003866e-18,0.4344672399510236,9.695874064246975e-19,0.4344672399510236,-7.167680222316879e-18,0.10010301517987888,9.695874064246975e-19,0.10010301517987888,-1.6986958208524555e-17,0.4458501948398851,-1.6312386517020664e-17,-0.4458501948398848,0.3749737340489653,0.8478144829777039,0.37497373404896533,100.0,134.9999999999996,[1.39732186]
-3.1869705630310435e-18,0.59611642708363,4.240307473236109e-20,0.59611642708363,-2.6803550597777212e-18,0.06219756587481952,4.240307473236109e-20,0.06219756587481952,-1.4116125012070586e-17,0.5993524270741757,-1.4003406385005516e-17,-0.5993524270741754,0.44541311346248036,0.7766687303550459,0.4454131134624804,100.0,134.9999999999996,[1.53900127]
-2.040697584560172e-18,0.6388402097866305,1.5565122209895677e-20,0.6388402097866305,-1.9976792813225276e-18,0.04465640078199736,1.5565122209895677e-20,0.04465640078199736,-1.2746076310051818e-17,0.640399100382744,-1.2676709502898947e-17,-0.6403991003827443,0.46391680488737796,0.7546935777427636,0.46391680488737785,100.0,134.9999999999996,[1.54006885]
-1.2343317313511225e-18,0.6575434492368937,2.3331203033608104e-19,0.6575434492368937,-1.82331260672607e-18,0.03667465529492379,2.3331203033608104e-19,0.03667465529492379,-1.1693619054729412e-17,0.6585654242179384,-1.1680268482605132e-17,-0.6585654242179385,0.47137973776808983,0.7453873393366525,0.47137973776808983,100.0,134.9999999999996,[1.56880607]
-5.880757846884495e-19,0.6677408441753238,5.401632088626936e-19,0.6677408441753238,-1.8189206912637195e-18,0.03239588792862547,5.401632088626936e-19,0.03239588792862547,-1.0736397688269653e-17,0.6685262362350921,-1.0778637476211898e-17,-0.6685262362350922,0.4751832626829545,0.7405415138477818,0.4751832626829546,100.0,134.9999999999996,[1.57799823]
-3.900156588187526e-22,0.6738586705325653,8.91342634524505e-19,0.6738586705325653,-1.8885935972711782e-18,0.029949357807993578,8.91342634524505e-19,0.029949357807993578,-9.833168054752455e-18,0.6745238853332234,-9.88996165893916e-18,-0.6745238853332234,0.47730653185577504,0.7378054955715796,0.47730653185577504,100.0,134.9999999999996,[1.57799823]
5.466323816383177e-19,0.6775900755857215,1.2754805030068205e-18,0.6775900755857215,-1.9992351046571632e-18,0.028595337407969823,1.2754805030068205e-18,0.028595337407969823,-8.962653104268999e-18,0.6781931906571603,-9.053821076879715e-18,-0.6781931906571603,0.47847335178113415,0.7362924033769831,0.47847335178113426,100.0,134.9999999999996,[1.58629238]
1.06598062436188e-18,0.6796738274935875,1.672617127074495e-18,0.6796738274935875,-2.1524752245174986e-18,0.028010695967981603,1.672617127074495e-18,0.028010695967981603,-8.11628944952783e-18,0.6802507705753763,-8.229203530161052e-18,-0.6802507705753764,0.47898742619167073,0.7356236069489324,0.47898742619167084,100.0,134.9999999999996,[1.58629238]
1.5668285590953879e-18,0.680415520172842,2.0890213725479433e-18,0.680415520172842,-2.310057448057672e-18,0.028068624057314098,2.0890213725479433e-18,0.028068624057314098,-7.292322020064265e-18,0.6809942200551706,-7.44410242569749e-18,-0.6809942200551703,0.4789665439911321,0.7356507999549665,0.47896654399113187,100.0,134.9999999999996,[1.58629238]
2.053618972908863e-18,0.6798531698975769,2.5122943448822732e-18,0.6798531698975769,-2.525023904877034e-18,0.02876908200172106,2.5122943448822732e-18,0.02876908200172106,-6.484362189814827e-18,0.6804616026632254,-6.68862009728433e-18,-0.6804616026632254,0.4784135396821838,0.7363701311823607,0.47841353968218386,100.0,134.9999999999996,[1.58629238]
2.500814318750956e-18,0.6777693383615293,2.963650564301873e-18,0.6777693383615293,-2.7477260255380214e-18,0.03023880080282789,2.963650564301873e-18,0.03023880080282789,-5.696890899555289e-18,0.6784435577828258,-5.948682187883315e-18,-0.6784435577828258,0.4772176919734091,0.7379204218173835,0.47721769197340896,100.0,134.9999999999996,[1.588161]
2.9387595105980218e-18,0.6735592142296957,3.4362901925812507e-18,0.6735592142296957,-3.0223903139604885e-18,0.03280083622360488,3.4362901925812507e-18,0.03280083622360488,-4.954470657189958e-18,0.6743574051871103,-5.263374086983969e-18,-0.6743574051871104,0.47508811579543464,0.7406635973638013,0.47508811579543475,100.0,134.9999999999996,[1.57799823]
3.3175834157289323e-18,0.6657860100535865,3.949188339382066e-18,0.6657860100535865,-3.3720764459720948e-18,0.03719484977639666,3.949188339382066e-18,0.03719484977639666,-4.2737788714339724e-18,0.666824165753584,-4.689699479707164e-18,-0.666824165753584,0.4713320186640269,0.7454476885497644,0.47133201866402696,100.0,134.9999999999996,[1.56880607]
3.58460000579804e-18,0.6506419641794966,4.557592100548703e-18,0.6506419641794966,-3.894322250682642e-18,0.045291542337447366,4.557592100548703e-18,0.045291542337447366,-3.736076576592412e-18,0.6522164436432574,-4.32496665569503e-18,-0.6522164436432573,0.4640717262973155,0.7545030587763438,0.4640717262973154,100.0,134.9999999999996,[1.54006885]
3.542851373101876e-18,0.6146424164230431,5.407172589606256e-18,0.6146424164230431,-4.9209515668599014e-18,0.0629474141142856,5.407172589606256e-18,0.0629474141142856,-3.564113585458457e-18,0.61785732739042,-4.572232118956081e-18,-0.6178573273904201,0.4464582500290879,0.7754676408219292,0.446458250029088,100.0,134.9999999999996,[1.53900127]
2.0159315902251812e-18,0.4718789682670153,7.166866806506706e-18,0.4718789682670153,-9.747492848656669e-18,0.10096781574101857,7.166866806506706e-18,0.10096781574101857,-5.286889057872395e-18,0.48256011077196914,-8.042469755733554e-18,-0.48256011077196914,0.3843160098051127,0.8394059859299035,0.3843160098051127,100.0,134.9999999999996,[1.49531985]
2.9280425585817848e-18,0.47865561153978564,7.359891703042034e-18,0.47865561153978564,-9.7051427651823e-18,0.09947341417001829,7.359891703042034e-18,0.09947341417001829,-4.959176280899619e-18,0.48888255704736094,-7.800955260868329e-18,-0.4888825570473612,0.24651063307079515,0.9372646454262912,0.24651063307079527,100.0,122.14285714285755,[1.49169588]
5.713780273302397e-18,0.6229174199409687,6.135356465555833e-18,0.6229174199409687,-4.7838578833096304e-18,0.06122287421642391,6.135356465555833e-18,0.06122287421642391,-1.9767540933667736e-18,0.625918806550205,-3.2047655169966403e-18,-0.6259188065502048,0.315836614427074,0.894703563184191,0.31583661442707395,100.0,122.14285714285755,[1.54161181]
7.034941360348364e-18,0.6576922235160987,5.8156480181027e-18,0.6576922235160987,-3.677403066006286e-18,0.04395732637857838,5.8156480181027e-18,0.04395732637857838,-9.012731962721455e-19,0.6591595462525768,-1.6312869942719266e-18,-0.6591595462525769,0.33543894741484587,0.88031893374756,0.3354389474148459,100.0,122.14285714285755,[1.58559496]
8.0696189887894e-18,0.6727513950435207,5.73076238175099e-18,0.6727513950435207,-3.059589117245487e-18,0.03599035687811877,5.73076238175099e-18,0.03599035687811877,-2.444401945143335e-19,0.6737133999863869,-8.244785843818761e-19,-0.6737133999863869,0.343681922413337,0.8739367668272953,0.34368192241333706,100.0,122.14285714285755,[1.58559496]
9.009861956188625e-18,0.6809681177504933,5.733485867455472e-18,0.6809681177504933,-2.6160965355555623e-18,0.03160513166713159,5.733485867455472e-18,0.03160513166713159,2.6412114773244283e-19,0.6817011528084329,-2.443366164033102e-19,-0.6817011528084331,0.34804080449535546,0.870479865828298,0.3480408044953555,100.0,122.14285714285755,[1.60397735]
9.905609224077399e-18,0.6859263712680552,5.77120001072444e-18,0.6859263712680552,-2.2523759338211504e-18,0.028982004197461938,5.77120001072444e-18,0.028982004197461938,7.043068099673968e-19,0.6865383771998939,2.380962046420333e-19,-0.6865383771998939,0.3505931618632643,0.8684289664154679,0.3505931618632644,100.0,122.14285714285755,[1.60397735]
1.0770426554501589e-17,0.688985665417713,5.835646918868759e-18,0.688985665417713,-1.939258803993312e-18,0.027398896752800224,5.835646918868759e-18,0.027398896752800224,1.09673781032541e-18,0.6895302362437481,6.473081173578603e-19,-0.6895302362437482,0.3521157011915902,0.8671960942882008,0.3521157011915901,100.0,122.14285714285755,[1.59714527]
1.1623297535724135e-17,0.6907379450199925,5.922189061945289e-18,0.6907379450199925,-1.642560485541615e-18,0.026535625403555023,5.922189061945289e-18,0.026535625403555023,1.4598625253637055e-18,0.691247457938183,1.0276801958455077e-18,-0.691247457938183,0.35294234382616063,0.8665237468580952,0.35294234382616063,100.0,122.14285714285755,[1.59175851]
1.2471280603309531e-17,0.6914294279562516,6.019152068384027e-18,0.6914294279562516,-1.3792387109359765e-18,0.026258821905237612,6.019152068384027e-18,0.026258821905237612,1.799381754617028e-18,0.691927871654091,1.3609841162012679e-18,-0.6919278716540909,0.35321075402332214,0.8663049846818107,0.3532107540233221,100.0,122.14285714285755,[1.58943861]
1.3293751559647412e-17,0.691094356908685,6.1334882587553366e-18,0.691094356908685,-1.1486157219866832e-18,0.026551964268660657,6.1334882587553366e-18,0.026551964268660657,2.1066091710753814e-18,0.6916042343403873,1.6566659695236942e-18,-0.6916042343403873,0.3529400006058159,0.8665256556760069,0.35294000060581593,100.0,122.14285714285755,[1.58943861]
1.4113500884974838e-17,0.6895659222590488,6.2587882079269804e-18,0.6895659222590488,-9.473008730511373e-19,0.027510117977330776,6.2587882079269804e-18,0.027510117977330776,2.3826353348282347e-18,0.6901144598775623,1.900776215651894e-18,-0.6901144598775623,0.3520374380442266,0.8672596407250338,0.3520374380442266,100.0,122.14285714285755,[1.59714527]
1.489852185946484e-17,0.6863728545339148,6.4093305428429595e-18,0.6863728545339148,-7.757019318595851e-19,0.02939529632844773,6.4093305428429595e-18,0.02939529632844773,2.614437114311553e-18,0.6870020224768425,2.0830844838754535e-18,-0.6870020224768425,0.35024086247265657,0.8687132303060773,0.35024086247265657,100.0,122.14285714285755,[1.60397735]
1.56650764403699e-17,0.6803866049801128,6.5985194022122696e-18,0.6803866049801128,-6.958131061802006e-19,0.03281830964610772,6.5985194022122696e-18,0.03281830964610772,2.7588700870936713e-18,0.6811776373930606,2.1565619710553185e-18,-0.6811776373930607,0.34692080047509555,0.8713735802716525,0.3469208004750955,100.0,122.14285714285755,[1.60273784]
1.6346984905409375e-17,0.668580458271009,6.856472367514481e-18,0.668580458271009,-7.761430840823658e-19,0.039330438772582396,6.856472367514481e-18,0.039330438772582396,2.7304763112365703e-18,0.6697363007900321,1.963362900050273e-18,-0.6697363007900321,0.34039398285873257,0.8765066302471065,0.3403939828587325,100.0,122.14285714285755,[1.58559496]
1.6859028833131364e-17,0.6399102868878583,7.335142003518876e-18,0.6399102868878583,-1.3729295717594873e-18,0.05376784624264234,7.335142003518876e-18,0.05376784624264234,2.2185945367640354e-18,0.642165209704227,1.1924299298069794e-18,-0.6421652097042265,0.32475188125049526,0.8882974902860689,0.3247518812504951,100.0,122.14285714285755,[1.53655053]
1.6206045116354068e-17,0.5127105319357935,8.527772529349737e-18,0.5127105319357935,-5.7637960721578424e-18,0.08391422638470739,8.527772529349737e-18,0.08391422638470739,-5.514461075142818e-19,0.5195321808585377,-2.872828692634532e-18,-0.5195321808585375,0.27455853457222645,0.9215395933909204,0.27455853457222645,100.0,122.14285714285755,[1.50195739]
1.615190076858849e-17,0.5181673192011453,8.635719961179425e-18,0.5181673192011453,-5.603919062190339e-18,0.07961850457771721,8.635719961179425e-18,0.07961850457771721,-8.84044678473891e-19,0.524248487798767,-3.216903765102577e-18,-0.5242484877987668,0.1294703597415805,0.9830945284644663,0.12947035974158053,100.0,109.28571428571402,[1.4564719]
1.6238102707788714e-17,0.6466169797654082,8.039471732205354e-18,0.6466169797654082,-8.949219290455529e-19,0.04859906177737254,8.039471732205354e-18,0.04859906177737254,1.6977720772431447e-18,0.6484407354003747,6.473914003950741e-19,-0.6484407354003748,0.18286373604329498,0.9659822503962358,0.18286373604329492,100.0,109.28571428571402,[1.45501468]
1.5188036418026894e-17,0.6743526689828797,8.152997156329391e-18,0.6743526689828797,1.7287205616480244e-20,0.03502876370839662,8.152997156329391e-18,0.03502876370839662,2.0043413422772414e-18,0.6752618280720981,1.1842473294358015e-18,-0.6752618280720981,0.1986058263112722,0.9597455139308717,0.19860582631127222,100.0,109.28571428571402,[1.48584174]
1.3988204115278674e-17,0.686138144761847,8.451292763775102e-18,0.686138144761847,4.1969261798812217e-19,0.028654292687626568,8.451292763775102e-18,0.028654292687626568,1.803003177188179e-18,0.6867362100447719,1.1089342144247291e-18,-0.686736210044772,0.2054905961602754,0.9568423223182537,0.20549059616027537,100.0,109.28571428571402,[1.54294002]
1.270696452235332e-17,0.6925272284161752,8.812793230516882e-18,0.6925272284161752,6.530655882708936e-19,0.02503071454695744,8.812793230516882e-18,0.02503071454695744,1.413373824640186e-18,0.6929794360358182,7.910793757965854e-19,-0.6929794360358181,0.2092824404447524,0.9551972153660087,0.2092824404447524,100.0,109.28571428571402,[1.53095808]
1.1399131796517418e-17,0.6963671735474177,9.214300441065563e-18,0.6963671735474177,8.0694094083640435e-19,0.022749883035644774,9.214300441065563e-18,0.022749883035644774,9.428909405610699e-19,0.6967386867201756,3.507924329112871e-19,-0.6967386867201755,0.2116252591388302,0.954164293708817,0.21162525913883018,100.0,109.28571428571402,[1.53095808]
1.0077733308635648e-17,0.6987245385374188,9.630192526030522e-18,0.6987245385374188,9.290685683483755e-19,0.02125038935526433,9.630192526030522e-18,0.02125038935526433,4.1516319021128347e-19,0.6990476091097655,-1.5989007216668083e-19,-0.6990476091097656,0.21314549935756394,0.9534872795204085,0.21314549935756397,100.0,109.28571428571402,[1.52951436]
8.776407909281127e-18,0.7000602509907644,1.0059918508806789e-17,0.7000602509907644,9.993716728915002e-19,0.020278415802093882,1.0059918508806789e-17,0.020278415802093882,-1.5787685493460726e-19,0.7003538885197218,-7.303646234394769e-19,-0.7003538885197216,0.2141196338078682,0.9530506622609151,0.21411963380786816,100.0,109.28571428571402,[1.5289515]
7.421351493973363e-18,0.7005641745065365,1.0495059800715371e-17,0.7005641745065365,1.0531208383506045e-18,0.019720453892364063,1.0495059800715371e-17,0.019720453892364063,-7.550660761724656e-19,0.7008416789145366,-1.3376876759239226e-18,-0.7008416789145364,0.21466988724731256,0.9528030641315404,0.2146698872473126,100.0,109.28571428571402,[1.5289515]
6.074983525325914e-18,0.7002599879361878,1.0947833470047174e-17,0.7002599879361878,1.0813625292972695e-18,0.019546775382514155,1.0947833470047174e-17,0.019546775382514155,-1.3804715525531529e-18,0.7005327452248358,-1.987127432902467e-18,-0.7005327452248359,0.21482861766388223,0.9527315099571604,0.21482861766388223,100.0,109.28571428571402,[1.5289515]
4.7448732746303125e-18,0.699012744982043,1.1405759876827946e-17,0.699012744982043,1.083282667530598e-18,0.019801955323848545,1.1405759876827946e-17,0.019801955323848545,-2.0495582528089606e-18,0.6992931681934111,-2.690504202532435e-18,-0.6992931681934114,0.21454933350719319,0.9528573696956109,0.21454933350719319,100.0,109.28571428571402,[1.5289515]
3.369724693942424e-18,0.6964449956887359,1.1881336479342438e-17,0.6964449956887359,1.0385323450254955e-18,0.02063507382728098,1.1881336479342438e-17,0.02063507382728098,-2.7851182469146894e-18,0.6967506284832045,-3.484067619869336e-18,-0.6967506284832045,0.2136735197904614,0.9532508871649219,0.21367351979046142,100.0,109.28571428571402,[1.52951436]
1.9815529816905e-18,0.6916499863948115,1.237614857731255e-17,0.6916499863948115,9.08042100850785e-19,0.022407115952780596,1.237614857731255e-17,0.022407115952780596,-3.608042278508399e-18,0.6920128485261415,-4.4065933884925376e-18,-0.6920128485261414,0.21180909173019594,0.9540827098951428,0.21180909173019602,100.0,109.28571428571402,[1.53095808]
5.580933309167579e-19,0.6821660974548688,1.2916836797063797e-17,0.6821660974548688,6.234402955780659e-19,0.026042696670687555,1.2916836797063797e-17,0.026042696670687555,-4.63472352611849e-18,0.6826630256332088,-5.6209343363793544e-18,-0.6826630256332088,0.20791112692412847,0.9557959649435005,0.20791112692412841,100.0,109.28571428571402,[1.54022295]
-9.983129075568265e-19,0.6587053262210932,1.3578241487126696e-17,0.6587053262210932,-1.755799756872497e-19,0.03439978302032625,1.3578241487126696e-17,0.03439978302032625,-6.219773129274317e-18,0.6596029501631131,-7.587019313916293e-18,-0.659602950163113,0.19841695827688152,0.959823640746726,0.1984169582768816,100.0,109.28571428571402,[1.48584174]
-3.420221123507854e-18,0.5421137220276716,1.4656512175237367e-17,0.5421137220276716,-4.782514488680469e-18,0.050698755805876454,1.4656512175237367e-17,0.050698755805876454,-1.0313403979864939e-17,0.5444792479525362,-1.2915204688185772e-17,-0.5444792479525363,0.17038104942188914,0.9705362414643727,0.17038104942188922,100.0,109.28571428571402,[1.3982641]
-4.532755627840583e-18,0.5451675767370666,1.461279809678229e-17,0.5451675767370666,-4.839793997986051e-18,0.0444515641877955,1.461279809678229e-17,0.0444515641877955,-1.1276050061405307e-17,0.5469768078119099,-1.3620061194071353e-17,-0.5469768078119099,0.021805331321952594,0.9995244144351251,0.021805331321952615,100.0,96.42857142857196,[1.62461468]
-4.5931211492943834e-18,0.6625096187496748,1.401981975962167e-17,0.6625096187496748,-3.7264790649012495e-19,0.026807587809291662,1.401981975962167e-17,0.026807587809291662,-8.832598779430342e-18,0.6630517639671827,-9.959742883374342e-18,-0.6630517639671827,0.05069710720664598,0.9974264918487757,0.050697107206646004,100.0,96.42857142857196,[1.61969086]
-5.526579116020355e-18,0.6855076292972531,1.3805325123715652e-17,0.6855076292972531,3.0883603233376337e-19,0.019620725562254995,1.3805325123715652e-17,0.019620725562254995,-8.924047383084322e-18,0.6857883658216503,-9.713700883533566e-18,-0.6857883658216501,0.0590349814041005,0.9965087766503792,0.05903498140410053,100.0,96.42857142857196,[1.61976893]
-6.569650559727273e-18,0.6950354531280921,1.3690003030989406e-17,0.6950354531280921,4.721069998974886e-19,0.016101558062884082,1.3690003030989406e-17,0.016101558062884082,-9.580371668765413e-18,0.6952219367058443,-1.0211752857256283e-17,-0.6952219367058443,0.0628757630182138,0.9960387928438104,0.06287576301821386,100.0,96.42857142857196,[1.59510716]
-7.647448234621297e-18,0.7001090907229071,1.3602608192332719e-17,0.7001090907229071,4.777426201849035e-19,0.013957426986401355,1.3602608192332719e-17,0.013957426986401355,-1.044425423339863e-17,0.7002482050537054,-1.0984256874343621e-17,-0.7002482050537056,0.06514959992614047,0.9957464834278493,0.06514959992614053,100.0,96.42857142857196,[1.5803956]
-8.747495878920867e-18,0.7030905676813399,1.3526081728211978e-17,0.7030905676813399,3.946572293453162e-19,0.012470588256625099,1.3526081728211978e-17,0.012470588256625099,-1.1410421584032545e-17,0.7032011532512839,-1.1889479711058199e-17,-0.703201153251284,0.06669738706229485,0.9955415195350344,0.06669738706229487,100.0,96.42857142857196,[1.5803956]
-9.837242022666855e-18,0.7048522104018643,1.3465273597275803e-17,0.7048522104018643,2.744004581967411e-19,0.011351496936367375,1.3465273597275803e-17,0.011351496936367375,-1.2439805385800214e-17,0.7049436112137554,-1.287218567293958e-17,-0.7049436112137553,0.06784584029201565,0.9953862988358544,0.06784584029201568,100.0,96.42857142857196,[1.5803956]
-1.0958994886239817e-17,0.705765696419777,1.3408423913311605e-17,0.705765696419777,1.2158459959570154e-19,0.010462974280294178,1.3408423913311605e-17,0.010462974280294178,-1.3503917538405307e-17,0.7058432489396518,-1.390093660645693e-17,-0.7058432489396517,0.06874634430508204,0.995262719230141,0.06874634430508207,100.0,96.42857142857196,[1.5803956]
-1.206990997772832e-17,0.7059787304792351,1.3355218703115786e-17,0.7059787304792351,-5.239497386112698e-20,0.00973385436065736,1.3355218703115786e-17,0.00973385436065736,-1.4607099085702504e-17,0.7060458312388701,-1.497439824937444e-17,-0.7060458312388701,0.06947613143951019,0.9951613609462537,0.06947613143951023,100.0,96.42857142857196,[1.5803956]
-1.3180818710265866e-17,0.705499742222146,1.3302691449826898e-17,0.705499742222146,-2.5784863876304035e-19,0.009127091799281542,1.3302691449826898e-17,0.009127091799281542,-1.5744465823442714e-17,0.7055587786146713,-1.6087925592620665e-17,-0.7055587786146713,0.07007461424936637,0.9950774326029131,0.0700746142493664,100.0,96.42857142857196,[1.5803956]
-1.431452004269079e-17,0.7042005853623787,1.3266441918689748e-17,0.7042005853623787,-4.89892654534453e-19,0.008627943677201072,1.3266441918689748e-17,0.008627943677201072,-1.6928227997292377e-17,0.7042534386403903,-1.7253046938645674e-17,-0.7042534386403906,0.07055646861636461,0.9950093313495989,0.07055646861636465,100.0,96.42857142857196,[1.5803956]
-1.5457454571908185e-17,0.7017393383667624,1.3213658552027078e-17,0.7017393383667624,-7.710465836059435e-19,0.008243030863949938,1.3213658552027078e-17,0.008243030863949938,-1.8168151896099362e-17,0.7017877503699002,-1.8477793451017733e-17,-0.7017877503699,0.07091209515535551,0.9949587677493755,0.07091209515535556,100.0,96.42857142857196,[1.5803956]
-1.6610694840979802e-17,0.6973006834720873,1.3174525269749556e-17,0.6973006834720873,-1.1278987896748365e-18,0.008012016651043894,1.3174525269749556e-17,0.008012016651043894,-1.9511176646280115e-17,0.6973467111713203,-1.9813298324225182e-17,-0.6973467111713204,0.07109254477901926,0.9949330128976958,0.07109254477901929,100.0,96.42857142857196,[1.5803956]
-1.7774794078639074e-17,0.6886602357761029,1.3139240543822754e-17,0.6886602357761029,-1.6570380946593765e-18,0.008049719547117935,1.3139240543822754e-17,0.008049719547117935,-2.106446858852153e-17,0.6887072805800625,-2.1371112338248474e-17,-0.6887072805800625,0.0709526235927485,0.9949529890455185,0.07095262359274851,100.0,96.42857142857196,[1.59962938]
-1.90561057396753e-17,0.6672539015814176,1.3124304063530321e-17,0.6672539015814176,-2.699779005394571e-18,0.008669855331038897,1.3124304063530321e-17,0.008669855331038897,-2.3213570389555277e-17,0.6673102243837458,-2.3553684196716903e-17,-0.6673102243837458,0.07003502158767022,0.9950830073428194,0.07003502158767023,100.0,96.42857142857196,[1.58249825]
-2.109547430348504e-17,0.5542106661976204,1.312369595572533e-17,0.5542106661976204,-7.526826486183304e-18,0.007891650266722266,1.312369595572533e-17,0.007891650266722266,-2.79776074227257e-17,0.5542668496952913,-2.8350254926260264e-17,-0.5542668496952913,0.0691583343394924,0.9952056318082078,0.06915833433949242,100.0,96.42857142857196,[1.52169555]
-2.1204824943826347e-17,0.5542516691380319,1.2387887068304722e-17,0.5542516691380319,-7.649832311318342e-18,0.0009301984443492395,1.2387887068304722e-17,0.0009301984443492395,-2.7569878376098072e-17,0.5542524497117176,-2.7611442154748134e-17,-0.5542524497117177,0.08034999979760973,0.993522901127623,0.0803499997976097,100.0,83.57142857142804,[1.52086444]
-1.9384704530481696e-17,0.6673882502857542,1.1552246393335386e-17,0.6673882502857542,-3.0503451897232735e-18,0.00015759491080447865,1.1552246393335386e-17,0.00015759491080447865,-2.1992281926446226e-17,0.6673882688927312,-2.1997737604733186e-17,-0.6673882688927312,0.07933676211248217,0.993685743258408,0.07933676211248217,100.0,83.57142857142804,[1.56767821]
-1.8339996716727995e-17,0.6888860681092936,1.0697189125286249e-17,0.6888860681092936,-2.254425834397486e-18,0.0007787454958435004,1.0697189125286249e-17,0.0007787454958435004,-1.902012414558637e-17,0.6888865082723203,-1.9044308335009322e-17,-0.6888865082723202,0.07996510605894673,0.993585005737286,0.0799651060589467,100.0,83.57142857142804,[1.58829569]
-1.7371261409731804e-17,0.697617208855259,9.827107014021977e-18,0.697617208855259,-1.9650520338644713e-18,0.0008128611387580217,9.827107014021977e-18,0.0008128611387580217,-1.6648389642439603e-17,0.6976176824265804,-1.667129176606146e-17,-0.6976176824265803,0.07998952373412756,0.9935810747923769,0.07998952373412753,100.0,83.57142857142804,[1.56899761]
-1.6454618628991752e-17,0.7021459851707859,8.950750207898908e-18,0.7021459851707859,-1.8365678400001082e-18,0.0005736480608577589,8.950750207898908e-18,0.0005736480608577589,-1.448664995628742e-17,0.7021462195038518,-1.4501276678212438e-17,-0.7021462195038518,0.07974488222252922,0.9936204041376314,0.07974488222252922,100.0,83.57142857142804,[1.56732437]
-1.5539601620046885e-17,0.7046968053146853,8.063404240291208e-18,0.7046968053146853,-1.7927338025847544e-18,0.00017592100771393789,8.063404240291208e-18,0.00017592100771393789,-1.2431267964225175e-17,0.7046968272732073,-1.24352940687023e-17,-0.7046968272732071,0.07934625053071453,0.9936842280389854,0.07934625053071452,100.0,83.57142857142804,[1.56732437]
-1.4630013035570686e-17,0.7060849600653352,7.188419576554763e-18,0.7060849600653352,-1.797736177339169e-18,-0.00034065469974073776,7.188419576554763e-18,-0.00034065469974073776,-1.0429605330039411e-17,0.7060850422407275,-1.042267010216924e-17,-0.7060850422407275,0.07883182851195182,0.9937661121345024,0.07883182851195181,100.0,83.57142857142804,[1.56643596]
-1.373995914844054e-17,0.7066523275215465,6.299715972917317e-18,0.7066523275215465,-1.8211879222368935e-18,-0.0009694504114640578,6.299715972917317e-18,-0.0009694504114640578,-8.479491531802794e-18,0.7066529925116846,-8.462216283467055e-18,-0.7066529925116846,0.07820679245696698,0.9938648777510882,0.07820679245696696,100.0,83.57142857142804,[1.56667496]
-1.2854244185514751e-17,0.7065270050187188,5.409824503992914e-18,0.7065270050187188,-1.884794389029465e-18,-0.0017251956161705195,5.409824503992914e-18,-0.0017251956161705195,-6.55515321136591e-18,0.7065291113044353,-6.528773570982469e-18,-0.7065291113044353,0.07745485465519217,0.9939826411867996,0.07745485465519214,100.0,83.57142857142804,[1.56674917]
-1.1954422949711576e-17,0.7057005132807848,4.513098951242541e-18,0.7057005132807848,-1.9570829435313927e-18,-0.0026449168188864744,4.513098951242541e-18,-0.0026449168188864744,-4.664863893838997e-18,0.7057054697462265,-4.631138592332265e-18,-0.7057054697462264,0.07653677915924521,0.9941248628174721,0.07653677915924521,100.0,83.57142857142804,[1.56674917]
-1.1080105346554638e-17,0.7040251007135092,3.621426048702603e-18,0.7040251007135092,-2.072646014003355e-18,-0.003799756053039206,3.621426048702603e-18,-0.003799756053039206,-2.8249046133274214e-18,0.7040353546383376,-2.7860700754981357e-18,-0.7040353546383376,0.07537735064175306,0.9943020215309131,0.07537735064175308,100.0,83.57142857142804,[1.56763758]
-1.0193309361965819e-17,0.7011290504632424,2.710183971379382e-18,0.7011290504632424,-2.2403020081658915e-18,-0.005326864083911205,2.710183971379382e-18,-0.005326864083911205,-1.0436829628241417e-18,0.7011492857333997,-1.0029765841237232e-18,-0.7011492857333997,0.07383020906184679,0.9945341625403162,0.07383020906184676,100.0,83.57142857142804,[1.56763758]
-9.354807490260296e-18,0.6961400150145445,1.7866643494920688e-18,0.6961400150145445,-2.473209052812771e-18,-0.007515756177177026,1.7866643494920688e-18,-0.007515756177177026,6.362013853713319e-19,0.6961805851180894,6.737342469358922e-19,-0.6961805851180894,0.07158051367971562,0.9948630358610656,0.07158051367971559,100.0,83.57142857142804,[1.57883111]
-8.526611358408994e-18,0.6866959988875607,8.271271656994643e-19,0.6866959988875607,-2.8788086457380064e-18,-0.011084152606956032,8.271271656994643e-19,-0.011084152606956032,2.1185682381789433e-18,0.6867854492686922,2.142429497033009e-18,-0.6867854492686921,0.06782016352665768,0.9953897984400053,0.06782016352665766,100.0,83.57142857142804,[1.59030093]
-7.827563400884692e-18,0.663781224550543,-2.2053676538130225e-19,0.663781224550543,-3.79868654277845e-18,-0.01832472614273467,-2.2053676538130225e-19,-0.01832472614273467,3.017471665393701e-18,0.6640341178388538,2.9979735462739794e-18,-0.6640341178388538,0.05975002250837,0.996423539274589,0.059750022508369985,100.0,83.57142857142804,[1.60896587]
-7.976651125768799e-18,0.5465229035466426,-1.6576064259013373e-18,0.5465229035466426,-8.498392453703266e-18,-0.036027095141836454,-1.6576064259013373e-18,-0.036027095141836454,1.4000629505452563e-18,0.5477090794257585,1.140989675432186e-18,-0.5477090794257585,0.03277991252346406,0.9989248994143193,0.03277991252346405,100.0,83.57142857142804,[1.60934227]
-7.613631333421327e-18,0.5435372246234375,-2.3071694244971257e-18,0.5435372246234375,-8.426297052336717e-18,-0.04232375319339816,-2.3071694244971257e-18,-0.04232375319339816,1.988398922310445e-18,0.5451825516611154,1.5222180968328382e-18,-0.5451825516611156,0.18102393562681032,0.9666750588798497,0.18102393562681035,100.0,70.71428571428592,[1.45891073]
-6.472606609141953e-18,0.6602030010984676,-1.6076028150352298e-18,0.6602030010984676,-3.564356417898204e-18,-0.026070340946454634,-1.6076028150352298e-18,-0.026070340946454634,4.52608720793491e-18,0.6607175382389118,4.3906377505723964e-18,-0.6607175382389118,0.20702563908257424,0.9561803017866993,0.2070256390825742,100.0,70.71428571428592,[1.50421817]
-6.188420851483541e-18,0.6837348895012263,-1.3221143997772372e-18,0.6837348895012263,-2.476138542032696e-18,-0.017762780215121714,-1.3221143997772372e-18,-0.017762780215121714,4.5439357234516674e-18,0.6839655806268505,4.4689311199042495e-18,-0.6839655806268506,0.21613054356356534,0.9521424138635121,0.2161305435635654,100.0,70.71428571428592,[1.5234237]
-6.056693062717506e-18,0.6932878453657977,-1.160549883198989e-18,0.6932878453657977,-1.9179348568211705e-18,-0.014180905578377362,-1.160549883198989e-18,-0.014180905578377362,4.001517736561428e-18,0.6934328623702319,3.948783327510404e-18,-0.6934328623702319,0.21984466002540767,0.9504402405815033,0.21984466002540767,100.0,70.71428571428592,[1.51139929]
-5.9558952114160555e-18,0.698150088871873,-1.035545426529722e-18,0.698150088871873,-1.5279462235439937e-18,-0.012466779567793483,-1.035545426529722e-18,-0.012466779567793483,3.267279874342592e-18,0.6982613888685212,3.226805212399606e-18,-0.6982613888685213,0.22158908962882204,0.9496296913612905,0.2215890896288221,100.0,70.71428571428592,[1.51139929]
-5.872465774833957e-18,0.7007832782261416,-9.43777947980778e-19,0.7007832782261416,-1.2075491546932584e-18,-0.011695769876624507,-9.43777947980778e-19,-0.011695769876624507,2.4306199787648592e-18,0.7008808701016064,2.396580350655667e-18,-0.7008808701016065,0.22237254014681856,0.9492633495386323,0.22237254014681856,100.0,70.71428571428592,[1.50972605]
-5.792287881842228e-18,0.7020941611273297,-8.645929786856683e-19,0.7020941611273297,-9.290689657828105e-19,-0.011506857966304896,-8.645929786856683e-19,-0.011506857966304896,1.537935605588005e-18,0.7021884496838053,1.5078228252640517e-18,-0.7021884496838053,0.22257399879980747,0.9491689154816053,0.22257399879980747,100.0,70.71428571428592,[1.50972605]
-5.734353599305086e-18,0.7024601683549659,-7.926323075925639e-19,0.7024601683549659,-6.956273718209398e-19,-0.011750921370021124,-7.926323075925639e-19,-0.011750921370021124,5.991276414551939e-19,0.7025584475887622,5.702817623768912e-19,-0.7025584475887622,0.22234658998757514,0.9492755068165376,0.22234658998757514,100.0,70.71428571428592,[1.50972605]
-5.679145187079036e-18,0.7020162238540604,-7.352892750164638e-19,0.7020162238540604,-4.693748368745101e-19,-0.012383336271602824,-7.352892750164638e-19,-0.012383336271602824,-3.589426449575922e-19,0.7021254343573733,-3.8642865089821137e-19,-0.7021254343573732,0.22173488837301833,0.9495616244122392,0.22173488837301825,100.0,70.71428571428592,[1.50972605]
-5.64345875429712e-18,0.7007386276056605,-6.821689833115757e-19,0.7007386276056605,-2.9548587846884736e-19,-0.013433777017528176,-6.821689833115757e-19,-0.013433777017528176,-1.3583916850857603e-18,0.7008673844484571,-1.386521436910141e-18,-0.7008673844484572,0.22070686032080056,0.9500405063020574,0.22070686032080059,100.0,70.71428571428592,[1.50972605]
-5.5914934070601606e-18,0.6984374990811937,-6.417842793570452e-19,0.6984374990811937,-1.3339807321793137e-19,-0.015015694248858028,-6.417842793570452e-19,-0.015015694248858028,-2.391753010678283e-18,0.6985988914939443,-2.4215345390726037e-18,-0.6985988914939444,0.21914294047721333,0.9507642942801341,0.21914294047721333,100.0,70.71428571428592,[1.51139929]
-5.576431171888606e-18,0.6946519021149794,-6.227151764515223e-19,0.6946519021149794,-1.4584783937049628e-20,-0.017382845813297628,-6.227151764515223e-19,-0.017382845813297628,-3.482225134658757e-18,0.6948693607006485,-3.512199292270834e-18,-0.6948693607006485,0.2167731469732313,0.9518502011885294,0.21677314697323122,100.0,70.71428571428592,[1.51139929]
-5.606135951468421e-18,0.6883152874331051,-6.357468528559083e-19,0.6883152874331051,2.4734199580195783e-20,-0.021096583174515952,-6.357468528559083e-19,-0.021096583174515952,-4.6550414342576595e-18,0.6886385123820463,-4.686757825684587e-18,-0.6886385123820461,0.21298620419214934,0.9535584689192586,0.21298620419214934,100.0,70.71428571428592,[1.53181483]
-5.663243570380893e-18,0.676580457138229,-7.16455320818279e-19,0.676580457138229,-1.0599337919124498e-19,-0.02756501181420644,-7.16455320818279e-19,-0.02756501181420644,-6.0150652500895635e-18,0.6771417465034131,-6.0704735961847255e-18,-0.677141746503413,0.20617946206598955,0.956545900019627,0.20617946206598955,100.0,70.71428571428592,[1.5268199]
-5.900771585202792e-18,0.6488938164228969,-9.778431132244385e-19,0.6488938164228969,-7.459123662669831e-19,-0.04123310166646919,-9.778431132244385e-19,-0.04123310166646919,-7.888011588700959e-18,0.6502025481839557,-8.038421928207936e-18,-0.6502025481839557,0.1907471289134361,0.9629283803183712,0.1907471289134361,100.0,70.71428571428592,[1.48131326]
-7.251510272809394e-18,0.5204925668425989,-1.9516376280992404e-18,0.5204925668425989,-5.189804304018421e-18,-0.07235455361638626,-1.9516376280992404e-18,-0.07235455361638626,-1.2039461200886302e-17,0.5254975676132324,-1.246229158543676e-17,-0.5254975676132325,0.13942183762730886,0.9803688603710589,0.13942183762730886,100.0,70.71428571428592,[1.42832428]
-6.7965993998037134e-18,0.5150665119770678,-2.5824209885362856e-18,0.5150665119770678,-5.03208165364457e-18,-0.076738997366462,-2.5824209885362856e-18,-0.076738997366462,-1.1793514994819845e-17,0.5207517503350639,-1.2496353232691474e-17,-0.520751750335064,0.2838671342163763,0.9158814880886957,0.2838671342163762,100.0,57.857142857142705,[1.39306115]
-4.047421413796719e-18,0.6422977081581054,-2.4782102352638807e-18,0.6422977081581054,-2.730835591965754e-19,-0.04667707833454861,-2.4782102352638807e-18,-0.04667707833454861,-7.641524871802987e-18,0.6439915337541354,-7.983976523063298e-18,-0.6439915337541356,0.3318179212948874,0.8830593039060739,0.3318179212948874,100.0,57.857142857142705,[1.43840041]
-2.4309760800185633e-18,0.6709957049896726,-3.1066352860030792e-18,0.6709957049896726,6.721734410338229e-19,-0.03232703063344225,-3.1066352860030792e-18,-0.03232703063344225,-5.738463601274921e-18,0.6717739746552879,-6.0334803888156974e-18,-0.671773974655288,0.3469558980025158,0.8713456315851567,0.34695589800251586,100.0,57.857142857142705,[1.46468889]
-1.0272503737209222e-18,0.6828269320005892,-3.9450751579367515e-18,0.6828269320005892,1.1130554083987875e-18,-0.02590552166371537,-3.9450751579367515e-18,-0.02590552166371537,-4.3315033085894675e-18,0.6833181653651591,-4.629474446291487e-18,-0.6833181653651592,0.35323458090329346,0.8662855543688521,0.35323458090329346,100.0,57.857142857142705,[1.47937514]
3.3849967744956254e-19,0.6888357359896081,-4.856651841934654e-18,0.6888357359896081,1.3800926650585124e-18,-0.022576430906882078,-4.856651841934654e-18,-0.022576430906882078,-3.084824614126284e-18,0.6892056053231417,-3.401597795107275e-18,-0.6892056053231418,0.35638907292403416,0.8636976655061045,0.3563890729240342,100.0,57.857142857142705,[1.48104594]
1.6575835071822559e-18,0.6920489044188826,-5.801091584488676e-18,0.6920489044188826,1.5787579510944745e-18,-0.02078844281427535,-5.801091584488676e-18,-0.02078844281427535,-1.9234109734220305e-18,0.6923610658189976,-2.2716742518407706e-18,-0.6923610658189975,0.35805691031357323,0.8623169359077877,0.3580569103135732,100.0,57.857142857142705,[1.45774105]
2.9327057892850525e-18,0.6935950223543184,-6.775698190392201e-18,0.6935950223543184,1.7342173448395014e-18,-0.019930689444088878,-6.775698190392201e-18,-0.019930689444088878,-8.166609948116729e-19,0.6938813208441372,-1.2022951701693987e-18,-0.693881320844137,0.35885081414100417,0.8616566522581235,0.3588508141410041,100.0,57.857142857142705,[1.45774105]
4.21298306096528e-18,0.6939453855754086,-7.760852441242678e-18,0.6939453855754086,1.8394834190148104e-18,-0.019741089640783638,-7.760852441242678e-18,-0.019741089640783638,2.6512586198396505e-19,0.6942261222264743,-1.749387741997491e-19,-0.6942261222264744,0.3590259640502586,0.8615107162859698,0.35902596405025866,100.0,57.857142857142705,[1.45774105]
5.486223093584212e-18,0.6932668281740256,-8.755706741868532e-18,0.6932668281740256,1.9372883240648913e-18,-0.02012450404889749,-8.755706741868532e-18,-0.02012450404889749,1.312048710321718e-18,0.6935588588646878,8.101642277380814e-19,-0.6935588588646876,0.3586723237537183,0.8618052728698146,0.3586723237537183,100.0,57.857142857142705,[1.45774105]
6.742081993581875e-18,0.6915251335722425,-9.773436043787945e-18,0.6915251335722425,2.0068107348996536e-18,-0.02109737682248487,-9.773436043787945e-18,-0.02109737682248487,2.339432622012779e-18,0.6918468831113557,1.7442906494573645e-18,-0.6918468831113556,0.35777085845870554,0.8625543609972891,0.3577708584587056,100.0,57.857142857142705,[1.45774105]
7.969189956643571e-18,0.6884741139496283,-1.0803884174972375e-17,0.6884741139496283,2.0439109744447874e-18,-0.02279299611796458,-1.0803884174972375e-17,-0.02279299611796458,3.3293813894081995e-18,0.6888513092466031,2.626662622601391e-18,-0.6888513092466031,0.35618665027909957,0.8638646539394403,0.35618665027909957,100.0,57.857142857142705,[1.48104594]
9.180019005250224e-18,0.683521861647679,-1.185929317584306e-17,0.683521861647679,2.030954611865822e-18,-0.025531466096930248,-1.185929317584306e-17,-0.025531466096930248,4.279915259109409e-18,0.6839985315125813,3.396686824444985e-18,-0.6839985315125813,0.3535928599040608,0.8659931748286093,0.35359285990406075,100.0,57.857142857142705,[1.47336731]
1.0329819081853021e-17,0.6753089182506046,-1.2958384327935882e-17,0.6753089182506046,1.9594270118286546e-18,-0.030034790909288442,-1.2958384327935882e-17,-0.030034790909288442,5.160926717975856e-18,0.675976496435909,4.0389120467727545e-18,-0.6759764964359087,0.3492296102902406,0.8695270890507399,0.3492296102902406,100.0,57.857142857142705,[1.4659284]
1.1405516183280256e-17,0.6602513921955901,-1.41456200787469e-17,0.6602513921955901,1.6915000319472497e-18,-0.03812256785052579,-1.41456200787469e-17,-0.03812256785052579,5.8812580843599364e-18,0.6613510649237158,4.2748685877522564e-18,-0.6613510649237156,0.34106539923593576,0.8759844672641539,0.3410653992359357,100.0,57.857142857142705,[1.46468889]
1.2211831164881633e-17,0.6254763215790086,-1.5567730174657738e-17,0.6254763215790086,9.29714664261439e-19,-0.05551168332340828,-1.5567730174657738e-17,-0.05551168332340828,6.2011133175977076e-18,0.6279348499975181,3.579794795966726e-18,-0.6279348499975184,0.3218011772476613,0.8904425891903638,0.32180117724766133,100.0,57.857142857142705,[1.43013902]
1.1520909946682934e-17,0.4812131257035704,-1.7882094222252394e-17,0.4812131257035704,-3.628207571824552e-18,-0.09388905425720397,-1.7882094222252394e-17,-0.09388905425720397,4.602108466649772e-18,0.49028688220134187,-1.4997914689665028e-18,-0.49028688220134203,0.25458643007836956,0.9329370285501069,0.2545864300783696,100.0,57.857142857142705,[1.39151722]
1.165899244710733e-17,0.47441801981982756,-1.7835999246575752e-17,0.47441801981982756,-3.739618512276576e-18,-0.0954922949722915,-1.7835999246575752e-17,-0.0954922949722915,5.187610995850146e-18,0.48393309034291243,-1.5768887537795793e-18,-0.48393309034291215,0.39150631813483777,0.8327338144455323,0.39150631813483777,100.0,45.00000000000011,[1.39008511]
1.3199639085454191e-17,0.6171597967648369,-1.528249121574674e-17,0.6171597967648369,5.912510208673109e-19,-0.057573976112523885,-1.528249121574674e-17,-0.057573976112523885,7.342608604248048e-18,0.6198394771779385,4.6179604278175035e-18,-0.6198394771779386,0.4513957574951863,0.7697296539894339,0.45139575749518646,100.0,45.00000000000011,[1.44840828]
1.3216460630391069e-17,0.653134415872191,-1.3640008097441796e-17,0.653134415872191,1.1237368562721701e-18,-0.040021783122817955,-1.3640008097441796e-17,-0.040021783122817955,7.621842858759718e-18,0.6543594641487492,5.946932183224807e-18,-0.6543594641487489,0.4684830481874095,0.7490308852925002,0.46848304818740955,100.0,45.00000000000011,[1.43435247]
1.295130085400199e-17,0.6682509553645287,-1.2230752753372722e-17,0.6682509553645287,1.1591053415061359e-18,-0.03203079615658013,-1.2230752753372722e-17,-0.03203079615658013,7.516207965428786e-18,0.6690181695948397,6.3441357417419335e-18,-0.6690181695948397,0.4754879524372595,0.7401502645909444,0.4754879524372595,100.0,45.00000000000011,[1.44433971]
1.2577462366422936e-17,0.6759942827962302,-1.0917118014699313e-17,0.6759942827962302,9.970241601624689e-19,-0.027744564790573814,-1.0917118014699313e-17,-0.027744564790573814,7.275996473302189e-18,0.6765633978043807,6.3849196733785964e-18,-0.6765633978043806,0.4790753683316227,0.7355090637890469,0.4790753683316227,100.0,45.00000000000011,[1.44247109]
1.2133828033117883e-17,0.6801722601440428,-9.643636871856518e-18,0.6801722601440428,7.9906577750811605e-19,-0.025292348508335588,-9.643636871856518e-18,-0.025292348508335588,6.96255954123237e-18,0.6806423483464153,6.249631333553658e-18,-0.6806423483464151,0.48107490903754563,0.732894169569546,0.4810749090375456,100.0,45.00000000000011,[1.45460772]
1.1686463115250216e-17,0.68222174871254,-8.398812341510464e-18,0.68222174871254,5.316761289827464e-19,-0.023934421274744364,-8.398812341510464e-18,-0.023934421274744364,6.6231187390408765e-18,0.6826414658795296,6.0441302090091576e-18,-0.6826414658795296,0.48216183775889065,0.7314642331774932,0.48216183775889077,100.0,45.00000000000011,[1.4567095]
1.1195212957164161e-17,0.6827476258374398,-7.171943898934889e-18,0.6827476258374398,2.501611307271151e-19,-0.023347653078491168,-7.171943898934889e-18,-0.023347653078491168,6.255427237388858e-18,0.6831467144698381,5.768479108157198e-18,-0.6831467144698382,0.4826195887296922,0.7308602227161946,0.4826195887296923,100.0,45.00000000000011,[1.4567095]
1.069317801825164e-17,0.6819673938162459,-5.9640076431020015e-18,0.6819673938162459,-8.454861195088262e-20,-0.02340523394245416,-5.9640076431020015e-18,-0.02340523394245416,5.862732340566046e-18,0.6823689113701061,5.461304640322882e-18,-0.6823689113701059,0.48255580588474134,0.7309444496087617,0.48255580588474134,100.0,45.00000000000011,[1.4567095]
1.0171981440449328e-17,0.679843100759569,-4.7681608128673355e-18,0.679843100759569,-4.31175028726049e-19,-0.02410712218998577,-4.7681608128673355e-18,-0.02410712218998577,5.4515795287595724e-18,0.6802703837377224,5.120970768209696e-18,-0.6802703837377224,0.48196716647185417,0.7317207806849443,0.48196716647185417,100.0,45.00000000000011,[1.4567095]
9.617752232065323e-18,0.6760692191057753,-3.5905763598743415e-18,0.6760692191057753,-7.930120561951467e-19,-0.02558004538528669,-3.5905763598743415e-18,-0.02558004538528669,5.0193149997692146e-18,0.676552974824741,4.752881799745048e-18,-0.676552974824741,0.48073779727965504,0.7333364442964844,0.48073779727965504,100.0,45.00000000000011,[1.44247109]
9.029167731300154e-18,0.6699070510917805,-2.439969756324911e-18,0.6699070510917805,-1.223190849270952e-18,-0.028147054619642346,-2.439969756324911e-18,-0.028147054619642346,4.553899139779263e-18,0.670498108711909,4.3518202231801675e-18,-0.6704981087119088,0.4785695799388755,0.7361673140762615,0.47856957993887533,100.0,45.00000000000011,[1.44247109]
8.362240954720087e-18,0.6596635286176139,-1.3345196532730891e-18,0.6596635286176139,-1.7299229332918558e-18,-0.03254780609288955,-1.3345196532730891e-18,-0.03254780609288955,4.0396889294305735e-18,0.6604659950896051,3.914572677625274e-18,-0.6604659950896052,0.47475246809613797,0.7410939131265694,0.47475246809613797,100.0,45.00000000000011,[1.44433971]
7.586957653798636e-18,0.6409124786103867,-3.1996704479213287e-19,0.6409124786103867,-2.3831398116043154e-18,-0.040652996641785115,-3.1996704479213287e-19,-0.040652996641785115,3.4157825757384712e-18,0.6422004915713367,3.4132660995796402e-18,-0.6422004915713369,0.4673458599353336,0.750450327738357,0.4673458599353336,100.0,45.00000000000011,[1.42476413]
6.4186403120032275e-18,0.5981393931748772,4.542924650249186e-19,0.5981393931748772,-3.5676512818419816e-18,-0.05831913190636421,4.542924650249186e-19,-0.05831913190636421,2.4869348484577756e-18,0.600975752267862,2.68613372353468e-18,-0.6009757522678617,0.449119834894693,0.7723876926831029,0.44911983489469287,100.0,45.00000000000011,[1.44840828]
3.3707527243474626e-18,0.43643998131253503,3.2146881704361704e-19,0.43643998131253503,-8.548880404667417e-18,-0.09635161446802652,3.2146881704361704e-19,-0.09635161446802652,6.261447044296712e-20,0.44694909206606653,2.2241896186115476e-19,-0.44694909206606664,0.38045537274996516,0.84291602113815,0.38045537274996516,100.0,45.00000000000011,[1.30260331]
2.34897952705256e-18,0.4296210821639624,1.2132168346917583e-18,0.4296210821639624,-8.592367150625708e-18,-0.09485496521491137,1.2132168346917583e-18,-0.09485496521491137,-3.339025798362685e-18,0.4399678836752247,-2.6788896222703732e-18,-0.439967883675225,0.5035364486898414,0.7020698609694376,0.5035364486898414,100.0,32.14285714285738,[1.28888115]
3.970902037256736e-18,0.5897489839124843,2.999258570021961e-18,0.5897489839124843,-3.702461042172811e-18,-0.056587844100705886,2.999258570021961e-18,-0.056587844100705886,-8.318762687363074e-18,0.5924576340345133,-7.742186399503205e-18,-0.5924576340345133,0.5600545198429957,0.6104734798554834,0.5600545198429956,100.0,32.14285714285738,[1.44048178]
3.6773389465841164e-18,0.6336719896868048,3.880764967238051e-18,0.6336719896868048,-2.6218209162001133e-18,-0.039307529437132865,3.880764967238051e-18,-0.039307529437132865,-1.4759786506741986e-17,0.6348899687222072,-1.4200794322286342e-17,-0.6348899687222072,0.5742841825827312,0.5834341053371567,0.5742841825827312,100.0,32.14285714285738,[1.38099236]
2.97029142875339e-18,0.6524326777474999,4.536379170062054e-18,0.6524326777474999,-2.031744181609898e-18,-0.03132755954644257,4.536379170062054e-18,-0.03132755954644257,-2.147651748250064e-17,0.653184365229228,-2.0984503691439333e-17,-0.6531843652292278,0.5799922066966027,0.5720297897333764,0.5799922066966027,100.0,32.14285714285738,[1.38099236]
2.1157162486738312e-18,0.6621574407715498,5.095394548867867e-18,0.6621574407715498,-1.6120364611132485e-18,-0.026931098988217873,5.095394548867867e-18,-0.026931098988217873,-2.829280419447342e-17,0.6627048818756672,-2.782984009105542e-17,-0.6627048818756672,0.5829416213268618,0.5660018836096035,0.5829416213268618,100.0,32.14285714285738,[1.38365085]
1.1992133648548774e-18,0.6674964445778976,5.613607718845248e-18,0.6674964445778976,-1.2786239444308869e-18,-0.024298509275031095,5.613607718845248e-18,-0.024298509275031095,-3.514736331261811e-17,0.6679385608550558,-3.4698991366961995e-17,-0.667938560855056,0.5846424545562215,0.5624823558663439,0.5846424545562218,100.0,32.14285714285738,[1.38365085]
2.2071494848629927e-19,0.6702201933796528,6.106129667123103e-18,0.6702201933796528,-9.940820855187709e-19,-0.022707721992363823,6.106129667123103e-18,-0.022707721992363823,-4.2032614967391584e-17,0.670604763069829,-4.157625623092021e-17,-0.6706047630698292,0.5856422381632366,0.5603983741574469,0.5856422381632367,100.0,32.14285714285738,[1.38365085]
-7.705352842053963e-19,0.6710803912052381,6.586765676233425e-18,0.6710803912052381,-7.41589339440022e-19,-0.021838561829093325,6.586765676233425e-18,-0.021838561829093325,-4.89355360272298e-17,0.671435636709088,-4.845853598650891e-17,-0.6714356367090881,0.5861715634115723,0.5592904401965637,0.5861715634115724,100.0,32.14285714285738,[1.38365085]
-1.7955642643913074e-18,0.6703539176152187,7.047822475340981e-18,0.6703539176152187,-5.107678982295498e-19,-0.02155766787196967,7.047822475340981e-18,-0.02155766787196967,-5.58466135014981e-17,0.6707004606425655,-5.533523696022127e-17,-0.6707004606425656,0.5863231290000026,0.5589726082727962,0.5863231290000025,100.0,32.14285714285738,[1.38365085]
-2.8465038500848295e-18,0.6680065934378641,7.497154428705299e-18,0.6680065934378641,-2.9193519922711495e-19,-0.02184852396462385,7.497154428705299e-18,-0.02184852396462385,-6.277474992153907e-17,0.6683637982984212,-6.221863639800462e-17,-0.668363798298421,0.5861065071331953,0.5594267821549583,0.5861065071331951,100.0,32.14285714285738,[1.38365085]
-3.930408237549815e-18,0.6636822594234346,7.927782587648873e-18,0.6636822594234346,-1.387099169190172e-19,-0.022806199892871568,7.927782587648873e-18,-0.022806199892871568,-6.972120012034197e-17,0.6640739900244166,-6.910058487593282e-17,-0.6640739900244166,0.5854513378653411,0.5607971665257987,0.585451337865341,100.0,32.14285714285738,[1.38365085]
-5.075629869462131e-18,0.6565086708568744,8.34031741146377e-18,0.6565086708568744,-3.967985398416874e-21,-0.024692711877520156,8.34031741146377e-18,-0.024692711877520156,-7.668657455719886e-17,0.656972879904586,-7.596604501832557e-17,-0.6569728799045862,0.584161542391796,0.5634807758751631,0.584161542391796,100.0,32.14285714285738,[1.38365085]
-6.2885446539833375e-18,0.6444845137710528,8.714603145260272e-18,0.6444845137710528,5.69083717824232e-20,-0.028118872331729564,8.714603145260272e-18,-0.028118872331729564,-8.367992837827535e-17,0.6450976356117875,-8.277219972115703e-17,-0.6450976356117873,0.581757210205084,0.5684338983107848,0.5817572102050839,100.0,32.14285714285738,[1.38099236]
-7.674829877450757e-18,0.6224025595510161,9.012405536572226e-18,0.6224025595510161,-6.124941563710149e-20,-0.034635965215531576,9.012405536572226e-18,-0.034635965215531576,-9.075009832693659e-17,0.6233655398095627,-8.948571603344986e-17,-0.6233655398095627,0.5768965710406201,0.5782565975785746,0.57689657104062,100.0,32.14285714285738,[1.38099236]
-9.545277148335265e-18,0.5723077564034003,9.107416742500985e-18,0.5723077564034003,-6.73777486413231e-19,-0.04908016536507005,9.107416742500985e-18,-0.04908016536507005,-9.801707356847827e-17,0.5744084180021709,-9.577815704620294e-17,-0.5744084180021706,0.5643902346375133,0.6024344994201658,0.564390234637513,100.0,32.14285714285738,[1.38722589]
-1.3681613653741382e-17,0.39505296050769473,8.472520001901409e-18,0.39505296050769473,-5.092281842373436e-18,-0.07923522558922882,8.472520001901409e-18,-0.07923522558922882,-1.0641295761307213e-16,0.4029206653673526,-9.914975124745516e-17,-0.40292066536735277,0.5130520851937967,0.6881534100450235,0.5130520851937964,100.0,32.14285714285738,[1.26774483]
-1.4179612778445256e-17,0.3895614810491421,8.340228386150344e-18,0.3895614810491421,-4.95655639310451e-18,-0.07493389175199731,8.340228386150344e-18,-0.07493389175199731,-1.064006466840155e-16,0.3967029564426021,-9.978828725929947e-17,-0.3967029564426021,0.6112969971826421,0.5026250714707439,0.6112969971826419,100.0,19.285714285714306,[1.28275946]
-1.0571662704725763e-17,0.5655083061852162,8.324549332735766e-18,0.5655083061852162,-2.415383932267092e-19,-0.04389454458279866,8.324549332735766e-18,-0.04389454458279866,-9.846789775566763e-17,0.5672092871318343,-9.668792585581542e-17,-0.5672092871318344,0.6473516605368027,0.40233276674972485,0.6473516605368028,100.0,19.285714285714306,[0.96325369]
-9.254834182933195e-18,0.616477767260572,7.592896913994343e-18,0.616477767260572,6.869023611926099e-19,-0.030306243641000877,7.592896913994343e-18,-0.030306243641000877,-9.164289504158038e-17,0.6172222500284703,-9.069342370854055e-17,-0.6172222500284704,0.6551540867542297,0.37622632180439236,0.6551540867542299,100.0,19.285714285714306,[0.97213515]
-8.437090046808173e-18,0.6385200371613159,6.6854661335435656e-18,0.6385200371613159,1.073526579499895e-18,-0.02391563003001261,6.6854661335435656e-18,-0.02391563003001261,-8.498461554303687e-17,0.6389677575717108,-8.437321356470291e-17,-0.638967757571711,0.6582174852635917,0.36537581226258936,0.6582174852635917,100.0,19.285714285714306,[0.97213515]
-7.807367372638903e-18,0.6500808489280706,5.705831584603645e-18,0.6500808489280706,1.317371152274402e-18,-0.020277774455980092,5.705831584603645e-18,-0.020277774455980092,-7.838494013653151e-17,0.6503970312662327,-7.796035959369515e-17,-0.6503970312662326,0.659820561758393,0.35954645396899354,0.659820561758393,100.0,19.285714285714306,[0.96502879]
-7.262566368876778e-18,0.6565470716582436,4.698836589337462e-18,0.6565470716582436,1.4945400045934598e-18,-0.0179845445423778,4.698836589337462e-18,-0.0179845445423778,-7.182087485539656e-17,0.6567933473668961,-7.1518112183178e-17,-0.6567933473668959,0.6607810968323872,0.3560009608666458,0.6607810968323871,100.0,19.285714285714306,[0.96502879]
-6.774198935225471e-18,0.6599821371574569,3.6666347124697974e-18,0.6599821371574569,1.5972328232806932e-18,-0.01647454612121082,3.6666347124697974e-18,-0.01647454612121082,-6.526420291457661e-17,0.6601877248456112,-6.504709071836323e-17,-0.6601877248456112,0.6613905621153228,0.3537301919394985,0.6613905621153229,100.0,19.285714285714306,[0.96502879]
-6.326257472470855e-18,0.6612687418123488,2.6255133470569735e-18,0.6612687418123488,1.6904296085358178e-18,-0.015493974923989951,2.6255133470569735e-18,-0.015493974923989951,-5.87288970489789e-17,0.6614502340743649,-5.857597464744324e-17,-0.661450234074365,0.6617726123427808,0.35229819628550885,0.6617726123427808,100.0,19.285714285714306,[0.96562299]
-5.903819642362473e-18,0.660740093727353,1.5720089844766544e-18,0.660740093727353,1.7602932830720463e-18,-0.014929334077537914,1.5720089844766544e-18,-0.014929334077537914,-5.218707961759919e-17,0.6609087353597545,-5.209306759742303e-17,-0.6609087353597545,0.661980482273397,0.351516261612691,0.6619804822733968,100.0,19.285714285714306,[0.96562299]
-5.518280685018858e-18,0.6583725510170843,5.133114786131504e-19,0.6583725510170843,1.7851186276159878e-18,-0.014750904892126607,5.133114786131504e-19,-0.014750904892126607,-4.56650003699962e-17,0.6585377780567186,-4.562096695028252e-17,-0.6585377780567188,0.6620276139489885,0.3513386923440378,0.6620276139489885,100.0,19.285714285714306,[0.96562299]
-5.185919514895051e-18,0.653778063898734,-5.543182336974307e-19,0.653778063898734,1.78593257333874e-18,-0.015003269868337221,-5.543182336974307e-19,-0.015003269868337221,-3.914760131029904e-17,0.6539501930131373,-3.915432232628446e-17,-0.6539501930131373,0.6618925707325707,0.3518471964049996,0.6618925707325707,100.0,19.285714285714306,[0.96562299]
-4.881503814585736e-18,0.6459905403474105,-1.6367897375463213e-18,0.6459905403474105,1.7488980429535158e-18,-0.015835514600062033,-1.6367897375463213e-18,-0.015835514600062033,-3.265034740724e-17,0.6461846034539885,-3.271579393281213e-17,-0.6461846034539885,0.6615026255244981,0.35331084451003053,0.661502625524498,100.0,19.285714285714306,[0.96502879]
-4.69483892883457e-18,0.632786843042757,-2.74626982576841e-18,0.632786843042757,1.6224651406860108e-18,-0.017608628197889654,-2.74626982576841e-18,-0.017608628197889654,-2.616469223073018e-17,0.6330317942370909,-2.6299624677496547e-17,-0.6330317942370907,0.6606717437961346,0.3564066412102182,0.6606717437961346,100.0,19.285714285714306,[0.96502879]
-4.692125776425396e-18,0.6083946190698275,-3.90203883767139e-18,0.6083946190698275,1.3412468934751327e-18,-0.02124723011031375,-3.90203883767139e-18,-0.02124723011031375,-1.9720819601321633e-17,0.6087655191454926,-1.9972306698225203e-17,-0.6087655191454927,0.6588685240221093,0.36302139896410307,0.6588685240221094,100.0,19.285714285714306,[0.96829545]
-5.267314087170269e-18,0.553102662897906,-5.177339170401039e-18,0.553102662897906,5.473784985508405e-19,-0.029609300434865822,-5.177339170401039e-18,-0.029609300434865822,-1.3409620124721696e-17,0.5538946347248698,-1.3948229951719117e-17,-0.5538946347248699,0.6539876198403475,0.38026357463095806,0.6539876198403476,100.0,19.285714285714306,[0.96734432]
-8.329377896163967e-18,0.36525219346783144,-6.867904436557316e-18,0.36525219346783144,-4.0436823506328264e-18,-0.045915278612654535,-6.867904436557316e-18,-0.045915278612654535,-7.958354304209432e-18,0.3681268499351005,-9.716644399643106e-18,-0.36812684993510036,0.6330854417824854,0.4454274877083259,0.6330854417824854,100.0,19.285714285714306,[1.2338638]
-8.484027583486882e-18,0.3621744928298853,-6.6341154848993096e-18,0.3621744928298853,-4.056027194094568e-18,-0.039660673414316214,-6.6341154848993096e-18,-0.039660673414316214,-4.71559454476475e-18,0.3643395837296049,-6.2895634711608825e-18,-0.36433958372960473,0.6898668277897614,0.2194709999762681,0.6898668277897615,100.0,6.428571428571418,[0.51565679]
-5.413281686783827e-18,0.5492381015157224,-5.039544942420118e-18,0.5492381015157224,5.222818387659817e-19,-0.021994892858240692,-5.039544942420118e-18,-0.021994892858240692,-3.9519777992027476e-18,0.5496783309067589,-4.354710658555304e-18,-0.549678330906759,0.698929940221357,0.15163732167359073,0.6989299402213571,100.0,6.428571428571418,[0.37077785]
-4.8657675306125274e-18,0.6049545284355161,-3.8366688218128555e-18,0.6049545284355161,1.2952589601396346e-18,-0.014788303052875445,-3.8366688218128555e-18,-0.014788303052875445,-4.036763811989433e-18,0.6051352537919279,-4.224307607099561e-18,-0.605135253791928,0.7005160125682036,0.1362153892593945,0.7005160125682036,100.0,6.428571428571418,[0.37352206]
-4.91026323012298e-18,0.629263840068631,-2.721893847092238e-18,0.629263840068631,1.5568068523840017e-18,-0.011251446880810924,-2.721893847092238e-18,-0.011251446880810924,-4.241606818882065e-18,0.6293644218374844,-4.339222974561076e-18,-0.6293644218374846,0.7011329718326019,0.12971164796720439,0.701132971832602,100.0,6.428571428571418,[0.37352206]
-5.1501059030939554e-18,0.6421495712205177,-1.6389814559768571e-18,0.6421495712205177,1.6631624268236198e-18,-0.009091673851727485,-1.6389814559768571e-18,-0.009091673851727485,-4.4737170074868945e-18,0.6422139288057532,-4.520265693165301e-18,-0.6422139288057532,0.7014694238380345,0.12602100952092063,0.7014694238380345,100.0,6.428571428571418,[0.37352206]
-5.478939975085836e-18,0.6494838004694068,-5.760446494740188e-19,0.6494838004694068,1.684053700374259e-18,-0.0075912562032631435,-5.760446494740188e-19,-0.0075912562032631435,-4.725904523919611e-18,0.6495281627788957,-4.73944162479936e-18,-0.6495281627788957,0.7016873544482671,0.12357068104847482,0.7016873544482671,100.0,6.428571428571418,[0.37352206]
-5.871804443934221e-18,0.6535241736717613,4.784474701552654e-19,0.6535241736717613,1.647426142850411e-18,-0.0064606655480951795,4.784474701552654e-19,-0.0064606655480951795,-4.9886733347481065e-18,0.6535561075934359,-4.9792515434072215e-18,-0.6535561075934359,0.7018436732389435,0.12178225104231895,0.7018436732389434,100.0,6.428571428571418,[0.37352206]
-6.327614048675442e-18,0.6552426199883225,1.5325071811193375e-18,0.6552426199883225,1.6126977920129846e-18,-0.005562737978541452,1.5325071811193375e-18,-0.005562737978541452,-5.257275423256326e-18,0.6552662322315863,-5.231330120159999e-18,-0.6552662322315865,0.7019632187167101,0.12039634187861313,0.7019632187167104,100.0,6.428571428571418,[0.37352206]
-6.799159937389871e-18,0.6550144897397838,2.5780713336021837e-18,0.6550144897397838,1.5152956205236403e-18,-0.004826320068646653,2.5780713336021837e-18,-0.004826320068646653,-5.523435674596288e-18,0.6550322703000778,-5.48552130847166e-18,-0.6550322703000778,0.7020582328879613,0.1192831726123402,0.7020582328879614,100.0,6.428571428571418,[0.37352206]
-7.3206278304331e-18,0.6528313743155946,3.622499353513688e-18,0.6528313743155946,1.4102966222886092e-18,-0.0042143763817847485,3.622499353513688e-18,-0.0042143763817847485,-5.800719850813864e-18,0.6528449772029157,-5.7540505372364214e-18,-0.6528449772029156,0.7021349217473091,0.1183769543695097,0.7021349217473091,100.0,6.428571428571418,[0.37352206]
-7.870312508531738e-18,0.6482984087124014,4.6605684224661916e-18,0.6482984087124014,1.2857629267075258e-18,-0.0037121713423107347,4.6605684224661916e-18,-0.0037121713423107347,-6.089127951909053e-18,0.6483090366137947,-6.035822314235862e-18,-0.6483090366137948,0.7021957966722291,0.11765256593762412,0.7021957966722292,100.0,6.428571428571418,[0.37352206]
-8.47480286529569e-18,0.6404139580281581,5.701248900612525e-18,0.6404139580281581,1.106423552461129e-18,-0.0033263307143911276,5.701248900612525e-18,-0.0033263307143911276,-6.381334466377086e-18,0.6404225965043028,-6.3221703552035084e-18,-0.6404225965043028,0.7022399538296855,0.11712426943448401,0.7022399538296855,100.0,6.428571428571418,[0.37352206]
-9.189989840353938e-18,0.6268634353651612,6.7333659914674035e-18,0.6268634353651612,8.383640944347447e-19,-0.003096520783738017,6.7333659914674035e-18,-0.003096520783738017,-6.690091210541079e-18,0.6268710832689411,-6.623629359147146e-18,-0.6268710832689411,0.7022609937505945,0.11687169594411968,0.7022609937505944,100.0,6.428571428571418,[0.37352206]
-1.0142848966455823e-17,0.6016372401872504,7.761735540557109e-18,0.6016372401872504,4.167402100491158e-19,-0.003137563027018403,7.761735540557109e-18,-0.003137563027018403,-7.021095804460298e-18,0.6016454213919357,-6.940234504091098e-18,-0.6016454213919358,0.7022382137647617,0.11714513330460441,0.7022382137647618,100.0,6.428571428571418,[0.37352206]
-1.1639423835356163e-17,0.5443002459426636,8.771910011302793e-18,0.5443002459426636,-5.17669479670386e-19,-0.0037631843344144203,8.771910011302793e-18,-0.0037631843344144203,-7.457913342337301e-18,0.5443132547436069,-7.336853197723953e-18,-0.5443132547436068,0.7020964904810085,0.11883196585305668,0.7020964904810084,100.0,6.428571428571418,[0.35570065]
-1.578295019464659e-17,0.3529107243616489,9.768230447559132e-18,0.3529107243616489,-5.2515778031970604e-18,-0.002992667241579087,9.768230447559132e-18,-0.002992667241579087,-8.661196435805939e-18,0.3529234129760768,-8.496072852396712e-18,-0.3529234129760768,0.7019640384210653,0.12038678302528923,0.7019640384210653,100.0,6.428571428571418,[0.27225689]
-1.6043412825927287e-17,0.3528533114316546,1.0070289096712977e-17,0.3528533114316546,-5.361189160527687e-18,0.003975297296159144,1.0070289096712977e-17,0.003975297296159144,-8.485384159691468e-18,0.3528757038630982,-8.713227764564821e-18,-0.3528757038630983,0.7017241597021698,0.1231519686426783,0.70172415970217,100.0,6.428571428571418,[0.27225689]
-1.2425152773052935e-17,0.5441281354428816,9.055536181276813e-18,0.5441281354428816,-8.204572885341968e-19,0.004768479792238642,9.055536181276813e-18,0.004768479792238642,-6.940515177907832e-18,0.5441490293844838,-7.099601801014897e-18,-0.544149029384484,0.7019398728862691,0.12066826303886222,0.7019398728862692,100.0,6.428571428571418,[0.35570065]
-1.1438650557077292e-17,0.601350682786951,8.059334445438375e-18,0.601350682786951,-7.868141986604399e-20,0.0041655081180847426,8.059334445438375e-18,0.0041655081180847426,-6.16021254502941e-18,0.6013651096848023,-6.272095788884472e-18,-0.6013651096848022,0.7020953882338826,0.11884498997192755,0.7020953882338826,100.0,6.428571428571418,[0.37352206]
-1.1019739825100837e-17,0.6264627767299956,7.072052198145096e-18,0.6264627767299956,1.486807520227314e-19,0.004147205745070434,7.072052198145096e-18,0.004147205745070434,-5.477040768399414e-18,0.6264765039039754,-5.5708758670047015e-18,-0.6264765039039755,0.702121143384846,0.11854028861072152,0.702121143384846,100.0,6.428571428571418,[0.37352206]
-1.0827648634531323e-17,0.6398996380664123,6.097470895567263e-18,0.6398996380664123,2.1596693177024491e-19,0.004399855962282467,6.097470895567263e-18,0.004399855962282467,-4.82181446158391e-18,0.6399147642694412,-4.905976852904631e-18,-0.6399147642694412,0.7020996785767751,0.11879428725649079,0.702099678576775,100.0,6.428571428571418,[0.37352206]
-1.0725634103946383e-17,0.6476709606781154,5.1278750105412865e-18,0.6476709606781154,1.9480434297868825e-19,0.004808625735377762,5.1278750105412865e-18,0.004808625735377762,-4.1853089063917056e-18,0.6476888112258663,-4.261818612653285e-18,-0.6476888112258664,0.7020534897613173,0.11933899206844276,0.7020534897613174,100.0,6.428571428571418,[0.37352206]
-1.0691991014072626e-17,0.6520914237727746,4.162043624483039e-18,0.6520914237727746,1.3782814238603568e-19,0.005333831908435508,4.162043624483039e-18,0.005333831908435508,-3.551516503608675e-18,0.6521132376518912,-3.620113717810005e-18,-0.652113237651891,0.7019895751104902,0.12008860425696956,0.7019895751104901,100.0,6.428571428571418,[0.37352206]
-1.068439418732694e-17,0.6541627533986117,3.1983997175546887e-18,0.6541627533986117,4.4495699510452465e-20,0.005968830405630645,3.1983997175546887e-18,0.005968830405630645,-2.9269488190168365e-18,0.6541899837741819,-2.9861194245259455e-18,-0.6541899837741818,0.7019090393503925,0.1210264473427949,0.7019090393503925,100.0,6.428571428571418,[0.37352206]
-1.0740827757437757e-17,0.6542799044255576,2.2385203095940663e-18,0.6542799044255576,-7.43403760113657e-20,0.006728338326791004,2.2385203095940663e-18,0.006728338326791004,-2.313776374543528e-18,0.6543144992064265,-2.3605279767349936e-18,-0.6543144992064265,0.7018093747823252,0.12217693290995521,0.7018093747823252,100.0,6.428571428571418,[0.37352206]
-1.0814625502967288e-17,0.652451373942956,1.277419983049316e-18,0.652451373942956,-2.197653451430884e-19,0.007649373051459135,1.277419983049316e-18,0.007649373051459135,-1.6973481471792113e-18,0.6524962132212966,-1.7285427189359144e-18,-0.6524962132212965,0.7016842164378513,0.12360631377076799,0.701684216437851,100.0,6.428571428571418,[0.37352206]
-1.0948112601498645e-17,0.64830189865793,3.275114101924081e-19,0.64830189865793,-3.8798079451187215e-19,0.008803070787742218,3.275114101924081e-19,0.008803070787742218,-1.0890593770424158e-18,0.6483616628539748,-1.10011900934064e-18,-0.6483616628539746,0.7015209380410787,0.12544619157204387,0.7015209380410786,100.0,6.428571428571418,[0.37352206]
-1.1110901746049081e-17,0.6408596349751337,-6.181239476200508e-19,0.6408596349751337,-6.137150749551431e-19,0.010326579622051888,-6.181239476200508e-19,0.010326579622051888,-4.954216299151598e-19,0.6409428289536844,-4.781982246164192e-19,-0.6409428289536844,0.7012938726467096,0.12796018277714738,0.7012938726467096,100.0,6.428571428571418,[0.37352206]
-1.1399581162385188e-17,0.627867021300056,-1.5472769045467782e-18,0.627867021300056,-9.105339485187712e-19,0.012509414733452403,-1.5472769045467782e-18,0.012509414733452403,8.519298564806143e-20,0.6279916256552938,1.4306504412612835e-19,-0.6279916256552937,0.7009441615474026,0.13173672527134223,0.7009441615474026,100.0,6.428571428571418,[0.37352206]
-1.1887948596036495e-17,0.6034520627704589,-2.442447627548602e-18,0.6034520627704589,-1.3750256409693481e-18,0.016069297017701323,-2.442447627548602e-18,0.016069297017701323,6.348776637466998e-19,0.6036659791379376,7.577236376996823e-19,-0.6036659791379377,0.7003041562766508,0.138376939564716,0.7003041562766507,100.0,6.428571428571418,[0.37352206]
-1.2962356950069373e-17,0.5476313113028413,-3.240216179061082e-18,0.5476313113028413,-2.3528457692356328e-18,0.0232988923933359,-3.240216179061082e-18,0.0232988923933359,1.0678967882508592e-18,0.5481267111772837,1.3200749143112217e-18,-0.5481267111772838,0.698660306404991,0.1541024091575728,0.698660306404991,100.0,6.428571428571418,[0.37248862]
-1.654805917403364e-17,0.3604648065414895,-3.6609922033188435e-18,0.3604648065414895,-7.123652965527073e-18,0.040987767862599105,-3.6609922033188435e-18,0.040987767862599105,6.435597514560564e-19,0.36278764293916055,1.258448484287719e-18,-0.36278764293916066,0.6892169600709915,0.22351725638304396,0.6892169600709913,100.0,6.428571428571418,[0.50996401]
-1.6400463682974577e-17,0.3634411095254501,-3.3955102400811747e-18,0.3634411095254501,-7.040087871324516e-18,0.047283891024222396,-3.3955102400811747e-18,0.047283891024222396,8.899139902090493e-20,0.3665040333249838,6.839051690488511e-19,-0.36650403332498377,0.6317184370644913,0.44929236867054884,0.6317184370644913,100.0,19.28571428571425,[1.2338638]
-1.2790885717809581e-17,0.5511930071708667,-3.0111243725114577e-18,0.5511930071708667,-2.0902126160275963e-18,0.031042641299042856,-3.0111243725114577e-18,0.031042641299042856,-3.288340719918804e-19,0.5520664604310646,-3.0141268856018194e-20,-0.5520664604310646,0.6532382585975708,0.3828309744636998,0.6532382585975708,100.0,19.28571428571425,[0.96734432]
-1.1686090056793955e-17,0.6063880344444895,-2.217222063182051e-18,0.6063880344444895,-9.3875073357418e-19,0.02274437304922421,-2.217222063182051e-18,0.02274437304922421,-1.614325683458489e-18,0.6068144319500434,-1.4656765095815055e-18,-0.6068144319500434,0.6582037672225982,0.3654252339781142,0.6582037672225983,100.0,19.28571428571425,[0.96829545]
-1.1145630096886508e-17,0.6306851223999624,-1.3035679893927297e-18,0.6306851223999624,-3.0712885271848896e-19,0.019168965577124823,-1.3035679893927297e-18,0.019168965577124823,-3.0262501971926024e-18,0.6309763647379771,-2.957039397916242e-18,-0.630976364737977,0.6600232493929644,0.3588016450930876,0.6600232493929644,100.0,19.28571428571425,[0.96502879]
-1.081136972007628e-17,0.6437955597489929,-3.363291555222234e-19,0.6437955597489929,1.6387440551410542e-19,0.01745848281744783,-3.363291555222234e-19,0.01745848281744783,-4.47941462754616e-18,0.6440322362854254,-4.4675443660873116e-18,-0.6440322362854255,0.6608501373574147,0.35574455991535864,0.6608501373574147,100.0,19.28571428571425,[0.96502879]
-1.0579123873850991e-17,0.6514917643495479,6.446789268248406e-19,0.6514917643495479,5.665062230355167e-19,0.016688287604143988,6.446789268248406e-19,0.016688287604143988,-5.956454799100448e-18,0.6517054687191486,-5.9942551085950115e-18,-0.6517054687191488,0.661227096055466,0.35434087385469765,0.6612270960554659,100.0,19.28571428571425,[0.96502879]
-1.037943585653579e-17,0.6559969309892897,1.6544464247091485e-18,0.6559969309892897,9.192160362281277e-19,0.016497358476097884,1.6544464247091485e-18,0.016497358476097884,-7.442719688845927e-18,0.6562043403575257,-7.524346279371746e-18,-0.6562043403575256,0.6613439513725589,0.35390444468226334,0.6613439513725586,100.0,19.28571428571425,[0.96502879]
-1.0247034018968102e-17,0.6582772042201256,2.6602798516001538e-18,0.6582772042201256,1.2350269766559733e-18,0.01673657387372757,2.6602798516001538e-18,0.01673657387372757,-8.938209296782598e-18,0.6584899319662342,-9.075524558202518e-18,-0.6584899319662343,0.661274831364078,0.35416266715849726,0.661274831364078,100.0,19.28571428571425,[0.96502879]
-1.0134166878746466e-17,0.6587206823044888,3.684223570822395e-18,0.6587206823044888,1.5269621758830882e-18,0.017361315273525132,3.684223570822395e-18,0.017361315273525132,-1.0442380992428625e-17,0.6589494309609183,-1.0633084513183622e-17,-0.6589494309609185,0.6610414752322512,0.3550328661483854,0.6610414752322512,100.0,19.28571428571425,[0.96502879]
-1.0056028089362257e-17,0.6573510520333851,4.715187571903374e-18,0.6573510520333851,1.7928511119821335e-18,0.018401266846311267,4.715187571903374e-18,0.018401266846311267,-1.1954149514820339e-17,0.6576085554727429,-1.2216124226023636e-17,-0.657608555472743,0.6606299448269487,0.3565615683102782,0.6606299448269488,100.0,19.28571428571425,[0.96502879]
-1.0016958694670152e-17,0.6538351470981483,5.7532057692482055e-18,0.6538351470981483,2.0337790459167785e-18,0.01996989353797734,5.7532057692482055e-18,0.01996989353797734,-1.347785590781242e-17,0.6541400432849033,-1.3829111001124416e-17,-0.6541400432849033,0.6599855178061488,0.35894043039520995,0.6599855178061488,100.0,19.28571428571425,[0.96502879]
-1.0029981826234187e-17,0.6472903105226601,6.81961032367402e-18,0.6472903105226601,2.222614453595284e-18,0.02232097173406484,6.81961032367402e-18,0.02232097173406484,-1.5012414910441194e-17,0.6476750511449971,-1.5479549780703003e-17,-0.6476750511449972,0.6589811997805624,0.362612129790967,0.6589811997805622,100.0,19.28571428571425,[0.97213515]
-1.0121143747182431e-17,0.6356531491851645,7.915045608877994e-18,0.6356531491851645,2.3387373767079283e-18,0.026015875013012238,7.915045608877994e-18,0.026015875013012238,-1.6583872785834734e-17,0.6361853124850572,-1.7227915046759303e-17,-0.6361853124850572,0.657317623187832,0.3686015253541397,0.657317623187832,100.0,19.28571428571425,[0.97213515]
-1.0414164207373216e-17,0.613536836930111,9.072951228303198e-18,0.613536836930111,2.2768775017787627e-18,0.03246273255904176,9.072951228303198e-18,0.03246273255904176,-1.8211764231339093e-17,0.6143950514737285,-1.9155438186162175e-17,-0.6143950514737289,0.6541543464036772,0.3796895865866694,0.6541543464036773,100.0,19.28571428571425,[0.96829545]
-1.1197722623142647e-17,0.5624957089752888,1.0422235835790508e-17,0.5624957089752888,1.7190533664526027e-18,0.046106531305162575,1.0422235835790508e-17,0.046106531305162575,-2.0008956387175905e-17,0.5643821709131205,-2.1675811130970612e-17,-0.5643821709131204,0.6461164314162827,0.406284523588798,0.6461164314162825,100.0,19.28571428571425,[0.96674831]
-1.4275522716109554e-17,0.38647978089142765,1.2478601875513661e-17,0.38647978089142765,-2.6458662294264173e-18,0.0772009452867155,1.2478601875513661e-17,0.0772009452867155,-2.2921796813665037e-17,0.39411496671789625,-2.765291617186225e-17,-0.39411496671789603,0.60874893131797,0.5087725201290438,0.60874893131797,100.0,19.28571428571425,[1.28258661]
-1.3344368809281063e-17,0.3919059981404773,1.2579768545970734e-17,0.3919059981404773,-2.593773703170278e-18,0.08156936411296578,1.2579768545970734e-17,0.08156936411296578,-2.25093976474706e-17,0.4003047246039912,-2.6838020809498333e-17,-0.4003047246039914,0.5095043868186332,0.6934050473029,0.5095043868186332,100.0,32.142857142857125,[1.26774483]
-8.901310424017832e-18,0.5691035781566683,1.032842859124332e-17,0.5691035781566683,1.8688193794390035e-18,0.051502221921916114,1.032842859124332e-17,0.051502221921916114,-1.8286647237832293e-17,0.5714292270558246,-2.006484783754329e-17,-0.5714292270558246,0.5623809226035879,0.6061809925946826,0.5623809226035879,100.0,32.142857142857125,[1.38722589]
-6.715594843187314e-18,0.619142994322858,8.813743430011743e-18,0.619142994322858,2.524317001495425e-18,0.0371439750137413,8.813743430011743e-18,0.0371439750137413,-1.519907979619236e-17,0.6202561747366133,-1.6197281346066017e-17,-0.6202561747366132,0.5751209800128182,0.5817832213962447,0.5751209800128182,100.0,32.142857142857125,[1.38099236]
-5.000882520589389e-18,0.641171666365865,7.494676557481608e-18,0.641171666365865,2.684935624118522e-18,0.030711381752957956,7.494676557481608e-18,0.030711381752957956,-1.2319882459576985e-17,0.6419067648183462,-1.301826983472733e-17,-0.6419067648183462,0.5800396996401274,0.5719334696298003,0.5800396996401274,100.0,32.142857142857125,[1.38099236]
-3.4641529960332752e-18,0.6531447206378599,6.260565269763731e-18,0.6531447206378599,2.669741970627148e-18,0.027368369662786617,6.260565269763731e-18,0.027368369662786617,-9.497118693072427e-18,0.6537178701512656,-1.0017866857129057e-17,-0.6537178701512656,0.582449459119021,0.5670143341608925,0.582449459119021,100.0,32.142857142857125,[1.38314202]
-2.0229264362800828e-18,0.6602694118500824,5.0564343161672254e-18,0.6602694118500824,2.5720684838968864e-18,0.025563665099207218,5.0564343161672254e-18,0.025563665099207218,-6.716680104150984e-18,0.6607641010210513,-7.106943295675334e-18,-0.6607641010210514,0.5837216066660592,0.5643918601666653,0.5837216066660592,100.0,32.142857142857125,[1.38365085]
-6.359629247103694e-19,0.6645470656210409,3.881707151805143e-18,0.6645470656210409,2.428814036692503e-18,0.02468644381522739,3.881707151805143e-18,0.02468644381522739,-3.953605690648252e-18,0.6650054307551019,-4.235382719493687e-18,-0.6650054307551018,0.5843462537259059,0.563097603895629,0.5843462537259059,100.0,32.142857142857125,[1.38365085]
7.488300649320049e-19,0.6668499320230468,2.7175612818388384e-18,0.6668499320230468,2.2551722825053713e-18,0.02447467176862622,2.7175612818388384e-18,0.02447467176862622,-1.2046396696732253e-18,0.6672989145782598,-1.4113869143831416e-18,-0.6672989145782602,0.5845234802403608,0.5627295994484319,0.5845234802403609,100.0,32.142857142857125,[1.38365085]
2.103235747591631e-18,0.6675341722169188,1.5670150883235186e-18,0.6675341722169188,2.0619958309721874e-18,0.024833260431910333,1.5670150883235186e-18,0.024833260431910333,1.530217958774097e-18,0.6679959295542195,1.418843329263138e-18,-0.6679959295542194,0.584324897278062,0.5631419260203993,0.584324897278062,100.0,32.142857142857125,[1.38365085]
3.4077194259224574e-18,0.6666339652968123,4.3139123305865504e-19,0.6666339652968123,1.8384320724562555e-18,0.02577870839926885,4.3139123305865504e-19,0.02577870839926885,4.2542229775847235e-18,0.6671322099060171,4.2129088964153274e-18,-0.6671322099060171,0.5837403597718901,0.564353067455798,0.5837403597718901,100.0,32.142857142857125,[1.38365085]
4.7035210165439264e-18,0.6638724308671892,-6.870719332181833e-19,0.6638724308671892,1.5909925727395932e-18,0.027444361590588315,-6.870719332181833e-19,0.027444361590588315,6.95435225519462e-18,0.6644394610862797,7.007101327021565e-18,-0.6644394610862798,0.5826745644255075,0.5665515898336979,0.5826745644255074,100.0,32.142857142857125,[1.38365085]
5.925524861635865e-18,0.658497865066751,-1.7731807570156225e-18,0.658497865066751,1.2892900248394519e-18,0.030150384782110108,-1.7731807570156225e-18,0.030150384782110108,9.632776313531124e-18,0.6591877456385081,9.784367132212722e-18,-0.6591877456385081,0.5808907658474125,0.5702033289155836,0.5808907658474126,100.0,32.142857142857125,[1.38365085]
7.10628879010836e-18,0.6487397686567986,-2.8326667727980424e-18,0.6487397686567986,9.116192094824407e-19,0.03461884472364514,-2.8326667727980424e-18,0.03461884472364514,1.2263448889466167e-17,0.6496627985708248,1.2533793997796325e-17,-0.649662798570825,0.5778268578141321,0.5763959097506628,0.5778268578141321,100.0,32.142857142857125,[1.38099236]
8.128604617885097e-18,0.6299479970820396,-3.788985168221624e-18,0.6299479970820396,3.646476837929763e-19,0.042669401112932076,-3.788985168221624e-18,0.042669401112932076,1.4802959544452966e-17,0.6313914449998586,1.5294291974785193e-17,-0.6313914449998587,0.5719318441818672,0.5880373552942512,0.571931844181867,100.0,32.142857142857125,[1.38099236]
8.7276686698307e-18,0.5859962438563514,-4.5181448781871176e-18,0.5859962438563514,-6.815438851844914e-19,0.06001899408926019,-4.5181448781871176e-18,0.06001899408926019,1.7071154958522372e-17,0.5890618621717411,1.788920716525457e-17,-0.5890618621717415,0.5572774764671674,0.6155352373705114,0.5572774764671674,100.0,32.142857142857125,[1.44104323]
7.416673425717857e-18,0.4258423012926622,-4.351489491453609e-18,0.4258423012926622,-5.523978305078123e-18,0.09835454834938179,-4.351489491453609e-18,0.09835454834938179,1.78655659839285e-17,0.43705295188482757,1.9513697756279663e-17,-0.43705295188482757,0.49870584550620894,0.7089322670861263,0.4987058455062089,100.0,32.142857142857125,[1.28888115]
7.520858478230136e-18,0.432638738717837,-4.8204917997844375e-18,0.432638738717837,-5.58258239711628e-18,0.09992663191429303,-4.8204917997844375e-18,0.09992663191429303,1.8383235463598885e-17,0.44402883915923247,2.0443376094917753e-17,-0.4440288391592325,0.3746514611905992,0.8480993840673967,0.37465146119059933,100.0,45.0,[1.28941393]
8.393408293020472e-18,0.5943281482003077,-6.0675244758510054e-18,0.5943281482003077,-8.421625078075882e-19,0.0619878398340194,-6.0675244758510054e-18,0.0619878398340194,1.9224312710442804e-17,0.5975520396003134,2.0502407042958916e-17,-0.5975520396003137,0.44543426604514325,0.7766444677364599,0.44543426604514336,100.0,45.0,[1.44840828]
7.390627162589787e-18,0.6370925918064909,-6.418063767116278e-18,0.6370925918064909,1.172081840763138e-19,0.04441302787816514,-6.418063767116278e-18,0.04441302787816514,1.8562303522604365e-17,0.638638777071999,1.9367624075367564e-17,-0.6386387770719991,0.46401783387286244,0.7545693471748464,0.46401783387286244,100.0,45.0,[1.44760926]
6.018857304511448e-18,0.6558368433776391,-6.521807932362066e-18,0.6558368433776391,5.469715256894644e-19,0.03639740654411046,-6.521807932362066e-18,0.03639740654411046,1.7597506525902115e-17,0.6568460522334614,1.827558319823707e-17,-0.6568460522334614,0.4715255840598114,0.745202822830206,0.4715255840598114,100.0,45.0,[1.43514755]
4.499491955374047e-18,0.6660755157068446,-6.530795249717455e-18,0.6660755157068446,8.291393762435533e-19,0.03208460811690486,-6.530795249717455e-18,0.03208460811690486,1.6527439215723917e-17,0.6668478197476202,1.7101763422441912e-17,-0.6668478197476204,0.4753640102099191,0.7403094728519203,0.4753640102099191,100.0,45.0,[1.44433971]
2.9236930361258278e-18,0.6722348004480251,-6.498712222478973e-18,0.6722348004480251,1.0179747839220588e-18,0.02960396383493495,-6.498712222478973e-18,0.02960396383493495,1.5408535162180588e-17,0.6728863363214742,1.594787254663452e-17,-0.672886336321474,0.4775181200187653,0.7375316197340207,0.4775181200187653,100.0,45.0,[1.44433971]
1.2979721125488085e-18,0.6760077625425928,-6.444974847574772e-18,0.6760077625425928,1.169911318835799e-18,0.02821581633303168,-6.444974847574772e-18,0.02821581633303168,1.4251646974908824e-17,0.676596354785615,1.4777158294008602e-17,-0.6765963547856146,0.4787137424164951,0.7359798269267894,0.478713742416495,100.0,45.0,[1.44247109]
-3.5162455222894143e-19,0.678133089977747,-6.364699450668338e-18,0.678133089977747,1.2871195029121128e-18,0.02759710279206312,-6.364699450668338e-18,0.02759710279206312,1.3069797785472661e-17,0.6786943994208903,1.356530465160963e-17,-0.6786943994208903,0.47925545557821553,0.7352743818446518,0.4792554555782155,100.0,45.0,[1.45460772]
-2.0142443485707262e-18,0.6789162988713288,-6.279574293830506e-18,0.6789162988713288,1.3826224677150351e-18,0.027621079266833763,-6.279574293830506e-18,0.027621079266833763,1.1872754942545121e-17,0.6794779355453773,1.2356240076924945e-17,-0.6794779355453774,0.47926149292966963,0.735266511402259,0.4792614929296697,100.0,45.0,[1.45460772]
-3.689887276476546e-18,0.6783953302456103,-6.165706678657987e-18,0.6783953302456103,1.4433970816805312e-18,0.02828776890633438,-6.165706678657987e-18,0.02828776890633438,1.0655092141307861e-17,0.678984846641476,1.114203076656045e-17,-0.678984846641476,0.47873495598242105,0.73595222931996,0.47873495598242105,100.0,45.0,[1.45460772]
-5.4089406429291484e-18,0.6763526732401044,-6.042919574940309e-18,0.6763526732401044,1.4889780421546532e-18,0.02972396269614722,-6.042919574940309e-18,0.02972396269614722,9.41572412079721e-18,0.6770055040820553,9.909809836482426e-18,-0.6770055040820552,0.4775653274936921,0.7374704848003651,0.4775653274936921,100.0,45.0,[1.44433971]
-7.127994009381751e-18,0.6721834467904134,-5.88855816006087e-18,0.6721834467904134,1.4737843886632792e-18,0.032252773395712385,-5.88855816006087e-18,0.032252773395712385,8.126434095957757e-18,0.6729567798386132,8.648016863984264e-18,-0.6729567798386134,0.4754619409200155,0.740183683603701,0.47546194092001554,100.0,45.0,[1.44433971]
-8.938209296782598e-18,0.6644507966396036,-5.696483926693913e-18,0.6644507966396036,1.3782814238603568e-18,0.03661391640816437,-5.696483926693913e-18,0.03661391640816437,6.787222066789506e-18,0.6654588191839883,7.362899897182733e-18,-0.6654588191839884,0.4717323312367531,0.7449410817855844,0.4717323312367531,100.0,45.0,[1.43514755]
-1.0843927548986367e-17,0.6493468973323109,-5.405752688848369e-18,0.6493468973323109,1.1308419241436943e-18,0.04467814330187381,-5.405752688848369e-18,0.04467814330187381,5.30258506848953e-18,0.650882116488079,5.984154957570995e-18,-0.6508821164880791,0.4644994375425518,0.7539764883902589,0.4644994375425518,100.0,45.0,[1.44760926]
-1.3027472607889548e-17,0.6133870279463386,-4.8776375724026634e-18,0.6133870279463386,3.689887276476546e-19,0.06230200171271098,-4.8776375724026634e-18,0.06230200171271098,3.4402772548325446e-18,0.6165429307600997,4.325937951295984e-18,-0.6165429307601,0.4469153717764855,0.7749408370577536,0.4469153717764855,100.0,45.0,[1.44840828]
-1.6726041972075448e-17,0.4706627323298691,-3.4413286013910995e-18,0.4706627323298691,-4.1934483636192274e-18,0.10029088639871434,-3.4413286013910995e-18,0.10029088639871434,-3.017025479001411e-19,0.4812293315030349,-7.527816058412461e-19,-0.481229331503035,0.38481844485077815,0.8389454863131797,0.384818444850778,100.0,45.0,[1.39085197]
-1.751177090977222e-17,0.47747570491589614,-3.519399561965079e-18,0.47747570491589614,-4.245540889875367e-18,0.09876331227491605,-3.519399561965079e-18,0.09876331227491605,-1.6105272700856455e-18,0.48758306024352854,-6.767404500916498e-19,-0.4875830602435284,0.24712921514041009,0.9369387931173361,0.24712921514041022,100.0,57.8571428571429,[1.39444961]
-1.5944654078233356e-17,0.6217711309252514,-4.963661460976034e-18,0.6217711309252514,2.235637585159319e-19,0.06047814229340602,-4.963661460976034e-18,0.06047814229340602,1.1503766214897466e-19,0.6247054865673326,9.00038737152093e-19,-0.6247054865673327,0.31647349396129426,0.8942533507009415,0.3164734939612943,100.0,57.8571428571429,[1.4352003]
-1.5866515288849147e-17,0.6565790906147609,-5.5101157919875e-18,0.6565790906147609,8.834024244270319e-19,0.04317879324158591,-5.5101157919875e-18,0.04317879324158591,-5.86040920381569e-20,0.6579973483368347,5.974370162788637e-19,-0.6579973483368347,0.33610340110695053,0.8798119159960728,0.33610340110695053,100.0,57.8571428571429,[1.46468889]
-1.604015704303628e-17,0.6716709133018652,-5.822187669251453e-18,0.6716709133018652,1.0396800031954503e-18,0.035178887578797904,-5.822187669251453e-18,0.035178887578797904,-6.554976220564217e-19,0.6725915327351685,-8.329937515891322e-20,-0.6725915327351686,0.3443731755110947,0.8733923700014842,0.34437317551109486,100.0,57.8571428571429,[1.46468889]
-1.6326665937445046e-17,0.6799197419763191,-6.043318069200407e-18,0.6799197419763191,1.0244863497040763e-18,0.03076162256529795,-6.043318069200407e-18,0.03076162256529795,-1.4043276869884266e-18,0.6806152605929392,-8.840149144012454e-19,-0.6806152605929392,0.3487586280658264,0.8699050745335869,0.3487586280658264,100.0,57.8571428571429,[1.48714051]
-1.664790318269124e-17,0.6849095191841708,-6.2297497934164106e-18,0.6849095191841708,9.420065164651888e-19,0.02810737815746917,-6.2297497934164106e-18,0.02810737815746917,-2.220443931667945e-18,0.6854860131147675,-1.7352813766951222e-18,-0.6854860131147674,0.35133725920675646,0.8678273218712169,0.35133725920675635,100.0,57.8571428571429,[1.48714051]
-1.6995186691065502e-17,0.6879997207314277,-6.3777776931406845e-18,0.6879997207314277,8.0526363504282275e-19,0.02649409849114658,-6.3777776931406845e-18,0.02649409849114658,-3.0821411368215854e-18,0.688509660775636,-2.6239382848006795e-18,-0.6885096607756359,0.3528857261642574,0.8665698636226912,0.3528857261642574,100.0,57.8571428571429,[1.4872034]
-1.7372857506422514e-17,0.6897822603927798,-6.5230034151423585e-18,0.6897822603927798,6.337924027830302e-19,0.025601617010977462,-6.5230034151423585e-18,0.025601617010977462,-3.965543561248617e-18,0.6902572053561986,-3.503079625188153e-18,-0.6902572053561985,0.35373796581712236,0.8658746462849741,0.35373796581712236,100.0,57.8571428571429,[1.46615429]
-1.773750519021549e-17,0.6905033278745538,-6.64474871072792e-18,0.6905033278745538,4.471275170318638e-19,0.025296578560354215,-6.64474871072792e-18,0.025296578560354215,-4.892356424222432e-18,0.6909665423829825,-4.421872707021911e-18,-0.6909665423829825,0.3540317320467565,0.8656344871872581,0.3540317320467565,100.0,57.8571428571429,[1.46600466]
-1.814122226870057e-17,0.69019714044343,-6.76121422232348e-18,0.69019714044343,2.235637585159319e-19,0.025562470159679638,-6.76121422232348e-18,0.025562470159679638,-5.8321924187602816e-18,0.6906703501359762,-5.35296244704008e-18,-0.6906703501359762,0.3537862848228289,0.8658351629164297,0.3537862848228288,100.0,57.8571428571429,[1.46615429]
-1.8540598303330973e-17,0.6886968657226384,-6.847994561104682e-18,0.6886968657226384,-2.1705219273391446e-20,0.02649436244186001,-6.847994561104682e-18,0.02649436244186001,-6.813268329917576e-18,0.6892063000998948,-6.309307260472474e-18,-0.6892063000998947,0.3529093421273648,0.8665506289181614,0.35290934212736486,100.0,57.8571428571429,[1.4872034]
-1.898338477650816e-17,0.6855312140274079,-6.9253639174228524e-18,0.6855312140274079,-3.1906672331885426e-19,0.02835427022152936,-6.9253639174228524e-18,0.02835427022152936,-7.831243113839634e-18,0.6861173442245045,-7.290518164455363e-18,-0.6861173442245043,0.35113941159028783,0.8679874580061931,0.35113941159028766,100.0,57.8571428571429,[1.48714051]
-1.9426171249685344e-17,0.6795716188241393,-6.957959900038693e-18,0.6795716188241393,-6.923964948211871e-19,0.03175300194356948,-6.957959900038693e-18,0.03175300194356948,-8.944720862564615e-18,0.6803130442992326,-8.32541719962934e-18,-0.6803130442992327,0.34784856518226853,0.8706335345030504,0.3478485651822686,100.0,57.8571428571429,[1.48714051]
-1.996880173152013e-17,0.6677913493408884,-6.924634757712887e-18,0.6677913493408884,-1.2285154108739559e-18,0.038241833410355065,-6.924634757712887e-18,0.038241833410355065,-1.0229669843549389e-17,0.6688854341941599,-9.4888581696154e-18,-0.6688854341941599,0.3413575842785658,0.8757568151667469,0.3413575842785659,100.0,57.8571428571429,[1.46468889]
-2.0711120230670118e-17,0.6391462648397436,-6.67683915674252e-18,0.6391462648397436,-2.279048023706102e-18,0.05265691919557943,-6.67683915674252e-18,0.05265691919557943,-1.200081573625813e-17,0.6413117019030333,-1.0805928660674562e-17,-0.6413117019030333,0.325773053415634,0.8875493424799034,0.3257730534156339,100.0,57.8571428571429,[1.43013902]
-2.256040491276307e-17,0.5119707953408773,-5.707378929337002e-18,0.5119707953408773,-7.132335053236429e-18,0.0827819429816898,-5.707378929337002e-18,0.0827819429816898,-1.6016281301835548e-17,0.5186202323143536,-1.4169047834024375e-17,-0.5186202323143536,0.2758118938794476,0.9207907462552307,0.2758118938794476,100.0,57.8571428571429,[1.39389929]
-2.2234826623662197e-17,0.5174492130228782,-5.588686990036921e-18,0.5174492130228782,-7.091095136616985e-18,0.07846534061747867,-5.588686990036921e-18,0.07846534061747867,-1.6574105437161708e-17,0.5233645935064893,-1.4714443118225704e-17,-0.5233645935064893,0.13083916023330175,0.9827320226281877,0.13083916023330164,100.0,70.71428571428567,[1.44812847]
-2.0155466617271297e-17,0.6459180970529591,-5.942829686845627e-18,0.6459180970529591,-2.1509872299930923e-18,0.04742560696689371,-5.942829686845627e-18,0.04742560696689371,-1.3183750186657966e-17,0.6476568352891015,-1.2345638550400541e-17,-0.6476568352891015,0.18404232724632466,0.9655344859524767,0.18404232724632466,100.0,70.71428571428567,[1.47823961]
-1.9222142188515465e-17,0.6736725264504749,-5.583523521858212e-18,0.6736725264504749,-1.020145305849398e-18,0.03383610113643296,-5.583523521858212e-18,0.03383610113643296,-1.2074613481787662e-17,0.6745217228779818,-1.1517844040908517e-17,-0.6745217228779816,0.19976837055204463,0.9592628400255906,0.19976837055204463,100.0,70.71428571428567,[1.50693525]
-1.8427731163109338e-17,0.6854762541358265,-5.0464550024622326e-18,0.6854762541358265,-3.9503499077572437e-19,0.027443475316727008,-5.0464550024622326e-18,0.027443475316727008,-1.147120838598738e-17,0.6860253926215445,-1.1094084468669482e-17,-0.6860253926215445,0.2066561769574296,0.9563401325107501,0.20665617695742958,100.0,70.71428571428567,[1.52543028]
-1.771145892708742e-17,0.6918830973596589,-4.442820984427426e-18,0.6918830973596589,6.294513589283519e-20,0.02380276322259503,-4.442820984427426e-18,0.02380276322259503,-1.1050127132083585e-17,0.6922924179485331,-1.0753122130215114e-17,-0.692292417948533,0.21045667808686638,0.9546810846022259,0.21045667808686638,100.0,70.71428571428567,[1.51340587]
-1.7016891910338894e-17,0.695740306502654,-3.802974860331427e-18,0.695740306502654,4.492980389592029e-19,0.02150578480352095,-3.802974860331427e-18,0.02150578480352095,-1.0722378321055374e-17,0.6960726060350476,-1.0492583169104092e-17,-0.6960726060350475,0.21281034132357746,0.953636994485577,0.2128103413235775,100.0,70.71428571428567,[1.51196216]
-1.634403011286376e-17,0.6981144374979131,-3.1417457038106255e-18,0.6981144374979131,7.79217371914753e-19,0.019991096071585345,-3.1417457038106255e-18,0.019991096071585345,-1.0444551514355964e-17,0.6984006097972502,-1.0273758674221602e-17,-0.69840060979725,0.21434238532799785,0.9529505148242525,0.21434238532799782,100.0,70.71428571428567,[1.51139929]
-1.5675509359243302e-17,0.699466416205752,-2.474801970028001e-18,0.699466416205752,1.080919919814894e-18,0.01900484302137825,-2.474801970028001e-18,0.01900484302137825,-1.0205794102348658e-17,0.6997245539910585,-1.0071450321970952e-17,-0.6997245539910583,0.21532879982721623,0.952505651390028,0.21532879982721614,100.0,70.71428571428567,[1.51139929]
-1.5028693824896237e-17,0.6999861051321097,-1.7874587215689003e-18,0.6999861051321097,1.3630877703689828e-18,0.01843348001483002,-1.7874587215689003e-18,0.01843348001483002,-1.0001765041178778e-17,0.7002287773031592,-9.911781499828288e-18,-0.7002287773031592,0.2158916707004314,0.9522507931445124,0.2158916707004314,100.0,70.71428571428567,[1.50972605]
-1.4368855158985137e-17,0.6996971826376979,-1.1063387664483423e-18,0.6996971826376979,1.6105272700856455e-18,0.0182472410433894,-1.1063387664483423e-18,0.0182472410433894,-9.825952765064308e-18,0.699935074986836,-9.771252424217247e-18,-0.6999350749868362,0.21606344802104155,0.9521728692094295,0.21606344802104155,100.0,70.71428571428567,[1.51139929]
-1.3726380668492752e-17,0.6984647024943368,-4.0358142086462225e-19,0.6984647024943368,1.829749984746899e-18,0.01849066300597992,-4.0358142086462225e-19,0.01849066300597992,-9.684868839787263e-18,0.6987094140262483,-9.666226736607264e-18,-0.6987094140262483,0.21579798392830804,0.9522932637927013,0.21579798392830807,100.0,70.71428571428567,[1.51139929]
-1.3105611397273757e-17,0.6959112153470486,3.1302995920844226e-19,0.6959112153470486,2.009903304716048e-18,0.019312787676991214,3.1302995920844226e-19,0.019312787676991214,-9.613241616185072e-18,0.6961791460634702,-9.630452308304664e-18,-0.6961791460634701,0.21493753178040959,0.9526823787938405,0.21493753178040959,100.0,70.71428571428567,[1.51139929]
-1.2508717867255492e-17,0.691129968634185,1.0452419656342568e-18,0.691129968634185,2.1097473133736486e-18,0.021074561779828346,1.0452419656342568e-18,0.021074561779828346,-9.630605791603785e-18,0.6914512063034537,-9.695671905196128e-18,-0.6914512063034537,0.21309175107841352,0.9535113063014359,0.21309175107841358,100.0,70.71428571428567,[1.51445365]
-1.192484746880126e-17,0.6816593442931045,1.829800856354571e-18,0.6816593442931045,2.040290611698796e-18,0.024700562111093477,1.829800856354571e-18,0.024700562111093477,-9.854169550119717e-18,0.6821067214378619,-9.988188178051798e-18,-0.6821067214378619,0.20922043715244232,0.9552243806328865,0.2092204371524423,100.0,70.71428571428567,[1.52543028]
-1.149508412718811e-17,0.6582113417186465,2.7320427328228043e-18,0.6582113417186465,1.4585907351719052e-18,0.03304871784182709,2.7320427328228043e-18,0.03304871784182709,-1.063121640010713e-17,0.6590405056732473,-1.0875315213988306e-17,-0.6590405056732473,0.1997794975253292,0.959258205457245,0.1997794975253292,100.0,70.71428571428567,[1.50693525]
-1.1916165381091904e-17,0.5416320127390527,4.054331473838834e-18,0.5416320127390527,-2.9171814703438104e-18,0.049339372332855215,4.054331473838834e-18,0.049339372332855215,-1.3921727641953274e-17,0.5438746279115783,-1.472652680582078e-17,-0.543874627911578,0.17203180570817703,0.9699536667540196,0.17203180570817708,100.0,70.71428571428567,[1.42626781]
-1.0791835022730227e-17,0.5446966596845292,3.552143920103297e-18,0.5446966596845292,-2.9497392992538975e-18,0.043084829486721,3.552143920103297e-18,0.043084829486721,-1.3214137493640714e-17,0.5463979809656911,-1.3671696788788757e-17,-0.5463979809656909,0.023517799756523766,0.9994467600573951,0.023517799756523766,100.0,83.57142857142856,[1.63550073]
-8.37387359567442e-18,0.6620482694367089,1.8019232153503088e-18,0.6620482694367089,1.350064638804948e-18,0.025434456201602396,1.8019232153503088e-18,0.025434456201602396,-8.239301236179393e-18,0.6625366575717995,-8.377797572895788e-18,-0.6625366575717995,0.05213768338864264,0.9972779572123969,0.05213768338864264,100.0,83.57142857142856,[1.61819067]
-6.80241572028088e-18,0.685055697614561,4.341213426703863e-19,0.685055697614561,1.8709899013663427e-18,0.018241724672818427,4.341213426703863e-19,0.018241724672818427,-5.790952502140838e-18,0.6852985257194207,-5.8140060404387605e-18,-0.6852985257194206,0.060438906123985274,0.9963404424457898,0.060438906123985274,100.0,83.57142857142856,[1.60776467]
-5.356848116673009e-18,0.6945927843612446,-8.393645693856276e-19,0.6945927843612446,1.8644783355843252e-18,0.014717171951015419,-8.393645693856276e-19,0.014717171951015419,-3.913451034992478e-18,0.6947486820692373,-3.8773657895674735e-18,-0.6947486820692373,0.06426830027299842,0.9958610200023092,0.06426830027299842,100.0,83.57142857142856,[1.57883111]
-3.9394972981205475e-18,0.6996755253697405,-2.0780543017939856e-18,0.6996755253697405,1.6973481471792113e-18,0.012568096808491034,-2.0780543017939856e-18,0.012568096808491034,-2.2443196728686755e-18,0.6997883950586851,-2.1696366791964294e-18,-0.6997883950586852,0.06653838880250068,0.9955627984367106,0.06653838880250068,100.0,83.57142857142856,[1.57883111]
-2.5416811769141383e-18,0.7026659412396803,-3.308587619772265e-18,0.7026659412396803,1.4542496913172269e-18,0.011076712644956693,-3.308587619772265e-18,0.011076712644956693,-6.75032319402474e-19,0.7027532415729328,-5.712909069332156e-19,-0.7027532415729328,0.06808575211142852,0.9953535355434481,0.0680857521114285,100.0,83.57142857142856,[1.57715787]
-1.139524011853051e-18,0.7044363531150056,-4.522452007636681e-18,0.7044363531150056,1.156888187271764e-18,0.009953431835152881,-4.522452007636681e-18,0.009953431835152881,8.421625078075882e-19,0.7045066688082277,9.698023816154527e-19,-0.7045066688082277,0.06923558764142289,0.9951948888574005,0.06923558764142289,100.0,83.57142857142856,[1.57715787]
2.2573428044327104e-19,0.7053584329157716,-5.729024798401443e-18,0.7053584329157716,8.356509420255708e-19,0.009061031783040786,-5.729024798401443e-18,0.009061031783040786,2.3050942868341716e-18,0.7054166295051215,2.452298683371021e-18,-0.7054166295051216,0.07013867744128363,0.9950684056151996,0.07013867744128363,100.0,83.57142857142856,[1.57626945]
1.6083567481583064e-18,0.7055798792315189,-6.941396952440814e-18,0.7055798792315189,4.883674336513075e-19,0.008328299682693042,-6.941396952440814e-18,0.008328299682693042,3.739809280805346e-18,0.7056290289890075,3.9031752813630545e-18,-0.7056290289890076,0.07087206093163786,0.994964472711767,0.07087206093163785,100.0,83.57142857142856,[1.57626945]
2.973615040454628e-18,0.705109114607579,-8.144425687871092e-18,0.705109114607579,1.172081840763138e-19,0.007718136617985306,-8.144425687871092e-18,0.007718136617985306,5.133284358157077e-18,0.7051513547711139,5.311270158053038e-18,-0.7051513547711141,0.07147522292431803,0.9948781759672078,0.07147522292431803,100.0,83.57142857142856,[1.57626945]
4.33887333275095e-18,0.7038179838906157,-9.347369637288584e-18,0.7038179838906157,-2.821678505540888e-19,0.007215731882364088,-9.347369637288584e-18,0.007215731882364088,6.492031084671382e-18,0.7038549717338433,6.683498759539066e-18,-0.7038549717338433,0.071963191910444,0.9948078196416236,0.07196319191044397,100.0,83.57142857142856,[1.57715787]
5.6954495373379155e-18,0.7013645529592017,-1.0543666363303599e-17,0.7013645529592017,-7.3580693336797e-19,0.006827606811489263,-1.0543666363303599e-17,0.006827606811489263,7.783491631438173e-18,0.7013977846860032,7.988577126687565e-18,-0.7013977846860033,0.07232718941903178,0.9947550227777124,0.07232718941903178,100.0,83.57142857142856,[1.57715787]
7.02815000072415e-18,0.6969334825498348,-1.17424727552971e-17,0.6969334825498348,-1.2567321959293647e-18,0.00659324715024849,-1.17424727552971e-17,0.00659324715024849,8.979449213402041e-18,0.696964669123927,9.201574834248963e-18,-0.696964669123927,0.0725201669647226,0.9947269227113628,0.07252016696472259,100.0,83.57142857142856,[1.57883111]
8.34999785447369e-18,0.6883003405811955,-1.2936853317423138e-17,0.6883003405811955,-1.9578107784599084e-18,0.006627066879304983,-1.2936853317423138e-17,0.006627066879304983,9.954013558777317e-18,0.6883322430771442,1.0202829605888209e-17,-0.6883322430771441,0.07240215430549185,0.9947441158930509,0.07240215430549182,100.0,83.57142857142856,[1.59030093]
9.576342743420306e-18,0.6669008880118142,-1.410018524166669e-17,0.6669008880118142,-3.1581094042784558e-18,0.007241506710210426,-1.410018524166669e-17,0.007241506710210426,1.0340366461843685e-17,0.6669402026046868,1.064634286562775e-17,-0.6669402026046867,0.0715368210856889,0.9948693212969772,0.07153682108568886,100.0,83.57142857142856,[1.58099806]
1.0014788172742813e-17,0.553863538237416,-1.5256734284887306e-17,0.553863538237416,-8.163332968722523e-18,0.00645073251964291,-1.5256734284887306e-17,0.00645073251964291,8.126434095957757e-18,0.5539011021282676,8.481956030325651e-18,-0.5539011021282676,0.07098228497942344,0.9949487576946867,0.0709822849794234,100.0,83.57142857142856,[1.53418429]
