stress_11,stress_12,stress_13,stress_21,stress_22,stress_23,stress_31,stress_32,stress_33,e1,e2,e3,anev1,anev2,anev3,temp,miss,velo
6.001493129092735e-18,0.5433031354264115,-1.7830566317850156e-17,0.5433031354264115,-6.19249905869858e-18,-0.04376985021324114,-1.7830566317850156e-17,-0.04376985021324114,3.846164855244964e-18,0.5450633878292132,1.0359871030325794e-18,-0.545063387829213,0.17919247621072218,0.9673572829823217,0.17919247621072223,1000.0,109.28571428571416,[1.45338028]
5.1267727923750596e-18,0.6599777718559212,-1.5957202408125786e-17,0.6599777718559212,-1.6300619674316978e-18,-0.0275052840477326,-1.5957202408125786e-17,-0.0275052840477326,5.623822313735724e-18,0.6605506793535624,4.292157940578871e-18,-0.6605506793535626,0.20554842416502725,0.9568174803203316,0.2055484241650273,1000.0,109.28571428571416,[1.51649739]
3.386014206649066e-18,0.6835180054549,-1.4489022374907707e-17,0.6835180054549,-8.682087709356578e-19,-0.019193104714060806,-1.4489022374907707e-17,-0.019193104714060806,4.89669746807711e-18,0.6837874224125579,4.079434781451583e-18,-0.6837874224125579,0.21471667956707008,0.9527819766512086,0.21471667956707013,1000.0,109.28571428571416,[1.52517039]
1.499830651791349e-18,0.6930793316964041,-1.3153278093662431e-17,0.6930793316964041,-6.142577054369779e-19,-0.015608339216046483,-1.3153278093662431e-17,-0.015608339216046483,3.607407443237658e-18,0.6932550614873413,3.0132478144305935e-18,-0.6932550614873415,0.21845654899360398,0.9510801608716325,0.218456548993604,1000.0,109.28571428571416,[1.52146518]
-4.102286442670984e-19,0.6979501056632159,-1.1865259859014778e-17,0.6979501056632159,-5.339483941254296e-19,-0.013891837888508323,-1.1865259859014778e-17,-0.013891837888508323,2.118429401083005e-18,0.6980883419419172,1.645929218187622e-18,-0.6980883419419172,0.2202146494181935,0.9502689179191566,0.22021464941819352,1000.0,109.28571428571416,[1.52146518]
-2.3376521157442588e-18,0.7005920273892571,-1.0591621332135748e-17,0.7005920273892571,-5.209252625613947e-19,-0.013118582995255808,-1.0591621332135748e-17,-0.013118582995255808,5.3503365508909915e-19,0.7007148393328008,1.3748245168633496e-19,-0.7007148393328008,0.22100626762952622,0.9499012892595381,0.22100626762952624,1000.0,109.28571428571416,[1.52146518]
-4.2846102845674715e-18,0.7019118622260941,-9.341926375267678e-18,0.7019118622260941,-5.55653613398821e-19,-0.012927386055864834,-9.341926375267678e-18,-0.012927386055864834,-1.1091367048703029e-18,0.7020308965023834,-1.4540141249885844e-18,-0.7020308965023834,0.22121279784999837,0.949805135875118,0.22121279784999837,1000.0,109.28571428571416,[1.52146518]
-6.2532736726640764e-18,0.702287050389414,-8.094596948156357e-18,0.702287050389414,-6.272808370010128e-19,-0.013169028657859613,-8.094596948156357e-18,-0.013169028657859613,-2.7956322424128183e-18,0.7024105099302362,-3.0998272131177248e-18,-0.7024105099302362,0.2209883826838289,0.9499096111933868,0.22098838268382895,1000.0,109.28571428571416,[1.52146518]
-8.213254973051323e-18,0.7018525220201596,-6.857153570135964e-18,0.7018525220201596,-7.249543237312743e-19,-0.013798821094675402,-6.857153570135964e-18,-0.013798821094675402,-4.512515086938082e-18,0.7019881552630797,-4.783480514894798e-18,-0.7019881552630797,0.22037799427525967,0.9501931799789068,0.22037799427525964,1000.0,109.28571428571416,[1.52146518]
-1.017540679536591e-17,0.7005845819452557,-5.6316311055133774e-18,0.7005845819452557,-8.421625078075882e-19,-0.014846385264374509,-5.6316311055133774e-18,-0.014846385264374509,-6.257614716518755e-18,0.7007418723144972,-6.497385327788275e-18,-0.700741872314497,0.21934960343688653,0.9506689765339781,0.2193496034368865,1000.0,109.28571428571416,[1.52146518]
-1.2172286968517923e-17,0.6982933539669529,-4.415108676148098e-18,0.6982933539669529,-9.940990427213282e-19,-0.016425125597423193,-4.415108676148098e-18,-0.016425125597423193,-8.046124784646209e-18,0.6984865016199724,-8.255639386423996e-18,-0.6984865016199722,0.21778324902292917,0.9513889388100083,0.21778324902292917,1000.0,109.28571428571416,[1.52146518]
-1.4171337663597275e-17,0.6945179061399276,-3.2268284676420643e-18,0.6945179061399276,-1.1959575819638687e-18,-0.018788756524097464,-3.2268284676420643e-18,-0.018788756524097464,-9.883471596138795e-18,0.6947720052799413,-1.0066440154559449e-17,-0.6947720052799413,0.21540790556414238,0.9524698779703952,0.2154079055641424,1000.0,109.28571428571416,[1.52146518]
-1.6205116709514054e-17,0.6881916935201152,-2.0574089076804277e-18,0.6881916935201152,-1.4607612570992443e-18,-0.022498587117880123,-2.0574089076804277e-18,-0.022498587117880123,-1.1811980328579625e-17,0.6885593608777573,-1.1958377426533672e-17,-0.6885593608777573,0.21160979334916058,0.9541711537860759,0.21160979334916058,1000.0,109.28571428571416,[1.53500523]
-1.8282306193977615e-17,0.6764675227704163,-9.678227975335746e-19,0.6764675227704163,-1.90354773027643e-18,-0.028962680554361728,-9.678227975335746e-19,-0.028962680554361728,-1.3919557120025934e-17,0.6770872515621881,-1.4013774077738608e-17,-0.6770872515621882,0.2047793764451403,0.9571472269016293,0.2047793764451403,1000.0,109.28571428571416,[1.52989404]
-2.0541819520337665e-17,0.6487918039421287,-5.462338873782203e-20,0.6487918039421287,-2.854236334450975e-18,-0.04262596403658663,-5.462338873782203e-20,-0.04262596403658663,-1.6536121303433273e-17,0.6501905702734619,-1.6548984612019986e-17,-0.6501905702734622,0.18928421552958546,0.9635055638151233,0.18928421552958552,1000.0,109.28571428571416,[1.4652535]
-2.3897446420003982e-17,0.5204017437873705,1.4949045844484425e-19,0.5204017437873705,-7.603338311469024e-18,-0.07374209502988312,1.4949045844484425e-19,-0.07374209502988312,-2.144150085921974e-17,0.5256004866020696,-2.1460450906751678e-17,-0.5256004866020695,0.1375922315579386,0.980885699574529,0.13759223155793862,1000.0,109.28571428571416,[1.40129063]
6.2836609796468244e-18,0.5462862277096594,-1.7211950611355942e-17,0.5462862277096594,-6.164282273643171e-18,-0.03743423857880638,-1.7211950611355942e-17,-0.03743423857880638,3.506478173616388e-18,0.5475673153167789,1.195595557319179e-18,-0.5475673153167788,0.030948475378127734,0.9990417327336925,0.030948475378127775,1000.0,96.42857142857144,[1.41457954]
5.751883107448733e-18,0.6635368084447028,-1.4656754544003606e-17,0.6635368084447028,-1.5497526561201495e-18,-0.019742414550620913,-1.4656754544003606e-17,-0.019742414550620913,4.886930119404084e-18,0.6638304445363069,4.016016834864615e-18,-0.6638304445363067,0.05823858988365836,0.9966024951286878,0.05823858988365839,1000.0,96.42857142857144,[1.49162892]
4.321509157332237e-18,0.6864445989504101,-1.2487029605184658e-17,0.6864445989504101,-7.3580693336797e-19,-0.012505284834248932,-1.2487029605184658e-17,-0.012505284834248932,3.740894541769016e-18,0.6865584968354663,3.2866558812605956e-18,-0.6865584968354664,0.06635912957077601,0.9955867274352435,0.06635912957077605,1000.0,96.42857142857144,[1.50964883]
2.8108258959041923e-18,0.6958818248072167,-1.0418674823253468e-17,0.6958818248072167,-4.2325177583113325e-19,-0.008938284176975422,-1.0418674823253468e-17,-0.008938284176975422,2.027267480134761e-18,0.6959392265284737,1.7599065243639325e-18,-0.6959392265284738,0.07013969964960715,0.9950682615108,0.07013969964960716,1000.0,96.42857142857144,[1.50380296]
1.2502206301473473e-18,0.700864127884445,-8.378452040364901e-18,0.700864127884445,-2.865088944087671e-19,-0.006750002394049391,-8.378452040364901e-18,-0.006750002394049391,9.767348673026152e-20,0.7008966316708506,-6.36969210806534e-20,-0.7008966316708504,0.07240017804939235,0.994744403571507,0.07240017804939236,1000.0,96.42857142857144,[1.50380296]
-3.168962013915151e-19,0.7037534668093243,-6.353066809714005e-18,0.7037534668093243,-2.235637585159319e-19,-0.005223105693549856,-6.353066809714005e-18,-0.005223105693549856,-1.9274234714771604e-18,0.7037728489216025,-2.021640336005426e-18,-0.7037728489216025,0.07395380855291346,0.9945157959535071,0.07395380855291347,1000.0,96.42857142857144,[1.49915759]
-1.9100592960584473e-18,0.7054221785973707,-4.346063186635261e-18,0.7054221785973707,-2.083701050245579e-19,-0.004068232139627028,-4.346063186635261e-18,-0.004068232139627028,-4.011124521722739e-18,0.7054339094272423,-4.061189196235288e-18,-0.7054339094272424,0.07511728502591196,0.9943413835201028,0.07511728502591196,1000.0,96.42857142857144,[1.49915759]
-3.481517171451988e-18,0.7062419792555705,-2.3377538589596028e-18,0.7062419792555705,-2.235637585159319e-19,-0.003148299066099697,-2.3377538589596028e-18,-0.003148299066099697,-6.14040653244244e-18,0.706248996494746,-6.1612058519597634e-18,-0.706248996494746,0.07603775067873397,0.9942014488741392,0.07603775067873399,1000.0,96.42857142857144,[1.49915759]
-5.092044441537633e-18,0.7063606241784739,-3.2885102919443775e-19,0.7063606241784739,-2.713152409173931e-19,-0.0023921916765542927,-3.2885102919443775e-19,-0.0023921916765542927,-8.300075850144889e-18,0.7063646749171568,-8.302263699050517e-18,-0.7063646749171569,0.07679073877959953,0.9940856929235862,0.07679073877959955,1000.0,96.42857142857144,[1.49915759]
-6.696060145841262e-18,0.7057865994917041,1.6766264456541454e-18,0.7057865994917041,-3.3208985488288913e-19,-0.0017628836886737721,1.6766264456541454e-18,-0.0017628836886737721,-1.0498814562539443e-17,0.7057888011161436,-1.0490412816160134e-17,-0.7057888011161435,0.07741552300967204,0.9939887693501763,0.07741552300967204,1000.0,96.42857142857144,[1.49915759]
-8.29573480629021e-18,0.7043918177434653,3.670793466396984e-18,0.7043918177434653,-4.2759281968581154e-19,-0.0012456188210383727,3.670793466396984e-18,-0.0012456188210383727,-1.274096371348078e-17,0.7043929190943008,-1.2727967398131348e-17,-0.7043929190943008,0.07792816098203639,0.9939086494501976,0.07792816098203637,1000.0,96.42857142857144,[1.49915759]
-9.908432598303195e-18,0.7018344152882617,5.666045748103493e-18,0.7018344152882617,-5.751883107448733e-19,-0.0008469580671331118,5.666045748103493e-18,-0.0008469580671331118,-1.504605800031495e-17,0.701834926333097,-1.5032375106778935e-17,-0.7018349263330969,0.07832282813418566,0.9938466024423116,0.07832282813418563,1000.0,96.42857142857144,[1.49894224]
-1.1540665087662232e-17,0.697299125349361,7.664859042347042e-18,0.697299125349361,-8.009225911881445e-19,-0.0006064138564983652,7.664859042347042e-18,-0.0006064138564983652,-1.7444484730024705e-17,0.6972993890365522,-1.7431148621272796e-17,-0.6972993890365521,0.07855973403830098,0.993809205217814,0.07855973403830095,1000.0,96.42857142857144,[1.49884437]
-1.3192432274367323e-17,0.6885615898586844,9.646766005640927e-18,0.6885615898586844,-1.185104972327173e-18,-0.0006384148862483591,9.646766005640927e-18,-0.0006384148862483591,-2.0057793130541035e-17,0.6885618858187594,-2.0039898774053886e-17,-0.6885618858187594,0.07851931942528351,0.9938155930322187,0.07851931942528348,1000.0,96.42857142857144,[1.5125185]
-1.4952725557439367e-17,0.6670576449768737,1.1620245239263815e-17,0.6670576449768737,-2.0771894844635614e-18,-0.0012554052197338676,1.1620245239263815e-17,-0.0012554052197338676,-2.3261483495293613e-17,0.6670588263147103,-2.32177140106459e-17,-0.6670588263147104,0.07784829223155465,0.9939211672930911,0.07784829223155464,1000.0,96.42857142857144,[1.48493927]
-1.748355412471681e-17,0.5539157802299363,1.3573341915412785e-17,0.5539157802299363,-6.774198935225471e-18,-0.0004715431109467891,1.3573341915412785e-17,-0.0004715431109467891,-2.908065278248986e-17,0.5539159809399299,-2.9057534771317566e-17,-0.5539159809399298,0.07857264367027399,0.9938071640581632,0.07857264367027396,1000.0,96.42857142857144,[1.40703694]
-2.4993559993310253e-17,0.5149885451604325,9.246571785987133e-19,0.5149885451604325,-7.63589614037911e-18,-0.07812051045406859,9.246571785987133e-19,-0.07812051045406859,-2.1970022948526822e-17,0.5208800397404982,-2.134292002591004e-17,-0.5208800397404985,0.2821529311512937,0.9169402635316363,0.28215293115129375,1000.0,122.14285714285735,[1.4002841]
-2.3350474894314518e-17,0.6422345237980763,2.6623846643675833e-18,0.6422345237980763,-2.9551656040722454e-18,-0.04805186029045786,2.6623846643675833e-18,-0.04805186029045786,-1.8614396048860504e-17,0.6440296304018286,-1.8227209291004975e-17,-0.6440296304018283,0.3304833136619953,0.8840597031773219,0.33048331366199524,1000.0,122.14285714285735,[1.4619744]
-2.2825208587898445e-17,0.6709479303981682,3.6640996106874755e-18,0.6709479303981682,-2.0446316555534742e-18,-0.03369450567567349,3.6640996106874755e-18,-0.03369450567567349,-1.7518282475554236e-17,0.6717934541347609,-1.7155104892685222e-17,-0.6717934541347608,0.3457003451404901,0.8723431336002433,0.34570034514049014,1000.0,122.14285714285735,[1.49920764]
-2.250397134265225e-17,0.6827952053787283,4.4711437519988186e-18,0.6827952053787283,-1.6658755792327937e-18,-0.027265076944701407,4.4711437519988186e-18,-0.027265076944701407,-1.690076898722625e-17,0.6833393570613212,-1.654757463387685e-17,-0.6833393570613215,0.3520149522541004,0.8672778947829161,0.3520149522541004,1000.0,122.14285714285735,[1.51664883]
-2.2243508711371554e-17,0.6888207060768683,5.194766935329342e-18,0.6888207060768683,-1.4542496913172269e-18,-0.023927416079914315,5.194766935329342e-18,-0.023927416079914315,-1.6457982514049064e-17,0.6892361615299187,-1.6107402790821394e-17,-0.689236161529919,0.35519149788635,0.8646837570224747,0.3551914978863499,1000.0,122.14285714285735,[1.5016973]
-2.202211547478296e-17,0.6920512300946443,5.883928843762717e-18,0.6920512300946443,-1.3099099831491738e-18,-0.02213016971404943,5.883928843762717e-18,-0.02213016971404943,-1.6096590613147096e-17,0.6924049750594539,-1.5727594584526634e-17,-0.692404975059454,0.35687527272705977,0.8632960554942745,0.3568752727270598,1000.0,122.14285714285735,[1.50151229]
-2.184413267674115e-17,0.6936153722033552,6.557078913681327e-18,0.6936153722033552,-1.215492279309921e-18,-0.02126243190134586,6.557078913681327e-18,-0.02126243190134586,-1.578403545561026e-17,0.6939411902799533,-1.5384861631578528e-17,-0.6939411902799533,0.35768187467274093,0.8626281661649978,0.357681874672741,1000.0,122.14285714285735,[1.50151229]
-2.1635762571716594e-17,0.6939844373835722,7.212390006509618e-18,0.6939844373835722,-1.1503766214897466e-18,-0.021062083456936977,7.212390006509618e-18,-0.021062083456936977,-1.550620864891085e-17,0.6943039757124685,-1.506730854280872e-17,-0.6943039757124687,0.3578677231572765,0.8624739911698519,0.35786772315727644,1000.0,122.14285714285735,[1.50151229]
-2.1485996558730193e-17,0.6933252683658394,7.845190412943044e-18,0.6933252683658394,-1.1145630096886508e-18,-0.021433947148042424,7.845190412943044e-18,-0.021433947148042424,-1.525225758341217e-17,0.6936565013354296,-1.4774444078817852e-17,-0.6936565013354293,0.3575232942119271,0.8627596352355061,0.35752329421192697,1000.0,122.14285714285735,[1.50151229]
-2.13145253264704e-17,0.6916036565646542,8.471665782822583e-18,0.6916036565646542,-1.1026251390882855e-18,-0.022394429602881172,8.471665782822583e-18,-0.022394429602881172,-1.5027608563932568e-17,0.6919661323004465,-1.44897295304182e-17,-0.6919661323004462,0.3566296169993329,0.8634990634377193,0.35662961699933277,1000.0,122.14285714285735,[1.50151229]
-2.1179952966975373e-17,0.6885734214155438,9.07936952947115e-18,0.6885734214155438,-1.1091367048703029e-18,-0.024076782021601403,9.07936952947115e-18,-0.024076782021601403,-1.4833346851435714e-17,0.6889942293752711,-1.420763160312153e-17,-0.6889942293752712,0.3550514007111555,0.8647988238348229,0.35505140071115554,1000.0,122.14285714285735,[1.51055427]
-2.106057426097172e-17,0.6836426616803666,9.662163145562989e-18,0.6836426616803666,-1.1785934065451555e-18,-0.026801072414916846,9.662163145562989e-18,-0.026801072414916846,-1.4685751360376652e-17,0.6841678056968231,-1.3943313628377788e-17,-0.6841678056968231,0.3524607501307807,0.866915704803238,0.3524607501307808,1000.0,122.14285714285735,[1.51427023]
-2.1001970168933563e-17,0.6754519244102519,1.0197162886246973e-17,0.6754519244102519,-1.3261888976042174e-18,-0.031289269841899024,1.0197162886246973e-17,-0.031289269841899024,-1.4602186266174095e-17,0.6761762496544461,-1.3673967549023736e-17,-0.6761762496544462,0.3480952204059298,0.8704363475068665,0.3480952204059298,1000.0,122.14285714285735,[1.50044715]
-2.1028016432061633e-17,0.6604173224373763,1.0652989448190751e-17,0.6604173224373763,-1.6376587941773848e-18,-0.039360937836655875,1.0652989448190751e-17,-0.039360937836655875,-1.4673813489776287e-17,0.6615892405433559,-1.3433584490633822e-17,-0.661589240543356,0.3399162688755951,0.8768773348122233,0.3399162688755952,1000.0,122.14285714285735,[1.50320942]
-2.131669584839774e-17,0.6256658970342169,1.0862258284950848e-17,0.6256658970342169,-2.4505192559658943e-18,-0.05673293065746416,1.0862258284950848e-17,-0.05673293065746416,-1.5162180923427595e-17,0.6282327913541409,-1.3225118057786833e-17,-0.6282327913541409,0.3205982003455953,0.891310040261149,0.3205982003455952,1000.0,122.14285714285735,[1.45011296]
-2.3100864872670516e-17,0.4814270693163005,1.0186445934230736e-17,0.4814270693163005,-7.066134134452585e-18,-0.09509213500567613,1.0186445934230736e-17,-0.09509213500567613,-1.7555181348319002e-17,0.4907285779434691,-1.3542231471358871e-17,-0.4907285779434695,0.2530534497926616,0.9337707979456552,0.2530534497926614,1000.0,122.14285714285735,[1.39306582]
-2.2247849755226232e-17,0.47465923767156987,9.521011391475715e-18,0.47465923767156987,-7.001018476632411e-18,-0.0966770182410475,9.521011391475715e-18,-0.0966770182410475,-1.6556741261742995e-17,0.4844046219462975,-1.3301029970877625e-17,-0.484404621946298,0.39015133455149864,0.8340047195881862,0.3901513345514984,1000.0,135.00000000000023,[1.39348832]
-1.8182462185320014e-17,0.6174314156301841,9.014567579898286e-18,0.6174314156301841,-2.2258702364862928e-18,-0.05874028019646498,9.014567579898286e-18,-0.05874028019646498,-1.2764839454681511e-17,0.62021929470523,-1.1105120142819949e-17,-0.6202192947052297,0.4503980609787782,0.7708976412813271,0.4503980609787781,1000.0,135.00000000000023,[1.45292393]
-1.5642951530333215e-17,0.6534374480699008,7.603847027545744e-18,0.6534374480699008,-1.2654142836387213e-18,-0.04116876164897454,7.603847027545744e-18,-0.04116876164897454,-1.0854780158623062e-17,0.6547330490175478,-9.93404432874562e-18,-0.6547330490175479,0.46757123940792483,0.7501694956188727,0.467571239407925,1000.0,135.00000000000023,[1.48573251]
-1.3370415072409132e-17,0.6685864046007793,5.943499496346642e-18,0.6685864046007793,-7.922405034787879e-19,-0.03315753145996375,5.943499496346642e-18,-0.03315753145996375,-9.323476938885296e-18,0.6694080984791829,-8.74319935067767e-18,-0.6694080984791829,0.4746199475211295,0.7412636581069384,0.47461994752112957,1000.0,135.00000000000023,[1.49675151]
-1.1230280452052734e-17,0.6763631414423111,4.19553409953378e-18,0.6763631414423111,-4.916232165423163e-19,-0.028850130442675644,4.19553409953378e-18,-0.028850130442675644,-7.935428166351913e-18,0.6769781600083352,-7.586862649966074e-18,-0.6769781600083353,0.4782377403369004,0.7365984845456243,0.4782377403369004,1000.0,135.00000000000023,[1.49488289]
-9.129215226388442e-18,0.6805755063707559,2.4066001013423913e-18,0.6805755063707559,-2.702299799537235e-19,-0.026375812073461603,2.4066001013423913e-18,-0.026375812073461603,-6.6059834858566874e-18,0.6810864139992406,-6.420462395668522e-18,-0.6810864139992406,0.48026188810310483,0.7339598338269483,0.4802618881031047,1000.0,135.00000000000023,[1.5082396]
-7.07807200505295e-18,0.682660343461905,5.890253880316604e-19,0.682660343461905,-9.984400865760066e-20,-0.024994847297676797,5.890253880316604e-19,-0.024994847297676797,-5.316693461017235e-18,0.683117769441668,-5.2761152165724504e-18,-0.6831177694416681,0.481370508559424,0.7325058818729597,0.48137050855942415,1000.0,135.00000000000023,[1.5082396]
-5.044292959136172e-18,0.6832225096470271,-1.250101929729446e-18,0.6832225096470271,3.798413372843503e-20,-0.02438410629900665,-1.250101929729446e-18,-0.02438410629900665,-4.050193916414844e-18,0.6836575036729895,-4.1408724397564765e-18,-0.6836575036729895,0.4818482937789578,0.7318773418849733,0.4818482937789578,1000.0,135.00000000000023,[1.5082396]
-3.0213665228560893e-18,0.6824794834739573,-3.096690416615781e-18,0.6824794834739573,1.454249691317227e-19,-0.024416782736823718,-3.096690416615781e-18,-0.024416782736823718,-2.808655373976853e-18,0.6829161183059723,-3.031871738116513e-18,-0.6829161183059724,0.4818034624585468,0.7319363682219318,0.48180346245854677,1000.0,135.00000000000023,[1.5082396]
-1.020145305849398e-18,0.6803932858033004,-4.9678498900076966e-18,0.6803932858033004,2.4092793393464505e-19,-0.025092842230861077,-4.9678498900076966e-18,-0.025092842230861077,-1.5844810069575758e-18,0.6808558394384486,-1.951046180183892e-18,-0.6808558394384485,0.4812328877967148,0.7326867102695868,0.4812328877967148,1000.0,135.00000000000023,[1.5082396]
9.53944387065554e-19,0.6766583581634746,-6.847928851944773e-18,0.6766583581634746,3.0712885271848896e-19,-0.026539023512457304,-6.847928851944773e-18,-0.026539023512457304,-3.841823811390286e-19,0.6771785978908988,-9.154584853433997e-19,-0.6771785978908987,0.4800205859103076,0.7342754756933189,0.48002058591030755,1000.0,135.00000000000023,[1.5082396]
2.8911352072157406e-18,0.6705359680745662,-8.765890204394938e-18,0.6705359680745662,3.136404185005064e-19,-0.029078392908656013,-8.765890204394938e-18,-0.029078392908656013,7.889847205877792e-19,0.6711661771989454,3.6934176012204903e-20,-0.6711661771989454,0.47786792374057147,0.737078350597649,0.47786792374057147,1000.0,135.00000000000023,[1.49488289]
4.7491019770180484e-18,0.6603330087563047,-1.0716138070514274e-17,0.6603330087563047,2.4961002164400163e-19,-0.03345062610985262,-1.0716138070514274e-17,-0.03345062610985262,1.9024624693127603e-18,0.6611797235550219,8.465618964871164e-19,-0.6611797235550219,0.47406352638571697,0.7419754348369472,0.474063526385717,1000.0,135.00000000000023,[1.49675151]
6.500713172380739e-18,0.6416232643760282,-1.2766331688506557e-17,0.6416232643760282,1.7364175418713157e-20,-0.04152644386131506,-1.2766331688506557e-17,-0.04152644386131506,2.9139256874528017e-18,0.642965674766793,1.291061589507231e-18,-0.6429656747667928,0.46666318597207673,0.7512995020075427,0.46666318597207673,1000.0,135.00000000000023,[1.45144206]
7.843180984439999e-18,0.5988921800631497,-1.505585926339309e-17,0.5988921800631497,-7.108459312035699e-19,-0.0591623802775188,-1.505585926339309e-17,-0.0591623802775188,3.622601096729032e-18,0.60180730352904,7.273557382138903e-19,-0.6018073035290397,0.4484241023834539,0.7731957377037116,0.44842410238345404,1000.0,135.00000000000023,[1.45138535]
7.328767287660622e-18,0.4372354135398593,-1.8252258031046014e-17,0.4372354135398593,-5.262430412833756e-18,-0.09716387109856071,-1.8252258031046014e-17,-0.09716387109856071,2.827104810359236e-18,0.4479013559928454,-5.301656079874086e-18,-0.447901355992845,0.3796277214739363,0.8436620094427714,0.37962772147393636,1000.0,135.00000000000023,[1.20567098]
8.239301236179393e-18,0.4304620305457034,-1.909876158270828e-17,0.4304620305457034,-5.200027907422756e-18,-0.0956380836285677,-1.909876158270828e-17,-0.0956380836285677,4.108255377971166e-18,0.4409582778241897,-4.123091398968053e-18,-0.4409582778241896,0.5028792094178635,0.7030113807546288,0.5028792094178632,1000.0,147.8571428571427,[1.0913629]
1.1234621495907413e-17,0.5906383854814872,-1.7730993624433472e-17,0.5906383854814872,-5.534830914714819e-19,-0.0573438817458481,-1.7730993624433472e-17,-0.0573438817458481,6.863732964728211e-18,0.5934155569058328,3.557471428565604e-18,-0.5934155569058327,0.5595685086673327,0.6113641862389666,0.5595685086673328,1000.0,147.8571428571427,[1.29778432]
1.2328564547286341e-17,0.6346104778949047,-1.7264161838029983e-17,0.6346104778949047,3.136404185005064e-19,-0.04003602756571703,-1.7264161838029983e-17,-0.04003602756571703,8.148681945712984e-18,0.6358721114793777,6.0065449354630944e-18,-0.6358721114793778,0.5738498235782573,0.5842882507447893,0.5738498235782575,1000.0,147.8571428571427,[1.24855149]
1.2987317952233773e-17,0.6534208189290579,-1.7029304582610865e-17,0.6534208189290579,6.668928621749522e-19,-0.03202809947871626,-1.7029304582610865e-17,-0.03202809947871626,9.161230424816695e-18,0.6542052932880772,7.498902309524736e-18,-0.6542052932880772,0.5795885847320836,0.5728474010559187,0.5795885847320836,1000.0,147.8571428571427,[1.28311363]
1.3500646388049481e-17,0.6631957303130764,-1.6887881513282673e-17,0.6631957303130764,8.416198773257534e-19,-0.02760330519327375,-1.6887881513282673e-17,-0.02760330519327375,1.0078818569599318e-17,0.6637699293905139,8.679120751668995e-18,-0.6637699293905139,0.5825618247634013,0.5667834160035667,0.5825618247634015,1000.0,147.8571428571427,[1.28311363]
1.3942347600262995e-17,0.6685853031505403,-1.678569741067216e-17,0.6685853031505403,9.51773865138215e-19,-0.02494205241158582,-1.678569741067216e-17,-0.02494205241158582,1.0952453645353324e-17,0.6690503819350246,9.705265829905714e-18,-0.6690503819350246,0.584283446080384,0.5632279372268941,0.584283446080384,1000.0,147.8571428571427,[1.28311363]
1.433304154718404e-17,0.6713599632375531,-1.6710780489773845e-17,0.6713599632375531,1.004951652358024e-18,-0.023322321889402926,-1.6710780489773845e-17,-0.023322321889402926,1.180112771894293e-17,0.6717649372635054,1.0641616215870944e-17,-0.6717649372635053,0.5853024562337941,0.5611078946632061,0.5853024562337938,1000.0,147.8571428571427,[1.28311363]
1.4725906016032427e-17,0.6722713325785306,-1.6651972911305e-17,0.6722713325785306,1.0347963288589372e-18,-0.022423990381246314,-1.6651972911305e-17,-0.022423990381246314,1.2629181834222815e-17,0.6726452110522544,1.1521900139565135e-17,-0.6726452110522543,0.5858501270026661,0.5599636214808242,0.5858501270026661,1000.0,147.8571428571427,[1.28311363]
1.5062336914769994e-17,0.6715962052436307,-1.6603814456042163e-17,0.6715962052436307,1.0385947422317807e-18,-0.022113751821175705,-1.6603814456042163e-17,-0.022113751821175705,1.3447468600829672e-17,0.6719601780740088,1.2356084904693458e-17,-0.6719601780740087,0.5860195183828253,0.5596090136414199,0.5860195183828253,1000.0,147.8571428571427,[1.28362839]
1.53759773332705e-17,0.6693003132554037,-1.657485155407423e-17,0.6693003132554037,1.020145305849398e-18,-0.022375147544149845,-1.657485155407423e-17,-0.022375147544149845,1.4247305931054145e-17,0.669674216728854,1.3143312723640175e-17,-0.6696742167288539,0.5858204266166467,0.5600257632621735,0.5858204266166468,1000.0,147.8571428571427,[1.28311363]
1.565923044478826e-17,0.665027405427799,-1.656193016572554e-17,0.665027405427799,9.51773865138215e-19,-0.023303307305903503,-1.656193016572554e-17,-0.023303307305903503,1.5034120129714585e-17,0.6654355672049875,1.3875651493467296e-17,-0.6654355672049876,0.5851826732964142,0.5613577092615051,0.5851826732964142,1000.0,147.8571428571427,[1.28311363]
1.5903414161613913e-17,0.6579051422058377,-1.6564880718970517e-17,0.6579051422058377,8.486740735896056e-19,-0.025160309581181883,-1.6564880718970517e-17,-0.025160309581181883,1.5801399631028973e-17,0.6583860701132012,1.4527288626546384e-17,-0.6583860701132012,0.5839104104733965,0.5640011215251078,0.5839104104733965,1000.0,147.8571428571427,[1.28311363]
1.605860647941866e-17,0.6459321121333313,-1.660930858967074e-17,0.6459321121333313,6.793733632571523e-19,-0.028557031099502517,-1.660930858967074e-17,-0.028557031099502517,1.653449341198777e-17,0.6465630653774189,1.506758607371569e-17,-0.646563065377419,0.5815242109770073,0.5689105238041725,0.5815242109770075,1000.0,147.8571428571427,[1.23792492]
1.603798652110894e-17,0.6239009867425603,-1.6728246408407902e-17,0.6239009867425603,3.2232250620986298e-19,-0.035044821950981124,-1.6728246408407902e-17,-0.035044821950981124,1.7197587860789878e-17,0.6248844539624239,1.5323814556770478e-17,-0.6248844539624239,0.5766838521286637,0.5786808009499634,0.5766838521286637,1000.0,147.8571428571427,[1.23792492]
1.5534425433966258e-17,0.5738566123565263,-1.7051213288314944e-17,0.5738566123565263,-5.187547406340556e-19,-0.04945992463790909,-1.7051213288314944e-17,-0.04945992463790909,1.7664250075167794e-17,0.5759841106232846,1.4652270283316703e-17,-0.5759841106232846,0.564208225441902,0.6027753783022332,0.5642082254419019,1000.0,147.8571428571427,[1.24739289]
1.2771351020463528e-17,0.3966517415943079,-1.810398425188466e-17,0.3966517415943079,-5.173439013812851e-18,-0.07958616086967915,-1.810398425188466e-17,-0.07958616086967915,1.6994644060583668e-17,0.40455724083468336,9.494703987972113e-18,-0.4045572408346835,0.5130163862916511,0.6882066366960659,0.5130163862916512,1000.0,147.8571428571427,[1.06284091]
1.2446857992326326e-17,0.39121151375697777,-1.7494203247922818e-17,0.39121151375697777,-5.1880900368223904e-18,-0.07526009020991256,-1.7494203247922818e-17,-0.07526009020991256,1.724099829933666e-17,0.3983849014137337,9.949715255190849e-18,-0.3983849014137332,0.6112892812682869,0.5026438393266176,0.6112892812682871,1000.0,160.7142857142859,[0.9819511]
1.5017841215259542e-17,0.5672109655338694,-1.561185202084306e-17,0.5672109655338694,-5.366615465346035e-19,-0.044200109243671695,-1.561185202084306e-17,-0.044200109243671695,1.7910061683438952e-17,0.5689305134012564,1.5435689666430416e-17,-0.5689305134012566,0.6472651800232954,0.4026109455278416,0.6472651800232956,1000.0,160.7142857142859,[0.79516018]
1.5309776414486657e-17,0.6182324507123464,-1.443475084812295e-17,0.6182324507123464,2.9193519922711495e-19,-0.030591565727083325,-1.443475084812295e-17,-0.030591565727083325,1.7483011494234975e-17,0.6189888585487047,1.6055831165904104e-17,-0.6189888585487048,0.6550686025769163,0.37652390606155717,0.6550686025769163,1000.0,160.7142857142859,[0.79929709]
1.5089468438861733e-17,0.6403260503156568,-1.3450012181213273e-17,0.6403260503156568,6.327071418193607e-19,-0.02418114693814243,-1.3450012181213273e-17,-0.02418114693814243,1.6870924310725336e-17,0.6407824736836152,1.5850715803812675e-17,-0.640782473683615,0.6581377285697596,0.36566304224801666,0.6581377285697597,1000.0,160.7142857142859,[0.79929709]
1.4706371318686374e-17,0.6519374055190159,-1.2521062710717233e-17,0.6519374055190159,7.906126120332835e-19,-0.0205239695422085,-1.2521062710717233e-17,-0.0205239695422085,1.620348881806855e-17,0.6522603882197928,1.541430654409582e-17,-0.6522603882197928,0.6597471806950237,0.3598156682663159,0.6597471806950237,1000.0,160.7142857142859,[0.79659688]
1.4203895492507362e-17,0.6584532938661095,-1.1632912269574146e-17,0.6584532938661095,8.861155768362058e-19,-0.018211946704011606,-1.1632912269574146e-17,-0.018211946704011606,1.5511092323247362e-17,0.6587051048882794,1.4867842776262567e-17,-0.6587051048882795,0.6607141496148214,0.35624938596091243,0.6607141496148214,1000.0,160.7142857142859,[0.79659688]
1.3671032359345604e-17,0.6619370562533282,-1.0758056275236012e-17,0.6619370562533282,9.246423410464756e-19,-0.01668372916879846,-1.0758056275236012e-17,-0.01668372916879846,1.48035021749348e-17,0.6621472746000693,1.4262303996443855e-17,-0.6621472746000693,0.6613299767521037,0.35395666923809155,0.6613299767521038,1000.0,160.7142857142859,[0.79659688]
1.3093673526673391e-17,0.6632712991481868,-9.898258276768793e-18,0.6632712991481868,9.300686458648235e-19,-0.015685556737660644,-9.898258276768793e-18,-0.015685556737660644,1.4078547851203527e-17,0.6634567453601583,1.3609833835240604e-17,-0.6634567453601582,0.6617182948859509,0.35250219350588385,0.6617182948859508,1000.0,160.7142857142859,[0.79659688]
1.2493524213764118e-17,0.6627891420741333,-9.051652981891183e-18,0.6627891420741333,9.18673405746293e-19,-0.015103975544353332,-9.051652981891183e-18,-0.015103975544353332,1.3345996700726567e-17,0.6629612182689195,1.2931987814891049e-17,-0.6629612182689195,0.6619323632018855,0.35169744538727304,0.6619323632018855,1000.0,160.7142857142859,[0.79719109]
1.184887920134439e-17,0.6604668562698476,-8.207591267397173e-18,0.6604668562698476,8.85572946354371e-19,-0.014909308621043723,-8.207591267397173e-18,-0.014909308621043723,1.2607476614949423e-17,0.6606351154113239,1.2235394046036545e-17,-0.6606351154113238,0.6619856924046197,0.3514966373994952,0.6619856924046197,1000.0,160.7142857142859,[0.79719109]
1.1148885879777516e-17,0.6559163071446432,-7.37889277842011e-18,0.6559163071446432,8.17201505643188e-19,-0.015146178683074144,-7.37889277842011e-18,-0.015146178683074144,1.1860274441462921e-17,0.6560911588392009,1.1519027411219646e-17,-0.6560911588392009,0.6618569889698926,0.3519810396930714,0.6618569889698925,1000.0,160.7142857142859,[0.79719109]
1.0409823163518538e-17,0.648171320309652,-6.558961163165192e-18,0.648171320309652,7.005359520487089e-19,-0.0159637098102234,-6.558961163165192e-18,-0.0159637098102234,1.1100863082135138e-17,0.6483678743605843,1.0777664634405408e-17,-0.6483678743605844,0.661473832355005,0.3534186444136267,0.661473832355005,1000.0,160.7142857142859,[0.79659688]
9.581769048238654e-18,0.6350086788891507,-5.767008932129878e-18,0.6350086788891507,5.016618804562598e-19,-0.017722927652685315,-5.767008932129878e-18,-0.017722927652685315,1.0319475188293046e-17,0.6352559519037398,9.998458669365986e-18,-0.6352559519037398,0.6606509329310344,0.3564837859352209,0.6606509329310344,1000.0,160.7142857142859,[0.79659688]
8.555112176607239e-18,0.6106559535961176,-5.014990913117094e-18,0.6106559535961176,1.4759549105906183e-19,-0.02134848603894695,-5.014990913117094e-18,-0.02134848603894695,9.494405540663253e-18,0.6110290103739253,9.146950726991318e-18,-0.6110290103739252,0.6588591684103973,0.36305535721583737,0.6588591684103973,1000.0,160.7142857142859,[0.79929709]
6.948925950376271e-18,0.5554018660670685,-4.391593275501711e-18,0.5554018660670685,-7.265822151767787e-19,-0.029698397082212624,-4.391593275501711e-18,-0.029698397082212624,8.55077113275256e-18,0.5561953142737136,8.076051312276266e-18,-0.5561953142737136,0.6540040257148941,0.38020713919839094,0.6540040257148942,1000.0,160.7142857142859,[0.8055269]
2.846639507705288e-18,0.367587566304788,-4.179984344788702e-18,0.367587566304788,-5.3834370102829134e-18,-0.04599312967888403,-4.179984344788702e-18,-0.04599312967888403,6.7275327137876795e-18,0.37045375808531816,5.497823880547597e-18,-0.3704537580853184,0.6332673161635692,0.444910117392244,0.6332673161635693,1000.0,160.7142857142859,[0.9201686]
1.6680461011601328e-18,0.36454646443394556,-3.3803165865898007e-18,0.36454646443394556,-5.41192511057924e-18,-0.03973127211033202,-3.3803165865898007e-18,-0.03973127211033202,6.111375801664279e-18,0.36670519319310846,5.3452030545704214e-18,-0.3667051931931088,0.6899463091731121,0.21897073073084541,0.6899463091731121,1000.0,173.57142857142813,[0.46301511]
3.70399566900425e-18,0.5516472866329519,-2.550465007838839e-18,0.5516472866329519,-8.242557019070403e-19,-0.02206196886939103,-2.550465007838839e-18,-0.02206196886939103,6.4217604372737775e-18,0.5520882713116556,6.222403264959477e-18,-0.5520882713116556,0.6989356450957905,0.1515847222811783,0.6989356450957906,1000.0,173.57142857142813,[0.33506582]
3.1998919513797343e-18,0.6073993761851966,-2.111375204819153e-18,0.6073993761851966,-2.0619958309721874e-20,-0.014852449582727868,-2.111375204819153e-18,-0.014852449582727868,5.878858640198073e-18,0.6075809390104114,5.7746562397866155e-18,-0.6075809390104115,0.7005153181716034,0.13622253122693692,0.7005153181716034,1000.0,173.57142857142813,[0.32781176]
2.133623054574379e-18,0.6317427479649841,-1.7600558822362436e-18,0.6317427479649841,2.7552062715161267e-19,-0.011313265784057542,-1.7600558822362436e-18,-0.011313265784057542,5.217663398082386e-18,0.6318440389756402,5.1532103134971866e-18,-0.6318440389756403,0.7011304323241393,0.12973909872482786,0.7011304323241395,1000.0,173.57142857142813,[0.32651484]
8.573561612989622e-19,0.6446608881399462,-1.4428544511986964e-18,0.6446608881399462,4.1497666098315276e-19,-0.009151774075190912,-1.4428544511986964e-18,-0.009151774075190912,4.528522686152208e-18,0.6447258453529744,4.486830128754022e-18,-0.6447258453529745,0.7014660312657687,0.12605877185068345,0.7014660312657688,1000.0,173.57142857142813,[0.32651484]
-5.366615465346035e-19,0.6520258298060287,-1.144000713328188e-18,0.6520258298060287,4.658482686551639e-19,-0.007650252182139337,-1.144000713328188e-18,-0.007650252182139337,3.8111651891666206e-18,0.6520707086602581,3.783718881819798e-18,-0.6520707086602582,0.7016834298919636,0.12361524351834366,0.7016834298919636,1000.0,173.57142857142813,[0.32651484]
-1.9469581688232127e-18,0.6560951766537496,-8.536594911414627e-19,0.6560951766537496,4.6829010582342045e-19,-0.006519175564823222,-8.536594911414627e-19,-0.006519175564823222,3.0919084854946115e-18,0.6561275641812038,3.0744530754678082e-18,-0.6561275641812037,0.7018393292391597,0.12183231043632264,0.7018393292391597,1000.0,173.57142857142813,[0.32651484]
-3.429424645195849e-18,0.6578408191502911,-5.682019432912505e-19,0.6578408191502911,4.346470159496637e-19,-0.005621382491422153,-5.682019432912505e-19,-0.005621382491422153,2.371023890377098e-18,0.6578648366354908,2.3608822816379893e-18,-0.6578648366354908,0.7019584831614564,0.120451549742354,0.7019584831614564,1000.0,173.57142857142813,[0.33771739]
-4.933596340841876e-18,0.6576380725382835,-2.8749241215709264e-19,0.6576380725382835,3.9110091978242217e-19,-0.004885720018051603,-2.8749241215709264e-19,-0.004885720018051603,1.6376587941773848e-18,0.6576562207658065,1.6330069686734344e-18,-0.6576562207658067,0.7020530928208645,0.11934366225869114,0.7020530928208647,1000.0,173.57142857142813,[0.33771739]
-6.495286867562391e-18,0.6554784968732027,-6.7150522127054794e-21,0.6554784968732027,3.0848542892307593e-19,-0.004275151482253654,-6.7150522127054794e-21,-0.004275151482253654,9.051076437004233e-19,0.6554924383876214,9.047236145942644e-19,-0.6554924383876214,0.7021293416199141,0.11844313096491477,0.702129341619914,1000.0,173.57142857142813,[0.32651484]
-8.08356628789281e-18,0.6509671996686641,2.6644852378343734e-19,0.6509671996686641,2.0809878978364051e-19,-0.0037749383694221056,2.6644852378343734e-19,-0.0037749383694221056,1.5980467690034452e-19,0.6509781449512382,1.6262831836103886e-19,-0.650978144951238,0.7021897264122682,0.11772500262105559,0.7021897264122681,1000.0,173.57142857142813,[0.32651484]
-9.722852973515698e-18,0.6431025224878365,5.385946676261399e-19,0.6431025224878365,5.439870580393731e-20,-0.003391701795160028,5.385946676261399e-19,-0.003391701795160028,-5.897036761339539e-19,0.6431114662881432,-5.842677853595042e-19,-0.6431114662881433,0.7022333315771793,0.11720365200807666,0.7022333315771795,1000.0,173.57142857142813,[0.32651484]
-1.1486402039478753e-17,0.6295698589183185,8.081124450724554e-19,0.6295698589183185,-1.8503699430566208e-19,-0.0031651017000435713,8.081124450724554e-19,-0.0031651017000435713,-1.359018041755222e-18,0.6295778149896989,-1.3511679526252426e-18,-0.6295778149896989,0.7022537438048811,0.11695879028126267,0.7022537438048813,1000.0,173.57142857142813,[0.32651484]
-1.3446925970347837e-17,0.6043595929799837,1.0730517778282896e-18,0.6043595929799837,-5.85633947520193e-19,-0.0032099515415550768,1.0730517778282896e-18,-0.0032099515415550768,-2.154649985745477e-18,0.6043681174713229,-2.1435425749382198e-18,-0.6043681174713228,0.702230234969618,0.11724075310671676,0.7022302349696179,1000.0,173.57142857142813,[0.32781176]
-1.6016281301835548e-17,0.5470365867912848,1.3174389810846314e-18,0.5470365867912848,-1.4887067269137358e-18,-0.003839968548249289,1.3174389810846314e-18,-0.003839968548249289,-3.044292660713609e-18,0.5470500641136153,-3.026435957695117e-18,-0.5470500641136152,0.7020875985952761,0.11893699087095086,0.7020875985952761,1000.0,173.57142857142813,[0.33842344]
-2.1185921902275556e-17,0.3556591048712069,1.5476330058004823e-18,0.3556591048712069,-6.192838202749727e-18,-0.0030744239934327533,1.5476330058004823e-18,-0.0030744239934327533,-4.702028782718881e-18,0.355672392744615,-4.6765026846652945e-18,-0.35567239274461504,0.7019500399298921,0.1205499186430497,0.7019500399298922,1000.0,173.57142857142813,[0.26742191]
-2.1752970755792907e-17,0.3556147051965817,2.1245339940036465e-18,0.3556147051965817,-6.29247872497664e-18,0.003887045198294235,2.1245339940036465e-18,0.003887045198294235,-5.020145902694524e-18,0.35563594822855765,-5.068599388480638e-18,-0.35563594822855765,0.7017533455901634,0.12281890695664786,0.7017533455901636,1000.0,173.57142857142813,[0.26742191]
-1.7725567319615125e-17,0.5469036616197624,2.4270504876265398e-18,0.5469036616197624,-1.789459671470666e-18,0.004672589311420978,2.4270504876265398e-18,0.004672589311420978,-4.000000596845126e-18,0.5469236218924695,-4.0424310665310755e-18,-0.5469236218924696,0.7019586097316985,0.12045007450010975,0.7019586097316985,1000.0,173.57142857142813,[0.33842344]
-1.6297906521907802e-17,0.6041385687154451,2.7476603163781117e-18,0.6041385687154451,-1.1022859950371387e-18,0.004061932282953734,2.7476603163781117e-18,0.004061932282953734,-3.74252243321452e-18,0.6041522237842197,-3.7800417280376856e-18,-0.6041522237842196,0.7021124666234129,0.11864302939479651,0.7021124666234129,1000.0,173.57142857142813,[0.32781176]
-1.5476363972409936e-17,0.629261233799016,3.08790658569108e-18,0.629261233799016,-9.22200503878219e-19,0.004035913456219817,3.08790658569108e-18,0.004035913456219817,-3.5863805120665604e-18,0.629274176301305,-3.62646483015921e-18,-0.6292741763013049,0.7021384201192049,0.11833544686616267,0.7021384201192048,1000.0,173.57142857142813,[0.32651484]
-1.4870788354682315e-17,0.6427068645801225,3.4280256759848686e-18,0.6427068645801225,-9.034119234446896e-19,0.004280832263863603,3.4280256759848686e-18,0.004280832263863603,-3.454928277842084e-18,0.6427211209407108,-3.501128675607842e-18,-0.6427211209407107,0.7021177403360566,0.1185805945793017,0.7021177403360566,1000.0,173.57142857142813,[0.32651484]
-1.435610334266202e-17,0.6504851447862113,3.774859818491362e-18,0.6504851447862113,-9.563862242338106e-19,0.004681872020667564,3.774859818491362e-18,0.004681872020667564,-3.3393479852112744e-18,0.650501993473622,-3.3942304579643585e-18,-0.650501993473622,0.7020726245163509,0.11911364241532478,0.702072624516351,1000.0,173.57142857142813,[0.32651484]
-1.3897580585511626e-17,0.6549107464367011,4.123686432298343e-18,0.6549107464367011,-1.0492438654377884e-18,0.005199366058886845,4.123686432298343e-18,0.005199366058886845,-3.236655166524041e-18,0.6549313851127396,-3.3027351600277586e-18,-0.6549313851127395,0.70200997833053,0.11984982540136735,0.70200997833053,1000.0,173.57142857142813,[0.32651484]
-1.3481383005944346e-17,0.6569853913929846,4.479635071179405e-18,0.6569853913929846,-1.1818491894361642e-18,0.005826686862304424,4.479635071179405e-18,0.005826686862304424,-3.1393886526551557e-18,0.6570112288108818,-3.219670254713213e-18,-0.6570112288108817,0.7019308850287888,0.12077278371140988,0.7019308850287885,1000.0,173.57142857142813,[0.33771739]
-1.3128673192751735e-17,0.6571040333572231,4.833989733020078e-18,0.6571040333572231,-1.3436887306433892e-18,0.006578568093950444,4.833989733020078e-18,0.006578568093950444,-3.0402907609100775e-18,0.6571369630545045,-3.1378548240250998e-18,-0.6571369630545046,0.7018328555727305,0.12190687296971578,0.7018328555727305,1000.0,173.57142857142813,[0.33771739]
-1.2784374152027563e-17,0.6552751712796001,5.193287419406214e-18,0.6552751712796001,-1.5234350777511621e-18,0.007492043632101751,5.193287419406214e-18,0.007492043632101751,-2.951977649991466e-18,0.6553179997629353,-3.0720272823575595e-18,-0.655317999762935,0.7017095843871849,0.12331795634995237,0.7017095843871848,1000.0,173.57142857142813,[0.32651484]
-1.249542342045054e-17,0.6511235467432948,5.556315690354965e-18,0.6511235467432948,-1.7482197548512223e-18,0.008638266051657946,5.556315690354965e-18,0.008638266051657946,-2.8712613658185416e-18,0.6511808448994387,-3.02032463497154e-18,-0.6511808448994388,0.7015485702298345,0.12513675406110716,0.7015485702298346,1000.0,173.57142857142813,[0.32651484]
-1.2243914192120115e-17,0.6436773240258676,5.932986030761093e-18,0.6436773240258676,-2.01383737570935e-18,0.01015439960673068,5.932986030761093e-18,0.01015439960673068,-2.796174872894653e-18,0.6437574149448492,-2.985667301022223e-18,-0.6437574149448495,0.7013244104303591,0.1276250080079045,0.7013244104303593,1000.0,173.57142857142813,[0.32651484]
-1.2125349431839214e-17,0.6306789523717843,6.315727049682749e-18,0.6306789523717843,-2.348436896570725e-18,0.012329975378722139,6.315727049682749e-18,0.012329975378722139,-2.742793599244156e-18,0.630799468339671,-2.9926330511526133e-18,-0.6307994683396712,0.7009788773675935,0.1313667650851491,0.7009788773675936,1000.0,173.57142857142813,[0.32651484]
-1.2194806133514067e-17,0.6062564506704886,6.746906317709437e-18,0.6062564506704886,-2.856746000429461e-18,0.015882729835630816,6.746906317709437e-18,0.015882729835630816,-2.7214953528321406e-18,0.6064644631687914,-3.07916349400945e-18,-0.6064644631687913,0.7003462258236004,0.13795045469035921,0.7003462258236004,1000.0,173.57142857142813,[0.32781176]
-1.282846287867664e-17,0.5504263874532076,7.255817402258958e-18,0.5504263874532076,-3.874076410654341e-18,0.023105344074392527,7.255817402258958e-18,0.023105344074392527,-2.813674705933825e-18,0.5509111225321056,-3.442668065774528e-18,-0.5509111225321055,0.6987219419285005,0.15354248837155793,0.6987219419285007,1000.0,173.57142857142813,[0.33193126]
-1.5997560550212248e-17,0.3632488217617898,8.159449769336893e-18,0.3632488217617898,-8.685784379514078e-18,0.04078739982047958,8.159449769336893e-18,0.04078739982047958,-3.757716086705894e-18,0.36553155608708304,-5.69001385821318e-18,-0.36553155608708293,0.6894383629810698,0.22214744495484406,0.6894383629810698,1000.0,173.57142857142813,[0.46301511]
-1.5807232908708697e-17,0.3662153750978798,8.35107887613672e-18,0.3662153750978798,-8.717019546624693e-18,0.047078321035615406,8.35107887613672e-18,0.047078321035615406,-4.099301975020892e-18,0.3692290200805097,-6.4247040466333466e-18,-0.36922902008050956,0.6322010718909805,0.44793259470571056,0.6322010718909807,1000.0,160.7142857142859,[0.91563941]
-1.249433815948687e-17,0.5539587751428927,7.265139624364854e-18,0.5539587751428927,-3.959778112379123e-18,0.03083387356692679,7.265139624364854e-18,0.03083387356692679,-3.575833132075897e-18,0.5548162329248808,-4.388425787115533e-18,-0.5548162329248809,0.6534156972596267,0.38222487248926057,0.6534156972596268,1000.0,160.7142857142859,[0.8055269]
-1.1706438699862759e-17,0.609143500151413,6.5960931974651206e-18,0.609143500151413,-2.9972872952246707e-18,0.022533106368407725,6.5960931974651206e-18,0.022533106368407725,-3.913654521423166e-18,0.6095601239084824,-4.408190455600935e-18,-0.6095601239084824,0.658336953859597,0.3649450785607792,0.6583369538595971,1000.0,160.7142857142859,[0.80059401]
-1.1472836277432884e-17,0.633428490862926,6.0480576073151825e-18,0.633428490862926,-2.5539073199579784e-18,0.01895590945573802,6.0480576073151825e-18,0.01895590945573802,-4.389337967561585e-18,0.6337120635905379,-4.7583549792831326e-18,-0.633712063590538,0.6601418033919155,0.3583651752457805,0.6601418033919156,1000.0,160.7142857142859,[0.79659688]
-1.1427933605061055e-17,0.6465250494077085,5.547887960683968e-18,0.6465250494077085,-2.2807946155695076e-18,0.017244355620840833,5.547887960683968e-18,0.017244355620840833,-4.890558960751354e-18,0.6467549824411234,-5.18926910520051e-18,-0.6467549824411233,0.660962102226602,0.35532829726941556,0.660962102226602,1000.0,160.7142857142859,[0.79659688]
-1.1499425171042788e-17,0.6542056107737066,5.074069806826856e-18,0.6542056107737066,-2.0705592182636426e-18,0.016473814658412356,5.074069806826856e-18,0.016473814658412356,-5.423727323559146e-18,0.6544129947802063,-5.6847666841227085e-18,-0.6544129947802062,0.6613357299833205,0.3539351699038355,0.6613357299833205,1000.0,160.7142857142859,[0.79659688]
-1.1617718616082772e-17,0.658693390543817,4.604249313472636e-18,0.658693390543817,-1.9232011280403835e-18,0.01628327014261401,4.604249313472636e-18,0.01628327014261401,-5.9647977427586575e-18,0.6588946255909565,-6.194336627063895e-18,-0.6588946255909565,0.6614509228094432,0.35350438954710567,0.6614509228094431,1000.0,160.7142857142859,[0.79659688]
-1.1786748011174307e-17,0.6609545576799339,4.152178771895308e-18,0.6609545576799339,-1.7874078499612283e-18,0.01652360360415538,4.152178771895308e-18,0.01652360360415538,-6.519230437573351e-18,0.6611610672097566,-6.7277275548371656e-18,-0.6611610672097566,0.6613811885613506,0.3537652425470176,0.6613811885613506,1000.0,160.7142857142859,[0.79659688]
-1.19644594939752e-17,0.6613772383848863,3.712588731400181e-18,0.6613772383848863,-1.6975007620022273e-18,0.01715019765751325,3.712588731400181e-18,0.01715019765751325,-7.072136984157883e-18,0.661599562222732,-7.268634999782695e-18,-0.661599562222732,0.6611480558278214,0.3546357237366021,0.6611480558278215,1000.0,160.7142857142859,[0.79659688]
-1.2207422292216725e-17,0.6599851508319585,3.2771320090284047e-18,0.6599851508319585,-1.6180223536159885e-18,0.01819273566112991,3.2771320090284047e-18,0.01819273566112991,-7.644069512011747e-18,0.660235847973676,-7.82709816021625e-18,-0.6602358479736758,0.660737633060234,0.3561622671141897,0.6607376330602339,1000.0,160.7142857142859,[0.79659688]
-1.2468631040409947e-17,0.6564451634243387,2.8507516293254424e-18,0.6564451634243387,-1.56999955597361e-18,0.019764679810981695,2.8507516293254424e-18,0.019764679810981695,-8.218715192274786e-18,0.6567426399673142,-8.392426480168097e-18,-0.6567426399673142,0.6600955206676407,0.35853564284326345,0.6600955206676407,1000.0,160.7142857142859,[0.79659688]
-1.2788511709451554e-17,0.6498746571097748,2.4479502397784577e-18,0.6498746571097748,-1.576138063299366e-18,0.02211980182683121,2.4479502397784577e-18,0.02211980182683121,-8.814693033354954e-18,0.6502509942986674,-8.99098400706929e-18,-0.6502509942986675,0.6590955318097644,0.36219630022517835,0.6590955318097644,1000.0,160.7142857142859,[0.79929709]
-1.3196095030119707e-17,0.6382102797612319,2.0832813594822847e-18,0.6382102797612319,-1.6665199529299725e-18,0.025819468737362208,2.0832813594822847e-18,0.025819468737362208,-9.437700655311518e-18,0.6387323431287862,-9.609744301922434e-18,-0.6387323431287862,0.6574402994624501,0.3681636936003448,0.6574402994624501,1000.0,160.7142857142859,[0.79929709]
-1.379013975010834e-17,0.6160652491418718,1.7789631630876744e-18,0.6160652491418718,-1.9065406765278e-18,0.03227180133310065,1.7789631630876744e-18,0.03227180133310065,-1.0116599216897065e-17,0.6169099288887476,-1.0290972773143842e-17,-0.6169099288887476,0.6542953741106294,0.3792032790402312,0.6542953741106293,1000.0,160.7142857142859,[0.79929709]
-1.4885575035312312e-17,0.5649939471579081,1.6607439058088796e-18,0.5649939471579081,-2.6663420515144018e-18,0.04592177635722195,1.6607439058088796e-18,0.04592177635722195,-1.0975328911603171e-17,0.5668570982786366,-1.1258262205795289e-17,-0.5668570982786364,0.6463130361386307,0.405658623271502,0.6463130361386304,1000.0,160.7142857142859,[0.79892416]
-1.8260329659463306e-17,0.38894643866740586,2.2464138873845067e-18,0.38894643866740586,-7.225735324922242e-18,0.07702305591513114,2.2464138873845067e-18,0.07702305591513114,-1.2939973442693688e-17,0.3964995375716892,-1.3730090149990846e-17,-0.39649953757168965,0.6093447758024606,0.5073439547333723,0.6093447758024605,1000.0,160.7142857142859,[0.9828613]
-1.8046872393671547e-17,0.3943421982061175,2.4488828859191112e-18,0.3943421982061175,-7.068185955962023e-18,0.08140229501444061,2.4488828859191112e-18,0.08140229501444061,-1.3927662662848342e-17,0.40265630867981056,-1.5111285758703862e-17,-0.40265630867981045,0.5103073595946643,0.6922230836132557,0.5103073595946642,1000.0,147.85714285714295,[1.06284091]
-1.4778066371098795e-17,0.5715103180864962,1.869841050893083e-18,0.5715103180864962,-2.1894037723867394e-18,0.05135020141820041,1.869841050893083e-18,0.05135020141820041,-1.344422977514122e-17,0.5738125886254308,-1.3834442956769934e-17,-0.5738125886254308,0.5626559384268613,0.6056703640644606,0.5626559384268612,1000.0,147.85714285714295,[1.24422755]
-1.3741031691502291e-17,0.6215187926859893,2.028643133192225e-18,0.6215187926859893,-1.1293072973122553e-18,0.0370080201523321,2.028643133192225e-18,0.0370080201523321,-1.4092384928490314e-17,0.622619629643529,-1.435741553774059e-17,-0.6226196296435289,0.5753045956423197,0.5814200241354389,0.5753045956423197,1000.0,147.85714285714295,[1.23792492]
-1.3206065865223422e-17,0.6435151035512214,2.381403817992508e-18,0.6435151035512214,-5.520417292541082e-19,0.030592475877176062,2.381403817992508e-18,0.030592475877176062,-1.4948808443648622e-17,0.6442418707898722,-1.5171614084178126e-17,-0.6442418707898722,0.5801846012990033,0.571639446531669,0.5801846012990034,1000.0,147.85714285714295,[1.23792492]
-1.282527492459586e-17,0.6554544421463232,2.814037166138488e-18,0.6554544421463232,-1.5481078074720876e-19,0.027267459617764885,2.814037166138488e-18,0.027267459617764885,-1.587312859784651e-17,0.6560213716666203,-1.6103376278794444e-17,-0.6560213716666201,0.5825701505787056,0.5667663004355576,0.5825701505787053,1000.0,147.85714285714295,[1.28311363]
-1.2542700101180395e-17,0.6625441312825976,3.2833107897102344e-18,0.6625441312825976,1.642305067678095e-19,0.025481658654778968,3.2833107897102344e-18,0.025481658654778968,-1.6824563318933577e-17,0.663033966569444,-1.7070843129025417e-17,-0.6630339665694439,0.583823881404604,0.5641802469099092,0.583823881404604,1000.0,147.85714285714295,[1.28311363]
-1.2298889442811002e-17,0.6667855673451127,3.773178935787866e-18,0.6667855673451127,4.442108781920018e-19,0.02462420731724573,3.773178935787866e-18,0.02462420731724573,-1.781003114555322e-17,0.6672400950225841,-1.8087807787764254e-17,-0.6672400950225841,0.5844329414839834,0.562917643902514,0.5844329414839833,1000.0,147.85714285714295,[1.28311363]
-1.2072816018316584e-17,0.6690510735303766,4.281346023075184e-18,0.6690510735303766,6.807214608604606e-19,0.024433028024007677,4.281346023075184e-18,0.024433028024007677,-1.8795091999311488e-17,0.6694970588811958,-1.910456771449555e-17,-0.6694970588811959,0.584596186673387,0.5625785252334728,0.5845961866733869,1000.0,147.85714285714295,[1.28311363]
-1.1903447479173901e-17,0.6696968861600856,4.8006115994362794e-18,0.6696968861600856,9.009658469757937e-19,0.0248129868343003,4.8006115994362794e-18,0.0248129868343003,-1.9801374792070263e-17,0.6701564023779477,-2.014089574900719e-17,-0.6701564023779479,0.5843847021163131,0.5630177971120061,0.5843847021163132,1000.0,147.85714285714295,[1.28311363]
-1.1743134086196837e-17,0.6687572612003805,5.336824839928273e-18,0.6687572612003805,1.0941507771102563e-18,0.02578053529945424,5.336824839928273e-18,0.02578053529945424,-2.082419933592372e-17,0.6692539954371288,-2.122423379652024e-17,-0.6692539954371287,0.5837881891155675,0.5642541098639269,0.5837881891155676,1000.0,147.85714285714295,[1.28311363]
-1.161741338643674e-17,0.6659553965359084,5.8919813953271324e-18,0.6659553965359084,1.2570162290722001e-18,0.027468970909830547,5.8919813953271324e-18,0.027468970909830547,-2.1859266980023575e-17,0.6665216684685833,-2.2324316173246488e-17,-0.6665216684685833,0.5827114949982863,0.5664756192403381,0.5827114949982862,1000.0,147.85714285714295,[1.28311363]
-1.1559894555362252e-17,0.6605396676738929,6.468307958293668e-18,0.6605396676738929,1.3763525420694597e-18,0.030198408870735674,6.468307958293668e-18,0.030198408870735674,-2.29222885725392e-17,0.6612296094920895,-2.349787460505981e-17,-0.6612296094920896,0.5809184572882586,0.5701469038446666,0.5809184572882589,1000.0,147.85714285714295,[1.28311363]
-1.1538596308950237e-17,0.6507396555351598,7.084896219257119e-18,0.6507396555351598,1.4033144941356257e-18,0.03469086545977833,7.084896219257119e-18,0.03469086545977833,-2.402698249033948e-17,0.6516636827631005,-2.4721520770675136e-17,-0.6516636827631005,0.5778485285622953,0.5763524582031212,0.5778485285622953,1000.0,147.85714285714295,[1.23792492]
-1.1672727781178773e-17,0.6319052962285624,7.79382386692139e-18,0.6319052962285624,1.2828717236714998e-18,0.04276594923646392,7.79382386692139e-18,0.04276594923646392,-2.5231901953854905e-17,0.6333507952278917,-2.624408917203531e-17,-0.6333507952278917,0.5719554429080886,0.5879914477742211,0.5719554429080886,1000.0,147.85714285714295,[1.25066073]
-1.2239912292316583e-17,0.5879103641427785,8.741227013100451e-18,0.5879103641427785,6.360837447785904e-19,0.06014054876736585,8.741227013100451e-18,0.06014054876736585,-2.670412627988291e-17,0.5909784106653426,-2.823441040969027e-17,-0.5909784106653427,0.5573320503086674,0.6154364072733057,0.5573320503086673,1000.0,147.85714285714295,[1.29755514]
-1.469353471635047e-17,0.42771273241541297,1.057581933900263e-17,0.42771273241541297,-3.796158064903377e-18,0.09850153696276558,1.057581933900263e-17,0.09850153696276558,-2.964807469446347e-17,0.4389085716345552,-3.339088404356786e-17,-0.4389085716345553,0.49902292008258464,0.7084858858611798,0.49902292008258475,1000.0,147.85714285714295,[1.0913629]
-1.3947316060612295e-17,0.43446723995101894,1.0547793322475991e-17,0.43446723995101894,-3.757908974884984e-18,0.10010301517988018,1.0547793322475991e-17,0.10010301517988018,-2.948157192255298e-17,0.44585019483988064,-3.282435947034931e-17,-0.4458501948398809,0.3749737340489622,0.8478144829777067,0.3749737340489622,1000.0,134.9999999999996,[1.19792395]
-1.0603559202736114e-17,0.5961164270836229,8.513288826237306e-18,0.5961164270836229,7.334816769672952e-19,0.062197565874821746,8.513288826237306e-18,0.062197565874821746,-2.560484170969842e-17,0.5993524270741687,-2.7313612906928857e-17,-0.5993524270741686,0.4454131134624776,0.776668730355049,0.4454131134624777,1000.0,134.9999999999996,[1.45138535]
-9.155956734821363e-18,0.638840209786621,7.372026171209548e-18,0.638840209786621,1.4385261252459361e-18,0.04465640078200058,7.372026171209548e-18,0.04465640078200058,-2.3225920002230238e-17,0.6403991003827352,-2.4206444809155034e-17,-0.6403991003827351,0.4639168048873748,0.7546935777427676,0.4639168048873748,1000.0,134.9999999999996,[1.45399151]
-8.068423506009107e-18,0.6575434492368816,6.479995710156312e-18,0.6575434492368816,1.6135710879446875e-18,0.03667465529492798,6.479995710156312e-18,0.03667465529492798,-2.1151426712973293e-17,0.6585654242179265,-2.1837001755557518e-17,-0.6585654242179266,0.47137973776808595,0.7453873393366576,0.47137973776808584,1000.0,134.9999999999996,[1.49020214]
-7.136591311078321e-18,0.6677408441753091,5.681246820370986e-18,0.6677408441753091,1.6316538248217678e-18,0.03239588792863063,5.681246820370986e-18,0.03239588792863063,-1.9186540541746336e-17,0.6685262362350776,-1.9694464569504256e-17,-0.6685262362350777,0.4751832626829498,0.7405415138477877,0.47518326268294997,1000.0,134.9999999999996,[1.49675151]
-6.2416579889123005e-18,0.6738586705325481,4.926463717516196e-18,0.6738586705325481,1.5778433219815381e-18,0.029949357807999694,4.926463717516196e-18,0.029949357807999694,-1.727200454421275e-17,0.6745238853332066,-1.768976197844904e-17,-0.6745238853332067,0.47730653185576966,0.7378054955715865,0.4773065318557697,1000.0,134.9999999999996,[1.49675151]
-5.403141279654539e-18,0.6775900755857018,4.19375200352752e-18,0.6775900755857018,1.482929619967483e-18,0.0285953374079769,4.19375200352752e-18,0.0285953374079769,-1.5388131408203472e-17,0.6781931906571412,-1.572566100320882e-17,-0.678193190657141,0.47847335178112815,0.736292403376991,0.47847335178112815,1000.0,134.9999999999996,[1.5082396]
-4.598776376347255e-18,0.6796738274935652,3.4797377250086274e-18,0.6796738274935652,1.340124538630869e-18,0.02801069596798965,3.4797377250086274e-18,0.02801069596798965,-1.35263747036296e-17,0.6802507705753545,-1.3799563402608438e-17,-0.6802507705753545,0.47898742619166407,0.7356236069489414,0.47898742619166407,1000.0,134.9999999999996,[1.5082396]
-3.796615909372425e-18,0.6804155201728174,2.7841755324350174e-18,0.6804155201728174,1.1824002985192777e-18,0.028068624057323105,2.7841755324350174e-18,0.028068624057323105,-1.1688103724597638e-17,0.6809942200551463,-1.1905024189957948e-17,-0.6809942200551462,0.4789665439911244,0.7356507999549765,0.47896654399112426,1000.0,134.9999999999996,[1.5082396]
-3.0237405312141165e-18,0.6798531698975497,2.1051296551522537e-18,0.6798531698975497,1.0006625399361775e-18,0.028769082001731044,2.1051296551522537e-18,0.028769082001731044,-9.868693394110076e-18,0.6804616026631984,-1.0024129421982354e-17,-0.6804616026631986,0.47841353968217515,0.7363701311823718,0.47841353968217515,1000.0,134.9999999999996,[1.5082396]
-2.279064980908659e-18,0.6777693383614996,1.4374747786873812e-18,0.6777693383614996,7.851417945582227e-19,0.03023880080283883,1.4374747786873812e-18,0.03023880080283883,-8.070721206955627e-18,0.6784435577827966,-8.178630272753637e-18,-0.6784435577827966,0.47721769197339964,0.7379204218173956,0.47721769197339964,1000.0,134.9999999999996,[1.51010822]
-1.5414860198734474e-18,0.6735592142296633,8.05058558874395e-19,0.6735592142296633,5.283768932601845e-19,0.032800836223616785,8.05058558874395e-19,0.032800836223616785,-6.31508267598557e-18,0.6743574051870788,-6.384455256909949e-18,-0.6743574051870787,0.4750881157954243,0.7406635973638148,0.4750881157954243,1000.0,134.9999999999996,[1.49675151]
-8.787561509263215e-19,0.6657860100535518,2.0832188297978548e-19,0.6657860100535518,1.8926463686823818e-19,0.03719484977640951,2.0832188297978548e-19,0.03719484977640951,-4.625649303099995e-18,0.6668241657535503,-4.657136115774684e-18,-0.6668241657535504,0.4713320186640153,0.7454476885497792,0.4713320186640153,1000.0,134.9999999999996,[1.49020214]
-3.321492050918398e-19,0.6506419641794592,-2.869648841837855e-19,0.6506419641794592,-3.2132468082187967e-19,0.04529154233746121,-2.869648841837855e-19,0.04529154233746121,-3.0702562574792117e-18,0.6522164436432208,-3.0661373250664785e-18,-0.6522164436432208,0.46407172629730203,0.7545030587763603,0.46407172629730203,1000.0,134.9999999999996,[1.45399151]
-5.850234882281288e-20,0.6146424164230031,-5.486714852458375e-19,0.6146424164230031,-1.3356171022260968e-18,0.06294741411430033,-5.486714852458375e-19,0.06294741411430033,-1.893892723070346e-18,0.6178573273903817,-1.8247974686147176e-18,-0.6178573273903817,0.4464582500290713,0.7754676408219483,0.44645825002907136,1000.0,134.9999999999996,[1.45292393]
-1.3063828850172477e-18,0.471878968266973,9.743661580703872e-20,0.471878968266973,-6.150500307264695e-18,0.10096781574103439,9.743661580703872e-20,0.10096781574103439,-2.5988375477839626e-18,0.4825601107719312,-2.4180122058024215e-18,-0.4825601107719315,0.38431600980508274,0.8394059859299308,0.3843160098050829,1000.0,134.9999999999996,[1.39425518]
-4.477210191213706e-19,0.47865561153974373,-6.235083893445852e-19,0.47865561153974373,-6.2943588548101845e-18,0.09947341417003394,-6.235083893445852e-19,0.09947341417003394,-1.5845806305226001e-18,0.4888825570473231,-1.9604418610574526e-18,-0.48888255704732353,0.24651063307076285,0.9372646454263084,0.24651063307076285,1000.0,122.14285714285755,[1.40056289]
1.920606676049111e-18,0.6229174199409303,-2.5756769236098297e-18,0.6229174199409303,-1.752266167311467e-18,0.061222874216438246,-2.5756769236098297e-18,0.061222874216438246,1.7598905495113095e-18,0.6259188065501685,2.3207793788162058e-18,-0.6259188065501685,0.3158366144270559,0.8947035631842037,0.31583661442705585,1000.0,122.14285714285755,[1.45517424]
2.823823591664391e-18,0.6576922235160638,-3.622738873999811e-18,0.6576922235160638,-1.0290716832580962e-18,0.04395732637859151,-3.622738873999811e-18,0.04395732637859151,3.1881914816151718e-18,0.659159546252543,3.700536493624363e-18,-0.6591595462525429,0.3354389474148312,0.8803189337475711,0.3354389474148312,1000.0,122.14285714285755,[1.50320942]
3.4546484839998878e-18,0.6727513950434892,-4.4435578278698006e-18,0.6727513950434892,-8.064575280853753e-19,0.03599035687813062,-4.4435578278698006e-18,0.03599035687813062,4.20992652520432e-18,0.6737133999863562,4.6828105526849635e-18,-0.673713399986356,0.34368192241332446,0.873936766827305,0.34368192241332446,1000.0,122.14285714285755,[1.50320942]
3.975862019004757e-18,0.6809681177504653,-5.165745742977619e-18,0.6809681177504653,-7.486695014202901e-19,0.031605131667142204,-5.165745742977619e-18,0.031605131667142204,5.072660239364277e-18,0.6817011528084055,5.51844916898699e-18,-0.6817011528084056,0.3480408044953448,0.8704798658283065,0.34804080449534475,1000.0,122.14285714285755,[1.51664883]
4.454741897825234e-18,0.6859263712680309,-5.853349973382329e-18,0.6859263712680309,-7.646829296727954e-19,0.028982004197471295,-5.853349973382329e-18,0.028982004197471295,5.870416072974839e-18,0.6865383771998701,6.351380499706201e-18,-0.68653837719987,0.35059316186325523,0.8684289664154753,0.3505931618632552,1000.0,122.14285714285755,[1.51664883]
4.914629709781494e-18,0.6889856654176921,-6.5179093655116184e-18,0.6889856654176921,-8.357775911321709e-19,0.027398896752808335,-6.5179093655116184e-18,0.027398896752808335,6.629368528008415e-18,0.6895302362437277,7.133796050242594e-18,-0.6895302362437277,0.35211570119158225,0.8671960942882071,0.35211570119158214,1000.0,122.14285714285755,[1.51305651]
5.3593281075470195e-18,0.6907379450199751,-7.157914728337882e-18,0.6907379450199751,-9.311589409980023e-19,0.02653562540356188,-7.157914728337882e-18,0.02653562540356188,7.348437642627133e-18,0.6912474579381658,7.891721769987963e-18,-0.6912474579381658,0.352942343826154,0.8665237468581006,0.352942343826154,1000.0,122.14285714285755,[1.50766975]
5.7866496119919136e-18,0.6914294279562379,-7.784514892629992e-18,0.6914294279562379,-1.0523197430079153e-18,0.026258821905243222,-7.784514892629992e-18,0.026258821905243222,8.038743102407968e-18,0.6919278716540778,8.622744742095304e-18,-0.6919278716540777,0.3532107540233167,0.8663049846818153,0.3532107540233167,1000.0,122.14285714285755,[1.50766975]
6.196055831934982e-18,0.6910943569086747,-8.40147448983382e-18,0.6910943569086747,-1.196548169534186e-18,0.026551964268665,-8.40147448983382e-18,0.026551964268665,8.708425424403602e-18,0.6916042343403771,9.34723626126633e-18,-0.6916042343403772,0.35294000060581165,0.86652565567601,0.3529400006058117,1000.0,122.14285714285755,[1.50766975]
6.5956862246037445e-18,0.6895659222590418,-8.9981182985488e-18,0.6895659222590418,-1.3795802395937329e-18,0.02751011797733388,-8.9981182985488e-18,0.02751011797733388,9.348533325314081e-18,0.6901144598775549,1.005783535724374e-17,-0.690114459877555,0.35203743804422355,0.8672596407250363,0.3520374380442236,1000.0,122.14285714285755,[1.51305651]
6.979576093998658e-18,0.6863728545339115,-9.571554585826323e-18,0.6863728545339115,-1.6075216059323575e-18,0.029395296328449585,-9.571554585826323e-18,0.029395296328449585,9.933563172493169e-18,0.6870020224768393,1.0751929035301513e-17,-0.6870020224768393,0.35024086247265473,0.8687132303060788,0.35024086247265473,1000.0,122.14285714285755,[1.51664883]
7.316795502655142e-18,0.6803866049801129,-1.0111626252290836e-17,0.6803866049801129,-1.9098094422770165e-18,0.03281830964610832,-1.0111626252290836e-17,0.03281830964610832,1.0437467642987636e-17,0.6811776373930608,1.1428592885277533e-17,-0.6811776373930608,0.3469208004750951,0.8713735802716529,0.346920800475095,1000.0,122.14285714285755,[1.51540932]
7.595393862070911e-18,0.6685804582710128,-1.0579136061840329e-17,0.6685804582710128,-2.3793698810326425e-18,0.03933043877258176,-1.0579136061840329e-17,0.03933043877258176,1.0765825853482751e-17,0.6697363007900357,1.2034522894778005e-17,-0.6697363007900357,0.34039398285873324,0.8765066302471057,0.34039398285873324,1000.0,122.14285714285755,[1.50320942]
7.673757334389005e-18,0.6399102868878654,-1.0838816542153069e-17,0.6399102868878654,-3.361453288482503e-18,0.05376784624264045,-1.0838816542153069e-17,0.05376784624264045,1.0611786625451902e-17,0.6421652097042337,1.2385750360857145e-17,-0.6421652097042334,0.32475188125049764,0.8882974902860672,0.32475188125049764,1000.0,122.14285714285755,[1.45011296]
6.619638273215983e-18,0.5127105319358042,-1.0368681015770088e-17,0.5127105319358042,-8.135174474050905e-18,0.08391422638470428,-1.0368681015770088e-17,0.08391422638470428,8.206097973746967e-18,0.5195321808585476,1.1450774637662353e-17,-0.5195321808585474,0.2745585345722325,0.9215395933909168,0.27455853457223245,1000.0,122.14285714285755,[1.40112225]
6.6681782655363604e-18,0.5181673192011569,-1.0223491327823849e-17,0.5181673192011569,-8.167696401383703e-18,0.07961850457771408,-1.0223491327823849e-17,0.07961850457771408,7.818701142898163e-18,0.5242484877987779,1.0711898778482808e-17,-0.5242484877987776,0.12947035974158688,0.9830945284644647,0.12947035974158688,1000.0,109.28571428571402,[1.40914276]
7.329398943455883e-18,0.6466169797654179,-1.0016359760976701e-17,0.6466169797654179,-3.447890111433774e-18,0.04859906177737052,-1.0016359760976701e-17,0.04859906177737052,9.929279359197121e-18,0.6484407354003842,1.1394083911212325e-17,-0.6484407354003843,0.18286373604329784,0.9659822503962348,0.18286373604329784,1000.0,109.28571428571402,[1.4652535]
6.8619397405577724e-18,0.6743526689828877,-9.101226038786108e-18,0.6743526689828877,-2.529755361824966e-18,0.035028763708395756,-9.101226038786108e-18,0.035028763708395756,9.771120590769998e-18,0.6752618280721061,1.070350400215037e-17,-0.6752618280721062,0.1986058263112736,0.9597455139308713,0.19860582631127358,1000.0,109.28571428571402,[1.50045579]
6.264253461319952e-18,0.686138144761853,-8.003636923901061e-18,0.686138144761853,-2.121424466984695e-18,0.028654292687626856,-8.003636923901061e-18,0.028654292687626856,9.100713348365038e-18,0.686736210044778,9.768167175365258e-18,-0.686736210044778,0.20549059616027535,0.9568423223182537,0.20549059616027535,1000.0,109.28571428571402,[1.52989404]
5.593299349132517e-18,0.6925272284161794,-6.8374168436188185e-18,0.6925272284161794,-1.87317234632673e-18,0.02503071454695893,-6.8374168436188185e-18,0.02503071454695893,8.246628337421902e-18,0.6929794360358221,8.743470078500954e-18,-0.6929794360358221,0.20928244044475106,0.9551972153660093,0.20928244044475106,1000.0,109.28571428571402,[1.52347176]
4.874055363362426e-18,0.69636717354742,-5.64135579622372e-18,0.69636717354742,-1.7144571696906945e-18,0.022749883035647428,-5.64135579622372e-18,0.022749883035647428,7.304094557939696e-18,0.6967386867201777,7.669363691243975e-18,-0.6967386867201777,0.2116252591388277,0.9541642937088182,0.21162525913882765,1000.0,109.28571428571402,[1.52347176]
4.158050203280786e-18,0.6987245385374192,-4.420337058617847e-18,0.6987245385374192,-1.588574581637433e-18,0.02125038935526815,-4.420337058617847e-18,0.02125038935526815,6.306751920316698e-18,0.6990476091097659,6.5719268980806336e-18,-0.6990476091097658,0.21314549935756028,0.9534872795204101,0.21314549935756022,1000.0,109.28571428571402,[1.52202804]
3.4203461828767146e-18,0.7000602509907631,-3.191317568402246e-18,0.7000602509907631,-1.5001366763062509e-18,0.02027841580209887,-3.191317568402246e-18,0.02027841580209887,5.275495937404184e-18,0.7003538885197206,5.4545772502898596e-18,-0.7003538885197204,0.2141196338078633,0.9530506622609172,0.2141196338078633,1000.0,109.28571428571402,[1.52146518]
2.6820868140888893e-18,0.7005641745065334,-1.9503630558663955e-18,0.7005641745065334,-1.4298807339827388e-18,0.019720453892370225,-1.9503630558663955e-18,0.019720453892370225,4.205170029886987e-18,0.7008416789145333,4.309614207392389e-18,-0.7008416789145333,0.21466988724730648,0.9528030641315431,0.21466988724730648,1000.0,109.28571428571402,[1.52146518]
1.930808553037669e-18,0.7002599879361828,-6.99643844220419e-19,0.7002599879361828,-1.40032591966304e-18,0.019546775382521475,-6.99643844220419e-19,0.019546775382521475,3.108253639022145e-18,0.7005327452248311,3.14866554999461e-18,-0.700532745224831,0.21482861766387498,0.9527315099571638,0.21482861766387498,1000.0,109.28571428571402,[1.52146518]
1.1762575518928823e-18,0.6990127449820362,5.594752104470359e-19,0.6990127449820362,-1.3916663532383299e-18,0.019801955323857034,5.594752104470359e-19,0.019801955323857034,1.9679283993482596e-18,0.6992931681934048,1.9342750184415993e-18,-0.6992931681934049,0.2145493335071848,0.9528573696956145,0.21454933350718483,1000.0,109.28571428571402,[1.52146518]
3.902339828016783e-19,0.6964449956887272,1.8343451879227198e-18,0.6964449956887272,-1.4345608556494913e-18,0.020635073827290653,1.8343451879227198e-18,0.020635073827290653,7.714382552415745e-19,0.6967506284831964,6.612023380670224e-19,-0.6967506284831962,0.21367351979045182,0.9532508871649261,0.2136735197904518,1000.0,109.28571428571402,[1.52202804]
-3.8548808573594355e-19,0.6916499863948009,3.129264606576773e-18,0.6916499863948009,-1.5561412821836262e-18,0.022407115952791417,3.129264606576773e-18,0.022407115952791417,-5.167559103826095e-19,0.6920128485261315,-7.21522725880574e-19,-0.6920128485261314,0.21180909173018503,0.9540827098951473,0.21180909173018503,1000.0,109.28571428571402,[1.52347176]
-1.215479561408003e-18,0.6821660974548565,4.4726461866410276e-18,0.6821660974548565,-1.8359029321904577e-18,0.02604269667069954,4.4726461866410276e-18,0.02604269667069954,-2.0173893797325323e-18,0.682663025633197,-2.3516250531972484e-18,-0.682663025633197,0.20791112692411612,0.955795964943506,0.20791112692411615,1000.0,109.28571428571402,[1.52717697]
-2.1887297235850853e-18,0.6587053262210789,5.937812673256193e-18,0.6587053262210789,-2.624656478415248e-18,0.034399783020339435,5.937812673256193e-18,0.034399783020339435,-4.062553067516243e-18,0.6596029501630998,-4.682320255895937e-18,-0.6596029501630999,0.1984169582768672,0.9598236407467319,0.1984169582768672,1000.0,109.28571428571402,[1.50045579]
-4.0079514051941976e-18,0.5421137220276555,7.818658087501045e-18,0.5421137220276555,-7.222680975050674e-18,0.0506987558058908,7.818658087501045e-18,0.0506987558058908,-8.627152732021765e-18,0.5444792479525217,-1.0023735696976359e-17,-0.5444792479525218,0.17038104942186927,0.9705362414643797,0.17038104942186927,1000.0,109.28571428571402,[1.41983328]
-4.508188880635641e-18,0.5451675767370502,8.270391869633836e-18,0.5451675767370502,-7.141369665289575e-18,0.044451564187809975,8.270391869633836e-18,0.044451564187809975,-9.30842053275212e-18,0.5469768078118951,-1.0637315592853373e-17,-0.546976807811895,0.021805331321932235,0.9995244144351262,0.021805331321932263,1000.0,96.42857142857196,[1.42143566]
-3.930361605242782e-18,0.6625096187496594,7.860656640217714e-18,0.6625096187496594,-2.4116497707945633e-18,0.026807587809305145,7.860656640217714e-18,0.026807587809305145,-5.836668590322839e-18,0.6630517639671677,-6.461585689454926e-18,-0.6630517639671678,0.050697107206631,0.9974264918487775,0.05069710720663102,1000.0,96.42857142857196,[1.49162892]
-4.196331088053975e-18,0.6855076292972387,7.833720190194455e-18,0.6855076292972387,-1.4795297670938095e-18,0.019620725562267554,7.833720190194455e-18,0.019620725562267554,-4.889776809783397e-18,0.6857883658216362,-5.334085983663366e-18,-0.6857883658216362,0.0590349814040872,0.9965087766503805,0.05903498140408723,1000.0,96.42857142857196,[1.5116931]
-4.595787669396525e-18,0.6950354531280788,7.905566532648442e-18,0.6950354531280788,-1.0523282878482665e-18,0.016101558062895687,7.905566532648442e-18,0.016101558062895687,-4.517803084573071e-18,0.6952219367058311,-4.8824057947484486e-18,-0.6952219367058311,0.06287576301820175,0.9960387928438119,0.06287576301820176,1000.0,96.42857142857196,[1.50309505]
-5.0261741882036574e-18,0.700109090722895,8.001397910772768e-18,0.700109090722895,-8.028394837069209e-19,0.013957426986411996,8.001397910772768e-18,0.013957426986411996,-4.3487726296563755e-18,0.7002482050536935,-4.667196265323751e-18,-0.7002482050536933,0.06514959992612955,0.9957464834278504,0.06514959992612954,1000.0,96.42857142857196,[1.50380296]
-5.473927002079823e-18,0.7030905676813287,8.123036693929766e-18,0.7030905676813287,-6.143975361190035e-19,0.012470588256634798,8.123036693929766e-18,0.012470588256634798,-4.290438793033976e-18,0.7032011532512729,-4.5794438228169085e-18,-0.7032011532512726,0.06669738706228497,0.9955415195350356,0.06669738706228498,1000.0,96.42857142857196,[1.50380296]
-5.936335078266167e-18,0.7048522104018541,8.245725896298304e-18,0.7048522104018541,-4.799483150597347e-19,0.01135149693637612,8.245725896298304e-18,0.01135149693637612,-4.277954582563717e-18,0.7049436112137456,-4.5439781373969506e-18,-0.7049436112137455,0.06784584029200677,0.9953862988358555,0.06784584029200677,1000.0,96.42857142857196,[1.50380296]
-6.391142088406186e-18,0.705765696419768,8.376578600677678e-18,0.705765696419768,-3.696477401798536e-19,0.010462974280301981,8.376578600677678e-18,0.010462974280301981,-4.313496349211315e-18,0.7058432489396429,-4.562737546451271e-18,-0.705843248939643,0.06874634430507413,0.995262719230142,0.06874634430507416,1000.0,96.42857142857196,[1.50380296]
-6.860612839457661e-18,0.705978730479227,8.515680056754181e-18,0.705978730479227,-3.0302978019561518e-19,0.009733854360664219,8.515680056754181e-18,0.009733854360664219,-4.385664083645022e-18,0.7060458312388622,-4.621254173559023e-18,-0.7060458312388621,0.06947613143950324,0.9951613609462546,0.06947613143950326,1000.0,96.42857142857196,[1.50380296]
-7.330079351208496e-18,0.7054997422221388,8.652754696571111e-18,0.7054997422221388,-2.3858399811552814e-19,0.009127091799287454,8.652754696571111e-18,0.009127091799287454,-4.488762815368472e-18,0.7055587786146642,-4.712786367276369e-18,-0.7055587786146641,0.07007461424936037,0.9950774326029139,0.0700746142493604,1000.0,96.42857142857196,[1.50380296]
-7.829388419809925e-18,0.7042005853623727,8.792829568937387e-18,0.7042005853623727,-2.2487568958566087e-19,0.00862794367720604,8.792829568937387e-18,0.00862794367720604,-4.635813556295379e-18,0.7042534386403845,-4.8516990331364096e-18,-0.7042534386403844,0.0705564686163596,0.9950093313495997,0.07055646861635961,1000.0,96.42857142857196,[1.50380296]
-8.306460236907726e-18,0.7017393383667574,8.938720033151029e-18,0.7017393383667574,-2.3585859147794363e-19,0.008243030863953945,8.938720033151029e-18,0.008243030863953945,-4.845265742808127e-18,0.7017877503698954,-5.055605254037319e-18,-0.7017877503698952,0.07091209515535145,0.994958767749376,0.07091209515535146,1000.0,96.42857142857196,[1.50380296]
-8.805777784110434e-18,0.6973006834720833,9.081897113118744e-18,0.6973006834720833,-3.3637731132792333e-19,0.00801201665104697,9.081897113118744e-18,0.00801201665104697,-5.157276680125389e-18,0.6973467111713162,-5.3664880555613005e-18,-0.6973467111713163,0.0710925447790161,0.9949330128976963,0.07109254477901611,1000.0,96.42857142857196,[1.50380296]
-9.332773725187356e-18,0.6886602357760999,9.234043559653205e-18,0.6886602357760999,-6.121672665482787e-19,0.00804971954712004,9.234043559653205e-18,0.00804971954712004,-5.681184290686556e-18,0.6887072805800596,-5.897402994459085e-18,-0.6887072805800595,0.07095262359274632,0.9949529890455189,0.07095262359274633,1000.0,96.42857142857196,[1.51747709]
-9.950395315681645e-18,0.6672539015814157,9.416543067569936e-18,0.6672539015814157,-1.4004734340774743e-18,0.008669855331040064,9.416543067569936e-18,0.008669855331040064,-6.801443330696733e-18,0.6673102243837443,-7.046669753825022e-18,-0.6673102243837442,0.07003502158766896,0.9950830073428196,0.07003502158766899,1000.0,96.42857142857196,[1.48958464]
-1.1351573202295047e-17,0.5542106661976196,9.596465080697951e-18,0.5542106661976196,-5.971730125368201e-18,0.007891650266722462,9.596465080697951e-18,0.007891650266722462,-1.0524699732243218e-17,0.5542668496952904,-1.0798607573542726e-17,-0.5542668496952905,0.06915833433949213,0.9952056318082079,0.06915833433949214,1000.0,96.42857142857196,[1.41199553]
-1.1560078964940063e-17,0.5542516691380314,9.249990516996466e-18,0.5542516691380314,-5.969179457403844e-18,0.0009301984443490384,9.249990516996466e-18,0.0009301984443490384,-1.0488092311397406e-17,0.5542524497117172,-1.05191436381638e-17,-0.554252449711717,0.08034999979760948,0.993522901127623,0.08034999979760946,1000.0,83.57142857142804,[1.39893607]
-1.0572109950943212e-17,0.6673882502857533,8.999872574144614e-18,0.6673882502857533,-1.3939047702149709e-18,0.00015759491080438045,8.999872574144614e-18,0.00015759491080438045,-6.699487620408164e-18,0.6673882688927303,-6.703738235373529e-18,-0.6673882688927303,0.07933676211248207,0.993685743258408,0.07933676211248206,1000.0,83.57142857142804,[1.46253626]
-1.0355761482115427e-17,0.6888860681092921,8.731253958987809e-18,0.6888860681092921,-6.268106058254091e-19,0.0007787454958435062,8.731253958987809e-18,0.0007787454958435062,-5.519036870270399e-18,0.6888865082723187,-5.538783412856426e-18,-0.6888865082723188,0.07996510605894673,0.993585005737286,0.07996510605894672,1000.0,83.57142857142804,[1.49284955]
-1.02332923259457e-17,0.6976172088552572,8.444761624347164e-18,0.6976172088552572,-3.6395568420267747e-19,0.0008128611387581856,8.444761624347164e-18,0.0008128611387581856,-4.929782030091635e-18,0.6976176824265786,-4.9494689466137314e-18,-0.6976176824265785,0.07998952373412772,0.9935810747923768,0.0799895237341277,1000.0,83.57142857142804,[1.48030097]
-1.015802354309432e-17,0.7021459851707834,8.154978665063381e-18,0.7021459851707834,-2.702656165747229e-19,0.0005736480608580271,8.154978665063381e-18,0.0005736480608580271,-4.555678586222623e-18,0.7021462195038494,-4.569007379923758e-18,-0.7021462195038494,0.07974488222252951,0.9936204041376313,0.07974488222252948,1000.0,83.57142857142804,[1.47862773]
-1.0074619542316057e-17,0.7046968053146826,7.859802851692859e-18,0.7046968053146826,-2.5674880520342307e-19,0.00017592100771432682,7.859802851692859e-18,0.00017592100771432682,-4.2787070584271985e-18,0.7046968272732046,-4.282631676051935e-18,-0.7046968272732046,0.07934625053071492,0.9936842280389853,0.07934625053071491,1000.0,83.57142857142804,[1.47862773]
-1.001563391322036e-17,0.7060849600653318,7.55582568716296e-18,0.7060849600653318,-2.8243697990561404e-19,-0.0003406546997402445,7.55582568716296e-18,-0.0003406546997402445,-4.070648012087052e-18,0.7060850422407243,-4.063358677033539e-18,-0.7060850422407244,0.0788318285119523,0.9937661121345023,0.07883182851195229,1000.0,83.57142857142804,[1.47654947]
-9.955556664210035e-18,0.7066523275215428,7.263853394055251e-18,0.7066523275215428,-3.471940856264022e-19,-0.0009694504114634425,7.263853394055251e-18,-0.0009694504114634425,-3.893791278277565e-18,0.7066529925116809,-3.873871581369e-18,-0.7066529925116808,0.0782067924569676,0.9938648777510881,0.07820679245696756,1000.0,83.57142857142804,[1.47829402]
-9.906885253569838e-18,0.7065270050187147,6.956348204046412e-18,0.7065270050187147,-4.2280426465739353e-19,-0.001725195616169782,6.956348204046412e-18,-0.001725195616169782,-3.75735998545219e-18,0.706529111304431,-3.723426323806024e-18,-0.7065291113044311,0.07745485465519288,0.9939826411867995,0.07745485465519286,1000.0,83.57142857142804,[1.47836824]
-9.856581712183498e-18,0.7057005132807801,6.650571588873263e-18,0.7057005132807801,-5.351771289201116e-19,-0.0026449168188856335,6.650571588873263e-18,-0.0026449168188856335,-3.6583691360482554e-18,0.7057054697462216,-3.608599053601611e-18,-0.7057054697462218,0.07653677915924603,0.994124862817472,0.07653677915924605,1000.0,83.57142857142804,[1.47836824]
-9.806818681628672e-18,0.7040251007135041,6.332059617786509e-18,0.7040251007135041,-6.780734876986164e-19,-0.0037997560530382427,6.332059617786509e-18,-0.0037997560530382427,-3.603468073118557e-18,0.7040353546383321,-3.535280853402896e-18,-0.7040353546383323,0.07537735064175399,0.9943020215309128,0.075377350641754,1000.0,83.57142857142804,[1.48044649]
-9.777677729033889e-18,0.7011290504632369,6.0076631330974605e-18,0.7011290504632369,-8.642444949253005e-19,-0.005326864083910119,6.0076631330974605e-18,-0.005326864083910119,-3.605134648182395e-18,0.701149285733394,-3.514234111603383e-18,-0.7011492857333941,0.07383020906184781,0.994534162540316,0.0738302090618478,1000.0,83.57142857142804,[1.48044649]
-9.765362560676623e-18,0.6961400150145386,5.673549376474187e-18,0.6961400150145386,-1.1308600736495565e-18,-0.007515756177175832,5.673549376474187e-18,-0.007515756177175832,-3.704475769801655e-18,0.6961805851180835,-3.582729581864333e-18,-0.6961805851180832,0.07158051367971675,0.9948630358610655,0.07158051367971674,1000.0,83.57142857142804,[1.48676511]
-9.78397097083298e-18,0.6866959988875543,5.302824754573334e-18,0.6866959988875543,-1.5635213746841272e-18,-0.011084152606954705,5.302824754573334e-18,-0.011084152606954705,-4.014220800927193e-18,0.6867854492686857,-3.8450124130654475e-18,-0.6867854492686857,0.06782016352665894,0.9953897984400053,0.06782016352665893,1000.0,83.57142857142804,[1.49148543]
-9.914908130029778e-18,0.6637812245505361,4.8346468246191746e-18,0.6637812245505361,-2.5138520229109386e-18,-0.018324726142733273,4.8346468246191746e-18,-0.018324726142733273,-4.892099416621172e-18,0.6640341178388468,-4.6254123011649766e-18,-0.6640341178388467,0.05975002250837125,0.9964235392745889,0.059750022508371255,1000.0,83.57142857142804,[1.46953912]
-1.0899947787284849e-17,0.5465229035466351,3.990578088783481e-18,0.5465229035466351,-7.242925953971032e-18,-0.0360270951418349,3.990578088783481e-18,-0.0360270951418349,-8.305283830980311e-18,0.547709079425751,-7.80936763887154e-18,-0.5477090794257509,0.032779912523465446,0.9989248994143193,0.032779912523465425,1000.0,83.57142857142804,[1.40647867]
-1.1238275773058519e-17,0.5435372246234298,4.336196943027008e-18,0.5435372246234298,-7.244455414154817e-18,-0.042323753193396624,4.336196943027008e-18,-0.042323753193396624,-8.828187257202535e-18,0.5451825516611077,-8.158843977340918e-18,-0.5451825516611076,0.18102393562681146,0.9666750588798492,0.1810239356268115,1000.0,70.71428571428592,[1.39353997]
-1.064446421460505e-17,0.6602030010984601,6.432158845590412e-18,0.6602030010984601,-2.495648995878217e-18,-0.02607034094645327,6.432158845590412e-18,-0.02607034094645327,-6.738094931330581e-18,0.660717538238904,-6.23258522605421e-18,-0.6607175382389043,0.2070256390825753,0.956180301786699,0.2070256390825753,1000.0,70.71428571428592,[1.46638164]
-1.0955768778453283e-17,0.6837348895012189,8.120859481856105e-18,0.6837348895012189,-1.5391506951337542e-18,-0.017762780215120514,8.120859481856105e-18,-0.017762780215120514,-7.171641318851757e-18,0.6839655806268432,-6.7498893741654955e-18,-0.6839655806268432,0.21613054356356637,0.952142413863512,0.21613054356356634,1000.0,70.71428571428592,[1.48480954]
-1.1385358308740221e-17,0.6932878453657904,9.681125603561804e-18,0.6932878453657904,-1.0954374048542942e-18,-0.014180905578376346,9.681125603561804e-18,-0.014180905578376346,-8.152428427652995e-18,0.6934328623702244,-7.756079365093123e-18,-0.6934328623702244,0.2198446600254086,0.9504402405815029,0.2198446600254086,1000.0,70.71428571428592,[1.47953463]
-1.1842626232901372e-17,0.6981500888718658,1.1197963998322799e-17,0.6981500888718658,-8.325557226462768e-19,-0.012466779567792657,1.1197963998322799e-17,-0.012466779567792657,-9.34280920962582e-18,0.6982613888685141,-8.942637934746354e-18,-0.698261388868514,0.22158908962882282,0.9496296913612902,0.2215890896288228,1000.0,70.71428571428592,[1.47953463]
-1.2320501397470328e-17,0.7007832782261345,1.269759003761923e-17,0.7007832782261345,-6.286840455126324e-19,-0.011695769876623869,1.269759003761923e-17,-0.011695769876623869,-1.0624622167962646e-17,0.700880870101599,-1.0202057688510737e-17,-0.7008808701015994,0.22237254014681906,0.9492633495386321,0.2223725401468191,1000.0,70.71428571428592,[1.47786138]
-1.2811950802686433e-17,0.7020941611273226,1.4175578355257132e-17,0.7020941611273226,-4.766330494816303e-19,-0.011506857966304412,1.4175578355257132e-17,-0.011506857966304412,-1.1963140011651207e-17,0.7021884496837981,-1.1498827296097267e-17,-0.7021884496837981,0.22257399879980783,0.9491689154816051,0.2225739987998078,1000.0,70.71428571428592,[1.47786138]
-1.3327284427704546e-17,0.702460168354959,1.5651870422726725e-17,0.702460168354959,-3.5849592865272236e-19,-0.011750921370020824,1.5651870422726725e-17,-0.011750921370020824,-1.3348728929988618e-17,0.702558447588755,-1.2824343282405776e-17,-0.7025584475887552,0.22234658998757534,0.9492755068165376,0.2223465899875753,1000.0,70.71428571428592,[1.47786138]
-1.384368635648377e-17,0.7020162238540535,1.7109712457662277e-17,0.7020162238540535,-2.596224548852393e-19,-0.01238333627160268,1.7109712457662277e-17,-0.01238333627160268,-1.475873727983375e-17,0.7021254343573664,-1.4154697588569507e-17,-0.7021254343573664,0.22173488837301836,0.9495616244122392,0.22173488837301836,1000.0,70.71428571428592,[1.47786138]
-1.435304680690106e-17,0.7007386276056535,1.856339977925407e-17,0.7007386276056535,-1.8475826028862585e-19,-0.013433777017528225,1.856339977925407e-17,-0.013433777017528225,-1.619940319207739e-17,0.7008673844484502,-1.5486916249884848e-17,-0.7008673844484502,0.22070686032080045,0.9500405063020575,0.2207068603208004,1000.0,70.71428571428592,[1.47786138]
-1.4891153954953676e-17,0.6984374990811869,2.0005012512799874e-17,0.6984374990811869,-1.5221950823141569e-19,-0.01501569424885825,2.0005012512799874e-17,-0.01501569424885825,-1.7680904167729418e-17,0.6985988914939376,-1.681976335885257e-17,-0.6985988914939375,0.219142940477213,0.9507642942801342,0.21914294047721292,1000.0,70.71428571428592,[1.47953463]
-1.5433067994980415e-17,0.6946519021149726,2.142524194896459e-17,0.6946519021149726,-1.6417619072836803e-19,-0.017382845813298024,2.142524194896459e-17,-0.017382845813298024,-1.9216663952264285e-17,0.6948693607006419,-1.814231561144124e-17,-0.6948693607006416,0.21677314697323077,0.9518502011885296,0.21677314697323063,1000.0,70.71428571428592,[1.47953463]
-1.601513245136229e-17,0.6883152874330984,2.2810013278430262e-17,0.6883152874330984,-2.500649515938602e-19,-0.021096583174516525,2.2810013278430262e-17,-0.021096583174516525,-2.0842775951325283e-17,0.6886385123820397,-1.9437462597029034e-17,-0.6886385123820395,0.21298620419214861,0.953558468919259,0.21298620419214848,1000.0,70.71428571428592,[1.49320067]
-1.6647670021156076e-17,0.6765804571382225,2.413473855748875e-17,0.6765804571382225,-4.897894540595142e-19,-0.027565011814207185,2.413473855748875e-17,-0.027565011814207185,-2.2653788227246324e-17,0.6771417465034064,-2.0687883225822176e-17,-0.6771417465034066,0.20617946206598856,0.9565459000196276,0.20617946206598853,1000.0,70.71428571428592,[1.48820574]
-1.7462510236343155e-17,0.6488938164228905,2.5270797338503576e-17,0.6488938164228905,-1.2570183487225198e-18,-0.0412331016664701,2.5270797338503576e-17,-0.0412331016664701,-2.496849300862987e-17,0.6502025481839495,-2.1670813246473977e-17,-0.6502025481839498,0.19074712891343473,0.9629283803183719,0.19074712891343468,1000.0,70.71428571428592,[1.43027165]
-1.9366698101016124e-17,0.5204925668425924,2.5701147823255274e-17,0.5204925668425924,-5.81628338328602e-18,-0.07235455361638735,2.5701147823255274e-17,-0.07235455361638735,-2.956441951512233e-17,0.5254975676132261,-2.21347995539994e-17,-0.5254975676132259,0.13942183762730617,0.9803688603710597,0.13942183762730614,1000.0,70.71428571428592,[1.34753868]
-1.9316559892354718e-17,0.5150665119770618,2.5039200105276106e-17,0.5150665119770618,-5.8468831852133146e-18,-0.07673899736646307,2.5039200105276106e-17,-0.07673899736646307,-2.913244007909997e-17,0.520751750335058,-2.1855061723108482e-17,-0.5207517503350583,0.2838671342163739,0.9158814880886972,0.28386713421637383,1000.0,57.857142857142705,[1.35559273]
-1.6793362066228077e-17,0.6422977081580997,2.3680990113966184e-17,0.6422977081580997,-1.3394568487801738e-18,-0.04667707833454968,2.3680990113966184e-17,-0.04667707833454968,-2.416268356362973e-17,0.6439915337541303,-2.0676414941404175e-17,-0.6439915337541303,0.3318179212948862,0.883059303906075,0.33181792129488613,1000.0,57.857142857142705,[1.42187233]
-1.5403693880850468e-17,0.6709957049896672,2.1588363613658922e-17,0.6709957049896672,-6.238639606857094e-19,-0.032327030633443256,2.1588363613658922e-17,-0.032327030633443256,-2.1444981325044634e-17,0.6717739746552824,-1.9358893741394613e-17,-0.6717739746552825,0.3469558980025147,0.8713456315851577,0.3469558980025146,1000.0,57.857142857142705,[1.46013456]
-1.422811037775924e-17,0.6828269320005844,1.9288893289035407e-17,0.6828269320005844,-4.2811107418897015e-19,-0.02590552166371626,1.9288893289035407e-17,-0.02590552166371626,-1.92089325277233e-17,0.6833181653651543,-1.77338444575595e-17,-0.6833181653651542,0.35323458090329246,0.8662855543688529,0.35323458090329235,1000.0,57.857142857142705,[1.4753836]
-1.3092393257880313e-17,0.6888357359896037,1.6917710689840627e-17,0.6888357359896037,-4.07085202843032e-19,-0.02257643090688292,1.6917710689840627e-17,-0.02257643090688292,-1.714611851172772e-17,0.6892056053231375,-1.6039580568280404e-17,-0.6892056053231375,0.3563890729240334,0.8636976655061053,0.3563890729240333,1000.0,57.857142857142705,[1.4770544]
-1.2012575556231644e-17,0.6920489044188786,1.451129089125355e-17,0.6920489044188786,-4.457476246737605e-19,-0.020788442814276078,1.451129089125355e-17,-0.020788442814276078,-1.5171138565678508e-17,0.6923610658189935,-1.4292853127830055e-17,-0.6923610658189935,0.3580569103135724,0.8623169359077884,0.3580569103135724,1000.0,57.857142857142705,[1.46395122]
-1.0961245954879303e-17,0.6935950223543147,1.2086608317990368e-17,0.6935950223543147,-5.354173117969589e-19,-0.01993068944408955,1.2086608317990368e-17,-0.01993068944408955,-1.3243373830499883e-17,0.6938813208441332,-1.254294670504652e-17,-0.6938813208441333,0.3588508141410035,0.8616566522581242,0.3588508141410035,1000.0,57.857142857142705,[1.46395122]
-9.878740536625298e-18,0.6939453855754055,9.641763233452078e-18,0.6939453855754055,-6.620526406699923e-19,-0.019741089640784255,9.641763233452078e-18,-0.019741089640784255,-1.1347147372427582e-17,0.6942261222264715,-1.0797068944865657e-17,-0.6942261222264715,0.35902596405025805,0.8615107162859704,0.359025964050258,1000.0,57.857142857142705,[1.46395122]
-8.864555687474804e-18,0.6932668281740229,7.176721723233564e-18,0.6932668281740229,-8.136489717074259e-19,-0.020124504048898022,7.176721723233564e-18,-0.020124504048898022,-9.479743919402116e-18,0.6935588588646847,-9.064709713453016e-18,-0.6935588588646848,0.35867232375371777,0.861805272869815,0.35867232375371777,1000.0,57.857142857142705,[1.46395122]
-7.826274653490334e-18,0.6915251335722401,4.703676413407987e-18,0.6915251335722401,-9.737249638486877e-19,-0.021097376822485338,4.703676413407987e-18,-0.021097376822485338,-7.635612107236275e-18,0.6918468831113532,-7.348308859071067e-18,-0.6918468831113535,0.3577708584587051,0.8625543609972897,0.35777085845870515,1000.0,57.857142857142705,[1.46395122]
-6.844367839407732e-18,0.6884741139496262,2.212299837705349e-18,0.6884741139496262,-1.187180109990127e-18,-0.022792996117964957,2.212299837705349e-18,-0.022792996117964957,-5.824038123980522e-18,0.6888513092466011,-5.679059907194872e-18,-0.6888513092466011,0.3561866502790991,0.8638646539394406,0.3561866502790992,1000.0,57.857142857142705,[1.4770544]
-5.8646824188601394e-18,0.6835218616476776,-3.0393599694634536e-19,0.6835218616476776,-1.4331241964062644e-18,-0.02553146609693055,-3.0393599694634536e-19,-0.02553146609693055,-4.059062533352331e-18,0.6839985315125799,-4.085566060667537e-18,-0.6839985315125798,0.3535928599040606,0.8659931748286095,0.35359285990406053,1000.0,57.857142857142705,[1.46937577]
-4.936767337720098e-18,0.6753089182506036,-2.8596146821808406e-18,0.6753089182506036,-1.7626672914300735e-18,-0.030034790909288664,-2.8596146821808406e-18,-0.030034790909288664,-2.35865785041216e-18,0.6759764964359076,-2.6205192973777267e-18,-0.6759764964359078,0.34922961029024036,0.8695270890507402,0.34922961029024047,1000.0,57.857142857142705,[1.46137407]
-4.093570440556512e-18,0.6602513921955896,-5.509847788700207e-18,0.6602513921955896,-2.26263133198028e-18,-0.038122567850525986,-5.509847788700207e-18,-0.038122567850525986,-8.173117274598107e-19,0.6613510649237156,-1.4487155038625696e-18,-0.6613510649237155,0.34106539923593565,0.875984467264154,0.34106539923593554,1000.0,57.857142857142705,[1.46013456]
-3.5069529752879936e-18,0.6254763215790083,-8.399380937708714e-18,0.6254763215790083,-3.255197867520489e-18,-0.055511683323408355,-8.399380937708714e-18,-0.055511683323408355,3.2201303726319157e-19,0.6279348499975179,-1.1118527841749528e-18,-0.6279348499975181,0.32180117724766116,0.8904425891903639,0.3218011772476612,1000.0,57.857142857142705,[1.41335777]
-4.4193861304931865e-18,0.4812131257035707,-1.217236778018636e-17,0.4812131257035707,-8.064728955501928e-18,-0.0938890542572039,-1.217236778018636e-17,-0.0938890542572039,-4.553008886645003e-19,0.49028688220134214,-5.577244091397533e-18,-0.4902868822013424,0.2545864300783696,0.932937028550107,0.2545864300783697,1000.0,57.857142857142705,[1.35166326]
-4.604711397242323e-18,0.474418019819828,-1.273045607693361e-17,0.474418019819828,-8.076844876729145e-18,-0.09549229497229146,-1.273045607693361e-17,-0.09549229497229146,1.9997628975867606e-19,0.48393309034291293,-5.898582154159139e-18,-0.48393309034291265,0.39150631813483805,0.8327338144455321,0.391506318134838,1000.0,45.00000000000011,[1.35879289]
-3.439039379045859e-18,0.6171597967648375,-9.924623547269973e-18,0.6171597967648375,-3.3024703089497056e-18,-0.057573976112523864,-9.924623547269973e-18,-0.057573976112523864,1.692994385422615e-18,0.6198394771779391,-2.489653584701725e-19,-0.619839477177939,0.4513957574951863,0.7697296539894339,0.4513957574951864,1000.0,45.00000000000011,[1.43074919]
-3.786475502243138e-18,0.6531344158721915,-8.027543135075137e-18,0.6531344158721915,-2.3091110241899408e-18,-0.04002178312281796,-8.027543135075137e-18,-0.04002178312281796,1.297242952838843e-18,0.6543594641487496,2.8464072322620335e-19,-0.6543594641487493,0.46848304818740943,0.7490308852925002,0.4684830481874095,1000.0,45.00000000000011,[1.42820873]
-4.43980260237222e-18,0.668250955364529,-6.370337985474943e-18,0.668250955364529,-1.8345403944693466e-18,-0.03203079615658019,-6.370337985474943e-18,-0.03203079615658019,5.270044196782e-19,0.6690181695948401,-8.155328507856531e-20,-0.6690181695948401,0.4754879524372595,0.7401502645909444,0.4754879524372595,1000.0,45.00000000000011,[1.43555317]
-5.186326487756427e-18,0.6759942827962307,-4.803836117485073e-18,0.6759942827962307,-1.5346649851447586e-18,-0.027744564790573897,-4.803836117485073e-18,-0.027744564790573897,-3.849242587509121e-19,0.6765633978043811,-7.960580198808882e-19,-0.676563397804381,0.4790753683316226,0.7355090637890469,0.47907536833162273,1000.0,45.00000000000011,[1.43368455]
-5.98745256537526e-18,0.680172260144043,-3.283439558467154e-18,0.680172260144043,-1.2956277792952566e-18,-0.025292348508335692,-3.283439558467154e-18,-0.025292348508335692,-1.3558724806808359e-18,0.6806423483464152,-1.5989630153042568e-18,-0.6806423483464152,0.48107490903754546,0.7328941695695461,0.4810749090375454,1000.0,45.00000000000011,[1.4545209]
-6.840264196388856e-18,0.6822217487125406,-1.7863411359378558e-18,0.6822217487125406,-1.1184250125710843e-18,-0.023934421274744478,-1.7863411359378558e-18,-0.023934421274744478,-2.367649407068188e-18,0.6826414658795298,-2.4999077830894226e-18,-0.6826414658795298,0.4821618377588906,0.7314642331774932,0.4821618377588906,1000.0,45.00000000000011,[1.4545209]
-7.706438103017633e-18,0.6827476258374402,-3.079793624092554e-19,0.6827476258374402,-9.58586421265625e-19,-0.023347653078491314,-3.079793624092554e-19,-0.023347653078491314,-3.401029809513588e-18,0.6831467144698385,-3.4221523092347438e-18,-0.6831467144698385,0.4826195887296923,0.7308602227161946,0.4826195887296923,1000.0,45.00000000000011,[1.4545209]
-8.581192354140423e-18,0.6819673938162462,1.1510612685429991e-18,0.6819673938162462,-8.215679853017023e-19,-0.023405233942454317,1.1510612685429991e-18,-0.023405233942454317,-4.457845065893227e-18,0.6823689113701062,-4.3783196230270526e-18,-0.6823689113701062,0.48255580588474134,0.7309444496087617,0.48255580588474123,1000.0,45.00000000000011,[1.4545209]
-9.475311730583692e-18,0.6798431007595692,2.599088726346843e-18,0.6798431007595692,-7.236019868273267e-19,-0.024107122189985952,2.599088726346843e-18,-0.024107122189985952,-5.5319990618877435e-18,0.6802703837377228,-5.349607790463783e-18,-0.6802703837377226,0.481967166471854,0.7317207806849444,0.481967166471854,1000.0,45.00000000000011,[1.4545209]
-1.0417589562289798e-17,0.6760692191057756,4.021645935996987e-18,0.6760692191057756,-6.4736664343017855e-19,-0.025580045385286892,4.021645935996987e-18,-0.025580045385286892,-6.634412235944063e-18,0.6765529748247409,-6.33328807457266e-18,-0.6765529748247409,0.48073779727965477,0.7333364442964847,0.48073779727965477,1000.0,45.00000000000011,[1.43368455]
-1.1376790682148127e-17,0.6699070510917808,5.424010296876822e-18,0.6699070510917808,-6.275521522419302e-19,-0.02814705461964259,5.424010296876822e-18,-0.02814705461964259,-7.765474603721002e-18,0.6704981087119093,-7.315732866636788e-18,-0.6704981087119094,0.4785695799388753,0.7361673140762617,0.47856957993887533,1000.0,45.00000000000011,[1.43368455]
-1.2414198420200895e-17,0.6596635286176141,6.782573673638476e-18,0.6596635286176141,-6.782626664896467e-19,-0.032547806092889806,6.782573673638476e-18,-0.032547806092889806,-8.948739719570704e-18,0.6604659950896052,-8.285389162266673e-18,-0.6604659950896051,0.47475246809613775,0.7410939131265697,0.47475246809613775,1000.0,45.00000000000011,[1.43555317]
-1.3586314175369148e-17,0.6409124786103868,8.049568686503088e-18,0.6409124786103868,-9.020892616452173e-19,-0.040652996641785365,8.049568686503088e-18,-0.040652996641785365,-1.0234553517885902e-17,0.6422004915713365,-9.206935685202077e-18,-0.6422004915713364,0.4673458599353333,0.7504503277383572,0.4673458599353333,1000.0,45.00000000000011,[1.40378163]
-1.512202626777182e-17,0.5981393931748773,9.069726180341824e-18,0.5981393931748773,-1.6316813802759235e-18,-0.05831913190636453,9.069726180341824e-18,-0.05831913190636453,-1.1828013363597587e-17,0.6009757522678622,-9.993595924963552e-18,-0.6009757522678622,0.44911983489469276,0.7723876926831033,0.4491198348946927,1000.0,45.00000000000011,[1.43204611]
-1.854914473341987e-17,0.4364399813125352,9.192542429251397e-18,0.4364399813125352,-6.154769283008505e-18,-0.09635161446802686,9.192542429251397e-18,-0.09635161446802686,-1.492513618887858e-17,0.4469490920660666,-1.1190350827630027e-17,-0.4469490920660668,0.38045537274996477,0.8429160211381503,0.38045537274996477,1000.0,45.00000000000011,[1.1385401]
-1.8915895110329957e-17,0.42962108216396255,9.269591188458718e-18,0.42962108216396255,-6.130020245876071e-18,-0.09485496521491231,9.269591188458718e-18,-0.09485496521491231,-1.466894677264233e-17,0.4399678836752249,-1.1688495346410696e-17,-0.4399678836752252,0.5035364486898404,0.702069860969439,0.5035364486898404,1000.0,32.14285714285738,[0.99977933]
-1.561337816907322e-17,0.5897489839124846,9.177671492521193e-18,0.5897489839124846,-1.5422321367859703e-18,-0.0565878441007081,9.177671492521193e-18,-0.0565878441007081,-1.1658619388651069e-17,0.592457634034514,-9.922395867257644e-18,-0.592457634034514,0.560054519842994,0.6104734798554864,0.5600545198429939,1000.0,32.14285714285738,[1.26184052]
-1.4191482820235392e-17,0.6336719896868052,8.184279353181474e-18,0.6336719896868052,-7.745710984140427e-19,-0.03930752943713638,8.184279353181474e-18,-0.03930752943713638,-1.0120126315028991e-17,0.6348899687222076,-9.108210908116307e-18,-0.6348899687222076,0.5742841825827288,0.5834341053371612,0.5742841825827291,1000.0,32.14285714285738,[1.21406872]
-1.320932164811443e-17,0.6524326777475001,6.962587096686526e-18,0.6524326777475001,-4.741403407057017e-19,-0.031327559546447344,6.962587096686526e-18,-0.031327559546447344,-8.854406801744238e-18,0.6531843652292284,-8.20887625611222e-18,-0.6531843652292284,0.5799922066965999,0.5720297897333824,0.5799922066965999,1000.0,32.14285714285738,[1.21406872]
-1.2365802564102254e-17,0.6621574407715505,5.647298500851197e-18,0.6621574407715505,-3.6905655645788393e-19,-0.026931098988223882,5.647298500851197e-18,-0.026931098988223882,-7.673863316904988e-18,0.6627048818756682,-7.221625880665026e-18,-0.6627048818756679,0.5829416213268582,0.5660018836096109,0.5829416213268581,1000.0,32.14285714285738,[1.25550046]
-1.1601711016868645e-17,0.6674964445778981,4.28755129938601e-18,0.6674964445778981,-3.383470626265465e-19,-0.024298509275038363,4.28755129938601e-18,-0.024298509275038363,-6.54897337085892e-18,0.6679385608550565,-6.2381523661631135e-18,-0.6679385608550565,0.5846424545562173,0.5624823558663529,0.5846424545562176,1000.0,32.14285714285738,[1.25550046]
-1.0887609302774067e-17,0.6702201933796536,2.9019475434963627e-18,0.6702201933796536,-3.5862787688512164e-19,-0.022707721992372344,2.9019475434963627e-18,-0.022707721992372344,-5.445534286047882e-18,0.6706047630698302,-5.256858763941576e-18,-0.6706047630698301,0.5856422381632315,0.5603983741574573,0.5856422381632315,1000.0,32.14285714285738,[1.25550046]
-1.0178798235877377e-17,0.671080391205239,1.5060189708996171e-18,0.671080391205239,-4.0334402002881953e-19,-0.02183856182910311,1.5060189708996171e-18,-0.02183856182910311,-4.365394397550625e-18,0.6714356367090892,-4.270546947240257e-18,-0.6714356367090893,0.5861715634115666,0.5592904401965757,0.5861715634115666,1000.0,32.14285714285738,[1.25550046]
-9.51977351568903e-18,0.6703539176152197,9.00448652297795e-20,0.6703539176152197,-4.622194273078938e-19,-0.02155766787198071,9.00448652297795e-20,-0.02155766787198071,-3.2896972961233914e-18,0.6707004606425673,-3.2924307427676896e-18,-0.6707004606425672,0.586323128999996,0.5589726082728098,0.586323128999996,1000.0,32.14285714285738,[1.25550046]
-8.875942448992056e-18,0.6680065934378651,-1.3344067818935668e-18,0.6680065934378651,-5.509055966827666e-19,-0.02184852396463614,-1.3344067818935668e-18,-0.02184852396463614,-2.236248044451383e-18,0.668363798298423,-2.335795236627068e-18,-0.6683637982984229,0.5861065071331881,0.5594267821549737,0.5861065071331881,1000.0,32.14285714285738,[1.25550046]
-8.265211841687004e-18,0.6636822594234356,-2.7819011476420146e-18,0.6636822594234356,-6.879197933460501e-19,-0.022806199892885137,-2.7819011476420146e-18,-0.022806199892885137,-1.1944314337337083e-18,0.664073990024418,-1.3972707292643361e-18,-0.6640739900244179,0.5854513378653329,0.5607971665258156,0.5854513378653331,1000.0,32.14285714285738,[1.25550046]
-7.716883739792953e-18,0.6565086708568756,-4.241859057270105e-18,0.6565086708568756,-8.645460151832731e-19,-0.024692711877534974,-4.241859057270105e-18,-0.024692711877534974,-1.7038597129612285e-19,0.6569728799045881,-5.029038386695888e-19,-0.656972879904588,0.584161542391787,0.5634807758751817,0.584161542391787,1000.0,32.14285714285738,[1.25550046]
-7.227159729937058e-18,0.644484513771054,-5.744797116430086e-18,0.644484513771054,-1.123177268587778e-18,-0.02811887233174563,-5.744797116430086e-18,-0.02811887233174563,8.143866100186701e-19,0.6450976356117891,2.8828770857228456e-19,-0.6450976356117891,0.581757210205074,0.5684338983108053,0.5817572102050739,1000.0,32.14285714285738,[1.21406872]
-6.927627703964257e-18,0.6224025595510174,-7.321528681818959e-18,0.6224025595510174,-1.5309979900917345e-18,-0.0346359652155489,-7.321528681818959e-18,-0.0346359652155489,1.729125944771661e-18,0.623365539809565,8.649098197778307e-19,-0.623365539809565,0.576896571040609,0.5782565975785972,0.5768965710406088,1000.0,32.14285714285738,[1.21406872]
-7.107645366312946e-18,0.5723077564034017,-9.106886829921069e-18,0.5723077564034017,-2.4564542768609622e-18,-0.04908016536508866,-9.106886829921069e-18,-0.04908016536508866,2.4536054668313296e-18,0.5744084180021736,7.454331521373569e-19,-0.5744084180021736,0.5643902346374995,0.6024344994201914,0.5643902346374994,1000.0,32.14285714285738,[1.20260667]
-9.550160822671778e-18,0.3950529605076962,-1.1618269725165885e-17,0.3950529605076962,-7.178255157761698e-18,-0.07923522558924866,-1.1618269725165885e-17,-0.07923522558924866,2.0380522609612274e-18,0.40292066536735793,-2.928219059073401e-18,-0.4029206653673581,0.5130520851937735,0.6881534100450578,0.5130520851937738,1000.0,32.14285714285738,[0.97598547]
-9.310046834459885e-18,0.38956148104914357,-1.1555909612761278e-17,0.38956148104914357,-7.231127715335475e-18,-0.07493389175201717,-1.1555909612761278e-17,-0.07493389175201717,2.09139962020661e-18,0.3967029564426073,-2.726424967909027e-18,-0.39670295644260706,0.6112969971826245,0.5026250714707858,0.6112969971826245,1000.0,19.285714285714306,[0.93752623]
-5.940989830368156e-18,0.5655083061852177,-9.306805889121114e-18,0.5655083061852177,-2.6037784526791067e-18,-0.0438945445828172,-9.306805889121114e-18,-0.0438945445828172,2.1256531693724307e-18,0.5672092871318374,6.645081307183778e-19,-0.5672092871318374,0.6473516605367934,0.40233276674975443,0.6473516605367934,1000.0,19.285714285714306,[0.78051374]
-4.837822060798036e-18,0.6164777672605735,-7.769196709682337e-18,0.6164777672605735,-1.768975370781403e-18,-0.030306243641018128,-7.769196709682337e-18,-0.030306243641018128,1.0502612975912286e-18,0.6172222500284731,2.7597208029959046e-19,-0.6172222500284731,0.6551540867542224,0.37622632180441806,0.6551540867542224,1000.0,19.285714285714306,[0.78411043]
-4.258564021439402e-18,0.6385200371613171,-6.411162185675442e-18,0.6385200371613171,-1.4588620504128226e-18,-0.023915630030028577,-6.411162185675442e-18,-0.023915630030028577,-1.948721717889176e-19,0.6389677575717124,-6.787338601713457e-19,-0.6389677575717125,0.6582174852635853,0.3653758122626127,0.6582174852635854,1000.0,19.285714285714306,[0.78411043]
-3.837754082776525e-18,0.6500808489280719,-5.121134522524745e-18,0.6500808489280719,-1.3077394612218346e-18,-0.02027777445599477,-5.121134522524745e-18,-0.02027777445599477,-1.4979314451049272e-18,0.6503970312662345,-1.8235052324706283e-18,-0.6503970312662344,0.6598205617583873,0.3595464539690145,0.6598205617583873,1000.0,19.285714285714306,[0.78141022]
-3.5357802196354666e-18,0.6565470716582448,-3.86599630363577e-18,0.6565470716582448,-1.221529043420333e-18,-0.017984544542391186,-3.86599630363577e-18,-0.017984544542391186,-2.827104810359236e-18,0.6567933473668975,-3.0385067745834186e-18,-0.6567933473668974,0.6607810968323821,0.35600096086666483,0.6607810968323818,1000.0,19.285714285714306,[0.78016327]
-3.259581304381561e-18,0.6599821371574579,-2.6240550276370425e-18,0.6599821371574579,-1.188225097597723e-18,-0.016474546121222913,-2.6240550276370425e-18,-0.016474546121222913,-4.179475628711982e-18,0.6601877248456123,-4.308719789834881e-18,-0.6601877248456123,0.6613905621153184,0.3537301919395156,0.6613905621153183,1000.0,19.285714285714306,[0.78016327]
-3.04524226405682e-18,0.66126874181235,-1.4050738039009494e-18,0.66126874181235,-1.1933122583649241e-18,-0.015493974924000752,-1.4050738039009494e-18,-0.015493974924000752,-5.5437164888548634e-18,0.6614502340743662,-5.608502603552978e-18,-0.6614502340743663,0.661772612342777,0.3522981962855241,0.6617726123427767,1000.0,19.285714285714306,[0.78075748]
-2.84229846385061e-18,0.6607400937273538,-1.8667760365308444e-19,0.6607400937273538,-1.2263448889466167e-18,-0.01492933407754742,-1.8667760365308444e-19,-0.01492933407754742,-6.911620104750131e-18,0.6609087353597556,-6.917941980972059e-18,-0.6609087353597556,0.6619804822733931,0.3515162616127045,0.661980482273393,1000.0,19.285714285714306,[0.78075748]
-2.6789666888183392e-18,0.6583725510170849,1.01459182201187e-18,0.6583725510170849,-1.2751816323117475e-18,-0.01475090489213483,1.01459182201187e-18,-0.01475090489213483,-8.285289169514891e-18,0.6585377780567194,-8.236756831423297e-18,-0.6585377780567194,0.6620276139489851,0.35133869234404946,0.6620276139489851,1000.0,19.285714285714306,[0.78075748]
-2.560673243778356e-18,0.6537780638987346,2.216895637032822e-18,0.6537780638987346,-1.3637660584712763e-18,-0.015003269868344144,2.216895637032822e-18,-0.015003269868344144,-9.672117023464146e-18,0.6539501930131377,-9.564679629427566e-18,-0.6539501930131377,0.6618925707325678,0.35184719640500955,0.6618925707325679,1000.0,19.285714285714306,[0.78075748]
-2.509123348004051e-18,0.6459905403474111,3.401182424336604e-18,0.6459905403474111,-1.4920981674252032e-18,-0.01583551460006767,3.401182424336604e-18,-0.01583551460006767,-1.1069119198947803e-17,0.6461846034539893,-1.0900434256192353e-17,-0.6461846034539893,0.6615026255244961,0.35331084451003864,0.6615026255244961,1000.0,19.285714285714306,[0.78016327]
-2.537882763541295e-18,0.6327868430427575,4.5573584091009595e-18,0.6327868430427575,-1.6973481471792113e-18,-0.017608628197894008,4.5573584091009595e-18,-0.017608628197894008,-1.2491353691836779e-17,0.6330317942370915,-1.2229819271601902e-17,-0.6330317942370914,0.660671743796133,0.3564066412102246,0.6606717437961329,1000.0,19.285714285714306,[0.78016327]
-2.7614465220572267e-18,0.6083946190698277,5.674931322243538e-18,0.6083946190698277,-2.067015162929159e-18,-0.021247230110316793,5.674931322243538e-18,-0.021247230110316793,-1.394913048128593e-17,0.6087655191454928,-1.3542065185503364e-17,-0.6087655191454927,0.6588685240221079,0.3630213989641077,0.6588685240221079,1000.0,19.285714285714306,[0.78540735]
-3.562911743727206e-18,0.5531026628979062,6.664672363907631e-18,0.5531026628979062,-2.95570823455408e-18,-0.0296093004348676,6.664672363907631e-18,-0.0296093004348676,-1.5537545559236808e-17,0.5538946347248699,-1.4777137919151286e-17,-0.5538946347248698,0.6539876198403466,0.380263574630961,0.6539876198403466,1000.0,19.285714285714306,[0.78711648]
-6.858849290391698e-18,0.3652521934678317,7.239513052000078e-18,0.3652521934678317,-7.632640357488102e-18,-0.045915278612655014,7.239513052000078e-18,-0.045915278612655014,-1.7996068614809765e-17,0.3681268499351006,-1.6211960760598303e-17,-0.3681268499351005,0.6330854417824848,0.445427487708327,0.6330854417824848,1000.0,19.285714285714306,[0.87235301]
-6.986910084104707e-18,0.3621744928298856,8.00702147554899e-18,0.3621744928298856,-7.470258185799042e-18,-0.03966067341431599,8.00702147554899e-18,-0.03966067341431599,-1.8168760765653686e-17,0.36433958372960507,-1.63430969577035e-17,-0.36433958372960484,0.6898668277897617,0.2194709999762674,0.6898668277897617,1000.0,6.428571428571418,[0.43610227]
-3.671980470575998e-18,0.5492381015157225,8.406236416755098e-18,0.5492381015157225,-2.4731740785824966e-18,-0.021994892858240366,8.406236416755098e-18,-0.021994892858240366,-1.634606497717064e-17,0.5496783309067594,-1.5662206994618213e-17,-0.5496783309067594,0.6989299402213573,0.15163732167359012,0.6989299402213572,1000.0,6.428571428571418,[0.32884992]
-2.8743136622788623e-18,0.6049545284355166,8.420565252916048e-18,0.6049545284355166,-1.2688057241501887e-18,-0.014788303052875014,8.420565252916048e-18,-0.014788303052875014,-1.536987274034986e-17,0.6051352537919286,-1.495121845010988e-17,-0.6051352537919285,0.7005160125682036,0.13621538925939378,0.7005160125682036,1000.0,6.428571428571418,[0.32815929]
-2.6648582962906348e-18,0.6292638400686313,8.340645957263318e-18,0.6292638400686313,-5.906532794771647e-19,-0.011251446880810388,8.340645957263318e-18,-0.011251446880810388,-1.4516043677182823e-17,0.6293644218374851,-1.421370564724174e-17,-0.629364421837485,0.7011329718326021,0.12971164796720355,0.701132971832602,1000.0,6.428571428571418,[0.32686237]
-2.646951490390087e-18,0.6421495712205184,8.228219704308173e-18,0.6421495712205184,-6.864275595210045e-20,-0.009091673851726847,8.228219704308173e-18,-0.009091673851726847,-1.3685412067114226e-17,0.642213928805754,-1.345016914895452e-17,-0.642213928805754,0.7014694238380347,0.12602100952091963,0.7014694238380347,1000.0,6.428571428571418,[0.32686237]
-2.737570780856496e-18,0.6494838004694073,8.10488997010866e-18,0.6494838004694073,3.969341974621461e-19,-0.0075912562032624,8.10488997010866e-18,-0.0075912562032624,-1.2879198828728192e-17,0.6495281627788961,-1.2688446673895816e-17,-0.6495281627788962,0.7016873544482672,0.12357068104847369,0.7016873544482672,1000.0,6.428571428571418,[0.32686237]
-2.872143140351523e-18,0.6535241736717621,7.963348200362568e-18,0.6535241736717621,7.88170774865027e-19,-0.006460665548094329,7.963348200362568e-18,-0.006460665548094329,-1.207895452564234e-17,0.6535561075934365,-1.1920587879927744e-17,-0.6535561075934365,0.7018436732389437,0.12178225104231766,0.7018436732389435,1000.0,6.428571428571418,[0.32686237]
-3.068032744293881e-18,0.6552426199883231,7.818033453047468e-18,0.6552426199883231,1.1715392102813033e-18,-0.0055627379785404985,7.818033453047468e-18,-0.0055627379785404985,-1.1291326381259148e-17,0.6552662322315871,-1.1157907110126002e-17,-0.655266232231587,0.7019632187167104,0.12039634187861167,0.7019632187167104,1000.0,6.428571428571418,[0.32686237]
-3.2883407199188045e-18,0.6550144897397845,7.671675837775092e-18,0.6550144897397845,1.507427478537036e-18,-0.004826320068645595,7.671675837775092e-18,-0.004826320068645595,-1.0505054813080543e-17,0.655032270300079,-1.0391573548223923e-17,-0.6550322703000788,0.7020582328879619,0.11928317261233859,0.7020582328879618,1000.0,6.428571428571418,[0.32686237]
-3.561826482763536e-18,0.6528313743155955,7.525555623338518e-18,0.6528313743155955,1.823509734205799e-18,-0.004214376381783586,7.525555623338518e-18,-0.004214376381783586,-9.726651386888542e-18,0.6528449772029161,-9.629199185170465e-18,-0.6528449772029162,0.7021349217473091,0.11837695436950792,0.7021349217473092,1000.0,6.428571428571418,[0.32686237]
-3.862443769700008e-18,0.6482984087124023,7.368684542480593e-18,0.6482984087124023,2.1146309877101616e-18,-0.0037121713423094683,7.368684542480593e-18,-0.0037121713423094683,-8.953945580755806e-18,0.6483090366137956,-8.86936852626525e-18,-0.6483090366137957,0.7021957966722295,0.11765256593762217,0.7021957966722295,1000.0,6.428571428571418,[0.32686237]
-4.228176714456654e-18,0.6404139580281591,7.214526614031842e-18,0.6404139580281591,2.363969694113246e-18,-0.003326330714389757,7.214526614031842e-18,-0.003326330714389757,-8.182867666068575e-18,0.6404225965043036,-8.107829290012168e-18,-0.6404225965043037,0.7022399538296858,0.11712426943448188,0.7022399538296861,1000.0,6.428571428571418,[0.32686237]
-4.704606277507596e-18,0.6268634353651623,7.059215595809192e-18,0.6268634353651623,2.5264875234227643e-18,-0.003096520783736539,7.059215595809192e-18,-0.003096520783736539,-7.433494970654736e-18,0.6268710832689424,-7.363692168965262e-18,-0.6268710832689424,0.7022609937505947,0.11687169594411734,0.7022609937505948,1000.0,6.428571428571418,[0.32686237]
-5.382894379801079e-18,0.6016372401872516,6.891407119301785e-18,0.6016372401872516,2.5286580453501035e-18,-0.003137563027016821,6.891407119301785e-18,-0.003137563027016821,-6.706370124996123e-18,0.6016454213919369,-6.634458336093593e-18,-0.6016454213919369,0.7022382137647619,0.11714513330460179,0.7022382137647621,1000.0,6.428571428571418,[0.32815929]
-6.647223402476131e-18,0.5443002459426648,6.7095241646717876e-18,0.5443002459426648,2.0142443485707262e-18,-0.0037631843344127394,6.7095241646717876e-18,-0.0037631843344127394,-6.082345070886118e-18,0.5443132547436085,-5.989614375732853e-18,-0.5443132547436083,0.7020964904810088,0.11883196585305358,0.7020964904810086,1000.0,6.428571428571418,[0.31896429]
-1.0525946086631182e-17,0.3529107243616503,6.5114640388020906e-18,0.3529107243616503,-2.3023811344249977e-18,-0.0029926672415773,6.5114640388020906e-18,-0.0029926672415773,-6.228583985740594e-18,0.35292341297607815,-6.118447461734318e-18,-0.35292341297607815,0.7019640384210657,0.12038678302528417,0.7019640384210657,1000.0,6.428571428571418,[0.2629525]
-1.0286103413660206e-17,0.3528533114316559,6.250679220672804e-18,0.3528533114316559,-2.3864888591093895e-18,0.00397529729616092,6.250679220672804e-18,0.00397529729616092,-5.30258506848953e-18,0.3528757038630997,-5.444087004429731e-18,-0.3528757038630996,0.7017241597021696,0.12315196864268325,0.7017241597021694,1000.0,6.428571428571418,[0.2629525]
-5.922269078744856e-18,0.544128135442883,5.300651947397994e-18,0.544128135442883,1.773316414636081e-18,0.004768479792240289,5.300651947397994e-18,0.004768479792240289,-3.3143869830468742e-18,0.5441490293844852,-3.4075032873664195e-18,-0.5441490293844851,0.7019398728862689,0.12066826303886521,0.7019398728862689,1000.0,6.428571428571418,[0.31896429]
-4.171743144345836e-18,0.6013506827869521,4.3666661877424255e-18,0.6013506827869521,2.1227704449376834e-18,0.004165508118086263,4.3666661877424255e-18,0.004165508118086263,-2.090755246509431e-18,0.6013651096848035,-2.1513575548925625e-18,-0.6013651096848034,0.7020953882338825,0.11884498997193005,0.7020953882338825,1000.0,6.428571428571418,[0.32815929]
-3.011599174183063e-18,0.6264627767299967,3.4511976932794697e-18,0.6264627767299967,1.954012365087065e-18,0.004147205745071825,3.4511976932794697e-18,0.004147205745071825,-9.688667253160107e-19,0.6264765039039769,-1.0146454356934107e-18,-0.6264765039039769,0.7021211433848459,0.11854028861072372,0.702121143384846,1000.0,6.428571428571418,[0.32686237]
-2.0674221357905352e-18,0.6398996380664133,2.5382219075924416e-18,0.6398996380664133,1.629519336949863e-18,0.004399855962283727,2.5382219075924416e-18,0.004399855962283727,1.3402972901319218e-19,0.639914764269442,9.903385301565893e-20,-0.6399147642694422,0.702099678576775,0.11879428725649273,0.702099678576775,1000.0,6.428571428571418,[0.32686237]
-1.223089106055608e-18,0.6476709606781162,1.6314524580413994e-18,0.6476709606781162,1.2149496488280862e-18,0.004808625735378894,1.6314524580413994e-18,0.004808625735378894,1.2073528220823992e-18,0.6476888112258673,1.1830369996108025e-18,-0.6476888112258673,0.7020534897613172,0.11933899206844448,0.7020534897613171,1000.0,6.428571428571418,[0.32686237]
-4.3193386354048983e-19,0.6520914237727752,7.307197726007689e-19,0.6520914237727752,7.721631756509007e-19,0.00533383190843651,7.307197726007689e-19,0.00533383190843651,2.2828464370789454e-18,0.6521132376518918,2.2708158866736454e-18,-0.652113237651892,0.70198957511049,0.12008860425697107,0.70198957511049,1000.0,6.428571428571418,[0.32686237]
3.103846356094977e-19,0.6541627533986124,-1.67978048532981e-19,0.6541627533986124,2.827104810359236e-19,0.005968830405631518,-1.67978048532981e-19,0.005968830405631518,3.345859550993292e-18,0.6541899837741822,3.34867763554327e-18,-0.6541899837741824,0.7019090393503923,0.12102644734279622,0.7019090393503924,1000.0,6.428571428571418,[0.32686237]
1.0168895229583893e-18,0.6542799044255583,-1.068948134809414e-18,0.6542799044255583,-2.1433904032474056e-19,0.006728338326791749,-1.068948134809414e-18,0.006728338326791749,4.409415295389472e-18,0.6543144992064268,4.431092342530838e-18,-0.6543144992064266,0.7018093747823251,0.12217693290995633,0.701809374782325,1000.0,6.428571428571418,[0.32686237]
1.693007103324533e-18,0.6524513739429565,-1.960049129197477e-18,0.6524513739429565,-7.499153258956745e-19,0.00764937305145975,-1.960049129197477e-18,0.00764937305145975,5.461033169185288e-18,0.652496213221297,5.506617506905613e-18,-0.652496213221297,0.7016842164378512,0.1236063137707689,0.701684216437851,1000.0,6.428571428571418,[0.32686237]
2.3105205916525194e-18,0.6483018986579303,-2.8491830880888887e-18,0.6483018986579303,-1.3251036366405478e-18,0.0088030707877427,-2.8491830880888887e-18,0.0088030707877427,6.515906825872113e-18,0.6483616628539749,6.59237344680241e-18,-0.6483616628539749,0.7015209380410788,0.1254461915720446,0.7015209380410787,1000.0,6.428571428571418,[0.32686237]
2.8813678585427145e-18,0.640859634975134,-3.732110710844315e-18,0.640859634975134,-1.931221884850004e-18,0.010326579622052244,-3.732110710844315e-18,0.010326579622052244,7.552331046176554e-18,0.6409428289536847,7.671274779473925e-18,-0.6409428289536847,0.7012938726467095,0.12796018277714793,0.7012938726467097,1000.0,6.428571428571418,[0.32686237]
3.3512858558116397e-18,0.6278670213000562,-4.5922478533626806e-18,0.6278670213000562,-2.6100526176253214e-18,0.012509414733452634,-4.5922478533626806e-18,0.012509414733452634,8.578445287326134e-18,0.6279916256552938,8.757484331564375e-18,-0.6279916256552938,0.7009441615474027,0.1317367252713426,0.7009441615474027,1000.0,6.428571428571418,[0.32686237]
3.618260052874354e-18,0.6034520627704589,-5.42128548639089e-18,0.6034520627704589,-3.469579300851623e-18,0.01606929701770142,-5.42128548639089e-18,0.01606929701770142,9.56549013378361e-18,0.6036659791379377,9.853861322155833e-18,-0.6036659791379377,0.7003041562766508,0.1383769395647161,0.7003041562766507,1000.0,6.428571428571418,[0.32815929]
3.3143869830468742e-18,0.5476313113028412,-6.163536156730648e-18,0.5476313113028412,-4.839178637002623e-18,0.02329889239333587,-6.163536156730648e-18,0.02329889239333587,1.0436954687610277e-17,0.5481267111772841,1.094940827385597e-17,-0.548126711177284,0.698660306404991,0.15410240915757276,0.698660306404991,1000.0,6.428571428571418,[0.33056069]
4.688327363052552e-19,0.3604648065414894,-6.515805082656769e-18,0.3604648065414894,-9.995253475396761e-18,0.04098776786259896,-6.515805082656769e-18,0.04098776786259896,1.0460287798329173e-17,0.36278764293916027,1.1838067571448121e-17,-0.3627876429391603,0.6892169600709914,0.2235172563830436,0.6892169600709914,1000.0,6.428571428571418,[0.43040949]
2.734857628447322e-19,0.3634411095254501,-6.702639540433509e-18,0.3634411095254501,-1.00972680059817e-17,0.04728389102422219,-6.702639540433509e-18,0.04728389102422219,1.0302924958597085e-17,0.3665040333249839,1.1824195124332643e-17,-0.3665040333249837,0.6317184370644915,0.44929236867054834,0.6317184370644916,1000.0,19.28571428571425,[0.87235301]
2.4505192559658943e-18,0.5511930071708668,-7.289019604866224e-18,0.5511930071708668,-5.112664399847355e-18,0.031042641299042665,-7.289019604866224e-18,0.031042641299042665,1.023780930077691e-17,0.5520664604310648,1.1018352527696278e-17,-0.5520664604310646,0.6532382585975709,0.38283097446369946,0.6532382585975709,1000.0,19.28571428571425,[0.78556989]
2.0967241818096137e-18,0.6063880344444899,-7.46327181834542e-18,0.6063880344444899,-3.928644688483852e-18,0.02274437304922403,-7.46327181834542e-18,0.02274437304922403,9.305570132984748e-18,0.6068144319500435,9.853957385930847e-18,-0.6068144319500435,0.6582037672225982,0.3654252339781139,0.6582037672225981,1000.0,19.28571428571425,[0.78540735]
1.2024691477458861e-18,0.6306851223999631,-7.512820764217958e-18,0.6306851223999631,-3.2633797177544043e-18,0.019168965577124664,-7.512820764217958e-18,0.019168965577124664,8.247440693406915e-18,0.6309763647379778,8.700882067612973e-18,-0.6309763647379779,0.6600232493929643,0.3588016450930873,0.6600232493929644,1000.0,19.28571428571425,[0.78016327]
1.0201453058493981e-19,0.6437955597489937,-7.522588112890984e-18,0.6437955597489937,-2.7652449354300702e-18,0.017458482817447683,-7.522588112890984e-18,0.017458482817447683,7.150241859136977e-18,0.6440322362854264,7.551189735355419e-18,-0.6440322362854263,0.6608501373574147,0.3557445599153584,0.6608501373574148,1000.0,19.28571428571425,[0.78016327]
-1.0982840952336072e-18,0.6514917643495487,-7.504376077344404e-18,0.6514917643495487,-2.344163681526276e-18,0.016688287604143863,-7.504376077344404e-18,0.016688287604143863,6.031880436075483e-18,0.6517054687191496,6.410147949075654e-18,-0.6517054687191496,0.6612270960554661,0.3543408738546975,0.6612270960554664,1000.0,19.28571428571425,[0.78016327]
-2.3485047253809545e-18,0.6559969309892909,-7.470868645091106e-18,0.6559969309892909,-1.9632370832782563e-18,0.016497358476097776,-7.470868645091106e-18,0.016497358476097776,4.892356424222432e-18,0.656204340357527,5.2637620450331984e-18,-0.656204340357527,0.6613439513725589,0.3539044446822632,0.6613439513725589,1000.0,19.28571428571425,[0.78016327]
-3.633453706365728e-18,0.658277204220127,-7.425999887124393e-18,0.658277204220127,-1.619209357795002e-18,0.016736573873727484,-7.425999887124393e-18,0.016736573873727484,3.75608819526039e-18,0.6584899319662358,4.129755306524802e-18,-0.6584899319662358,0.661274831364078,0.35416266715849704,0.661274831364078,1000.0,19.28571428571425,[0.78016327]
-4.981347823243337e-18,0.6587206823044903,-7.37889277842011e-18,0.6587206823044903,-1.291460546766791e-18,0.01736131527352506,-7.37889277842011e-18,0.01736131527352506,2.6100526176253214e-18,0.6589494309609197,2.9882595381212162e-18,-0.6589494309609196,0.6610414752322512,0.35503286614838525,0.6610414752322512,1000.0,19.28571428571425,[0.78016327]
-6.335753505902964e-18,0.657351052033387,-7.315337183235211e-18,0.657351052033387,-9.91928520793989e-19,0.01840126684631122,-7.315337183235211e-18,0.01840126684631122,1.4509939084262182e-18,0.6576085554727445,1.857369921864254e-18,-0.6576085554727447,0.6606299448269487,0.3565615683102781,0.6606299448269487,1000.0,19.28571428571425,[0.78016327]
-7.731399105182033e-18,0.6538351470981504,-7.241573352110795e-18,0.6538351470981504,-7.260395846949439e-19,0.019969893537977304,-7.241573352110795e-18,0.019969893537977304,2.8433837248142795e-19,0.6541400432849053,7.2856234729931455e-19,-0.6541400432849054,0.6599855178061488,0.3589404303952098,0.6599855178061488,1000.0,19.28571428571425,[0.78141022]
-9.192160362281277e-18,0.6472903105226622,-7.153463727622871e-18,0.6472903105226622,-5.111579138883686e-19,0.022320971734064818,-7.153463727622871e-18,0.022320971734064818,-9.018518608094146e-19,0.6476750511449992,-4.2231568249237487e-19,-0.6476750511449992,0.6589811997805624,0.3626121297909669,0.6589811997805625,1000.0,19.28571428571425,[0.78411043]
-1.0720207799128035e-17,0.6356531491851669,-7.021299290890986e-18,0.6356531491851669,-3.765855543933416e-19,0.026015875013012245,-7.021299290890986e-18,0.026015875013012245,-2.110832574337318e-18,0.6361853124850596,-1.5554128163264542e-18,-0.6361853124850595,0.657317623187832,0.3686015253541396,0.6573176231878319,1000.0,19.28571428571425,[0.78411043]
-1.2443602209435318e-17,0.6135368369301136,-6.82998813163911e-18,0.6135368369301136,-3.939497298120548e-19,0.03246273255904178,-6.82998813163911e-18,0.03246273255904178,-3.388184728576405e-18,0.6143950514737312,-2.6973349172173146e-18,-0.6143950514737313,0.6541543464036774,0.3796895865866692,0.6541543464036772,1000.0,19.28571428571425,[0.78411043]
-1.4685751360376652e-17,0.5624957089752917,-6.458252337177167e-18,0.5624957089752917,-9.289833849011539e-19,0.04610653130516262,-6.458252337177167e-18,0.04610653130516262,-4.834837593147945e-18,0.5643821709131233,-3.8396222070228366e-18,-0.5643821709131231,0.6461164314162827,0.4062845235887977,0.6461164314162827,1000.0,19.28571428571425,[0.78652047]
-1.9198266447314734e-17,0.38647978089143065,-5.370651279554681e-18,0.38647978089143065,-5.2591746299427474e-18,0.07720094528671557,-5.370651279554681e-18,0.07720094528671557,-7.386286118735109e-18,0.39411496671789864,-6.02273086217556e-18,-0.3941149667178992,0.6087489313179706,0.5087725201290426,0.6087489313179706,1000.0,19.28571428571425,[0.88649495]
-1.885532398279515e-17,0.39190599814047916,-4.637998385862376e-18,0.39190599814047916,-5.131113836229738e-18,0.08156936411296609,-4.637998385862376e-18,0.08156936411296609,-8.178526622213897e-18,0.40030472460399324,-6.682814234551481e-18,-0.40030472460399324,0.5095043868186335,0.6934050473029,0.5095043868186334,1000.0,32.142857142857125,[0.97598547]
-1.418436079516131e-17,0.5691035781566673,-4.658720087387442e-18,0.5691035781566673,-5.40459959907447e-19,0.05150222192191694,-4.658720087387442e-18,0.05150222192191694,-6.717765365114653e-18,0.5714292270558237,-6.047541542851164e-18,-0.5714292270558238,0.5623809226035871,0.6061809925946838,0.5623809226035871,1000.0,32.142857142857125,[1.20260667]
-1.1757717280396146e-17,0.6191429943228545,-3.941633905642772e-18,0.6191429943228545,2.6480367513537564e-19,0.03714397501374263,-3.941633905642772e-18,0.03714397501374263,-6.392187076013782e-18,0.6202561747366095,-5.923801401921744e-18,-0.6202561747366098,0.5751209800128169,0.5817832213962466,0.575120980012817,1000.0,32.142857142857125,[1.21406872]
-9.810759111572934e-18,0.6411716663658589,-3.027640687802304e-18,0.6411716663658589,5.534830914714819e-19,0.030711381752959777,-3.027640687802304e-18,0.030711381752959777,-6.261955760373433e-18,0.6419067648183401,-5.990583735086174e-18,-0.6419067648183403,0.580039699640126,0.571933469629803,0.5800396996401261,1000.0,32.142857142857125,[1.21406872]
-8.052636350428227e-18,0.6531447206378511,-2.036526112731067e-18,0.6531447206378511,6.815438851844914e-19,0.027368369662788942,-2.036526112731067e-18,0.027368369662788942,-6.213119017008302e-18,0.6537178701512568,-6.033899241173209e-18,-0.6537178701512567,0.5824494591190195,0.567014334160896,0.5824494591190192,1000.0,32.142857142857125,[1.23990775]
-6.372652378667729e-18,0.6602694118500712,-1.008580493705294e-18,0.6602694118500712,7.227838018039352e-19,0.02556366509921004,-1.008580493705294e-18,0.02556366509921004,-6.189243275807572e-18,0.6607641010210401,-6.105716779612057e-18,-0.6607641010210401,0.5837216066660574,0.5643918601666693,0.5837216066660574,1000.0,32.142857142857125,[1.25550046]
-4.731737801599335e-18,0.6645470656210269,4.20877767473106e-20,0.6645470656210269,7.249543237312743e-19,0.02468644381523071,4.20877767473106e-20,0.02468644381523071,-6.19358431966225e-18,0.6650054307550878,-6.194559215428985e-18,-0.6650054307550879,0.5843462537259035,0.5630976038956337,0.5843462537259038,1000.0,32.142857142857125,[1.25550046]
-3.1233810534410295e-18,0.6668499320230301,1.115275212196059e-18,0.6668499320230301,6.90225972893848e-19,0.02447467176863004,1.115275212196059e-18,0.02447467176863004,-6.199010624480598e-18,0.6672989145782435,-6.275952951756431e-18,-0.6672989145782434,0.5845234802403587,0.5627295994484375,0.5845234802403585,1000.0,32.142857142857125,[1.25550046]
-1.5497526561201495e-18,0.6675341722168995,2.191921916966504e-18,0.6675341722168995,6.272808370010128e-19,0.024833260431914656,2.191921916966504e-18,0.024833260431914656,-6.229397931463346e-18,0.6679959295542004,-6.3949349743591544e-18,-0.6679959295542005,0.5843248972780588,0.5631419260204056,0.584324897278059,1000.0,32.142857142857125,[1.25550046]
-2.1705219273391446e-21,0.6666339652967904,3.2890529224262126e-18,0.6666339652967904,5.426304818347862e-19,0.025778708399273677,3.2890529224262126e-18,0.025778708399273677,-6.2684673261554504e-18,0.6671322099059953,-6.5095923450382594e-18,-0.6671322099059951,0.583740359771887,0.5643530674558052,0.5837403597718868,1000.0,32.142857142857125,[1.25550046]
1.5237063929920795e-18,0.6638724308671645,4.399139230639726e-18,0.6638724308671645,4.3193386354048983e-19,0.02744436159059364,4.399139230639726e-18,0.02744436159059364,-6.327071418193607e-18,0.6644394610862553,-6.6665048095223744e-18,-0.6644394610862552,0.5826745644255036,0.5665515898337058,0.5826745644255035,1000.0,32.142857142857125,[1.25550046]
2.986638172018663e-18,0.658497865066724,5.536696206996126e-18,0.658497865066724,2.669741970627148e-19,0.03015038478211593,5.536696206996126e-18,0.03015038478211593,-6.406295468541486e-18,0.6591877456384813,-6.899949857680449e-18,-0.6591877456384814,0.5808907658474082,0.5702033289155923,0.5808907658474082,1000.0,32.142857142857125,[1.25550046]
4.3887953370797504e-18,0.6487397686567689,6.7170192482021305e-18,0.6487397686567689,3.255782891008717e-20,0.03461884472365145,6.7170192482021305e-18,0.03461884472365145,-6.5397825670728435e-18,0.6496627985707957,-7.22006166540733e-18,-0.6496627985707959,0.577826857814127,0.5763959097506727,0.5778268578141268,1000.0,32.142857142857125,[1.21406872]
5.6346749233724194e-18,0.6299479970820071,7.983925765665897e-18,0.6299479970820071,-3.75500293429672e-19,0.0426694011129389,7.983925765665897e-18,0.0426694011129389,-6.7579200207704275e-18,0.6313914449998266,-7.783441741472342e-18,-0.6313914449998265,0.5719318441818609,0.5880373552942626,0.571931844181861,1000.0,32.142857142857125,[1.21406872]
6.476837431180008e-18,0.5859962438563163,9.489182722275594e-18,0.5859962438563163,-1.2827784590574345e-18,0.06001899408926751,9.489182722275594e-18,0.06001899408926751,-7.254969542131091e-18,0.5890618621717072,-9.11416269389253e-18,-0.5890618621717073,0.5572774764671593,0.6155352373705262,0.5572774764671594,1000.0,32.142857142857125,[1.26161134]
5.4089406429291484e-18,0.4258423012926245,1.1883709295397161e-17,0.4258423012926245,-5.999322607165396e-18,0.0983545483493896,1.1883709295397161e-17,0.0983545483493896,-9.222547669264025e-18,0.4370529518847927,-1.3548148265562646e-17,-0.4370529518847929,0.4987058455061902,0.7089322670861524,0.4987058455061905,1000.0,32.142857142857125,[0.99977933]
6.083972962331622e-18,0.4326387387177991,1.2399309996355553e-17,0.4326387387177991,-6.0709498307675875e-18,0.09992663191430089,1.2399309996355553e-17,0.09992663191430089,-9.707659320024324e-18,0.44402883915919694,-1.5283764564947887e-17,-0.44402883915919716,0.37465146119057735,0.8480993840674159,0.3746514611905774,1000.0,45.0,[1.12535072]
7.876824074313756e-18,0.5943281482002722,1.08955452735709e-17,0.5943281482002722,-1.4976601298640098e-18,0.06198783983402676,1.08955452735709e-17,0.06198783983402676,-8.115581486321062e-18,0.5975520396002794,-1.0325364815802022e-17,-0.5975520396002793,0.4454342660451333,0.7766444677364714,0.4454342660451333,1000.0,45.0,[1.43204611]
7.800855806856886e-18,0.6370925918064579,1.028779913391594e-17,0.6370925918064579,-7.3580693336797e-19,0.044413027878172015,1.028779913391594e-17,0.044413027878172015,-8.021163782481809e-18,0.6386387770719666,-9.348777627342665e-18,-0.6386387770719666,0.4640178338728547,0.7545693471748556,0.4640178338728548,1000.0,45.0,[1.42995016]
7.347216724043005e-18,0.6558368433776084,9.928509926131082e-18,0.6558368433776084,-4.688327363052552e-19,0.036397406544116856,9.928509926131082e-18,0.036397406544116856,-8.233874931361045e-18,0.6568460522334308,-9.291397994503763e-18,-0.6568460522334307,0.4715255840598049,0.7452028228302143,0.4715255840598049,1000.0,45.0,[1.42900381]
6.759005281734097e-18,0.6660755157068163,9.655668536983529e-18,0.6660755157068163,-3.8201185921168945e-19,0.03208460811691079,9.655668536983529e-18,0.03208460811691079,-8.548600610825221e-18,0.6668478197475924,-9.434085629367418e-18,-0.6668478197475922,0.47536401020991337,0.7403094728519277,0.4753640102099134,1000.0,45.0,[1.43555317]
6.09048452811364e-18,0.6722348004479993,9.427967221043607e-18,0.6722348004479993,-3.6681820572031544e-19,0.02960396383494039,9.427967221043607e-18,0.02960396383494039,-8.919759860400215e-18,0.6728863363214487,-9.72211303387103e-18,-0.6728863363214488,0.47751812001876026,0.7375316197340273,0.4775181200187603,1000.0,45.0,[1.43555317]
5.382894379801079e-18,0.6760077625425693,9.227499172410768e-18,0.6760077625425693,-3.906939469210461e-19,0.028215816333036634,9.227499172410768e-18,0.028215816333036634,-9.324562199848965e-18,0.6765963547855917,-1.0064250659450416e-17,-0.6765963547855918,0.47871374241649056,0.7359798269267956,0.4787137424164906,1000.0,45.0,[1.43368455]
4.6753042314885175e-18,0.678133089977726,9.050109876458465e-18,0.678133089977726,-4.536390828138812e-19,0.0275971027920676,9.050109876458465e-18,0.0275971027920676,-9.74564345375276e-18,0.6786943994208694,-1.045507879136734e-17,-0.6786943994208694,0.47925545557821125,0.7352743818446571,0.4792554555782114,1000.0,45.0,[1.4545209]
3.915621556919817e-18,0.67891629887131,8.879079531465163e-18,0.67891629887131,-5.40459959907447e-19,0.02762107926683776,8.879079531465163e-18,0.02762107926683776,-1.0194941492711962e-17,0.6794779355453586,-1.0891046453362441e-17,-0.6794779355453588,0.47926149292966597,0.7352665114022637,0.4792614929296661,1000.0,45.0,[1.4545209]
3.14725679464176e-18,0.6783953302455941,8.730398779442432e-18,0.6783953302455941,-6.533271001290825e-19,0.0282877689063379,8.730398779442432e-18,0.0282877689063379,-1.0659433185162539e-17,0.6789848466414599,-1.1359631622840895e-17,-0.6789848466414599,0.47873495598241783,0.7359522293199642,0.47873495598241783,1000.0,45.0,[1.4545209]
2.3615278569449893e-18,0.6763526732400906,8.594927688211866e-18,0.6763526732400906,-7.987520692608053e-19,0.029723962696150262,8.594927688211866e-18,0.029723962696150262,-1.1145630096886508e-17,0.6770055040820415,-1.1878264620148319e-17,-0.6770055040820416,0.4775653274936892,0.7374704848003687,0.4775653274936893,1000.0,45.0,[1.43555317]
1.545411612265471e-18,0.6721834467904021,8.484468470753372e-18,0.6721834467904021,-9.832464330846325e-19,0.03225277339571494,8.484468470753372e-18,0.03225277339571494,-1.1675237447157259e-17,0.672956779838602,-1.2476853180359965e-17,-0.6729567798386021,0.47546194092001304,0.7401836836037041,0.4754619409200131,1000.0,45.0,[1.43555317]
6.772028413298131e-19,0.6644507966395945,8.423812557205778e-18,0.6644507966395945,-1.2523911520746864e-18,0.03661391640816644,8.423812557205778e-18,0.03661391640816644,-1.2269960455248185e-17,0.6654588191839793,-1.3123175825374087e-17,-0.6654588191839792,0.471732331236751,0.7449410817855869,0.471732331236751,1000.0,45.0,[1.42900381]
-3.0821411368215854e-19,0.6493468973323043,8.458286550004844e-18,0.6493468973323043,-1.6843250156151764e-18,0.0446781433018754,8.458286550004844e-18,0.0446781433018754,-1.2999255822834139e-17,0.6508821164880727,-1.4117437032040283e-17,-0.6508821164880725,0.4644994375425502,0.7539764883902609,0.4644994375425501,1000.0,45.0,[1.42995016]
-1.5801399631028975e-18,0.6133870279463344,8.7263968796389e-18,0.6133870279463344,-2.628502054007704e-18,0.0623020017127121,8.7263968796389e-18,0.0623020017127121,-1.4104051483849762e-17,0.616542930760096,-1.5652668403670152e-17,-0.6165429307600958,0.4469153717764842,0.7749408370577552,0.4469153717764844,1000.0,45.0,[1.43074919]
-4.362749073951681e-18,0.47066273232986733,9.905312473032645e-18,0.47066273232986733,-7.366751421389057e-18,0.100290886398715,9.905312473032645e-18,0.100290886398715,-1.709937174357778e-17,0.4812293315030331,-2.0931057044605606e-17,-0.4812293315030332,0.3848184448507766,0.8389454863131808,0.3848184448507768,1000.0,45.0,[1.35955975]
-4.071899135688235e-18,0.4774757049158981,9.434436393819231e-18,0.4774757049158981,-7.477448039683353e-18,0.09876331227491672,9.434436393819231e-18,0.09876331227491672,-1.6489455081995482e-17,0.4875830602435309,-1.9841305406057358e-17,-0.48758306024353076,0.24712921514040992,0.936938793117336,0.24712921514040984,1000.0,57.8571428571429,[1.35898069]
-1.2632437617113822e-18,0.6217711309252585,7.462262864793258e-18,0.6217711309252585,-2.9605919088905933e-18,0.060478142293407235,7.462262864793258e-18,0.060478142293407235,-1.1679578491011937e-17,0.6247054865673394,-1.3028428210793067e-17,-0.6247054865673397,0.31647349396129354,0.8942533507009419,0.3164734939612937,1000.0,57.8571428571429,[1.41841905]
5.2092526256139477e-20,0.656579090614773,6.391237472670571e-18,0.656579090614773,-2.248660716723354e-18,0.04317879324158766,6.391237472670571e-18,0.04317879324158766,-8.775420152232162e-18,0.6579973483368472,-9.579691590736646e-18,-0.657997348336847,0.3361034011069497,0.8798119159960736,0.33610340110694975,1000.0,57.8571428571429,[1.46013456]
1.111307226797642e-18,0.6716709133018827,5.5500584826113075e-18,0.6716709133018827,-2.0446316555534742e-18,0.035178887578800194,5.5500584826113075e-18,0.035178887578800194,-6.279319935792146e-18,0.6725915327351862,-6.833968201067278e-18,-0.6725915327351862,0.34437317551109353,0.8733923700014853,0.3443731755110936,1000.0,57.8571428571429,[1.46013456]
2.0619958309721874e-18,0.6799197419763415,4.794225093023122e-18,0.6799197419763415,-2.0077327827887088e-18,0.03076162256530078,4.794225093023122e-18,0.03076162256530078,-3.9394972981205475e-18,0.6806152605929615,-4.359261368602108e-18,-0.6806152605929615,0.34875862806582486,0.8699050745335882,0.34875862806582486,1000.0,57.8571428571429,[1.48314896]
2.9779560843093064e-18,0.6849095191841984,4.091624601563058e-18,0.6849095191841984,-2.0381200897714568e-18,0.028107378157472537,4.091624601563058e-18,0.028107378157472537,-1.6734724059784807e-18,0.6854860131147952,-2.006805887151315e-18,-0.6854860131147954,0.3513372592067544,0.8678273218712187,0.3513372592067544,1000.0,57.8571428571429,[1.48314896]
3.8635290306636774e-18,0.6879997207314607,3.403412296472894e-18,0.6879997207314607,-2.1271114887923617e-18,0.026494098491150486,3.403412296472894e-18,0.026494098491150486,5.513125695441427e-19,0.6885096607756691,2.8992093027293973e-19,-0.688509660775669,0.3528857261642551,0.8665698636226933,0.3528857261642551,1000.0,57.8571428571429,[1.48321186]
4.727396757744657e-18,0.6897822603928178,2.737604695261611e-18,0.6897822603928178,-2.237808107086658e-18,0.02560161701098191,2.737604695261611e-18,0.02560161701098191,2.745710238084018e-18,0.6902572053562365,2.5420048412065625e-18,-0.6902572053562364,0.35373796581711964,0.8658746462849763,0.3537379658171196,1000.0,57.8571428571429,[1.46659235]
5.5912644848256365e-18,0.6905033278745969,2.0866081506590023e-18,0.6905033278745969,-2.3832330762183808e-18,0.025296578560359197,2.0866081506590023e-18,0.025296578560359197,4.909720599641145e-18,0.6909665423830258,4.756205063107918e-18,-0.6909665423830258,0.3540317320467534,0.8656344871872605,0.3540317320467535,1000.0,57.8571428571429,[1.46644272]
6.429085948778547e-18,0.6901971404434782,1.4480709106353972e-18,0.6901971404434782,-2.5438516988414775e-18,0.025562470159685165,1.4480709106353972e-18,0.025562470159685165,7.056366785779559e-18,0.6906703501360248,6.958221528584084e-18,-0.6906703501360247,0.35378628482282554,0.8658351629164324,0.35378628482282554,1000.0,57.8571428571429,[1.46659235]
7.2582253250221e-18,0.6886968657226918,8.273419127724756e-19,0.6886968657226918,-2.7348576284473222e-18,0.026494362441866072,8.273419127724756e-19,0.026494362441866072,9.163943577225869e-18,0.6892063000999482,9.094421043404405e-18,-0.6892063000999483,0.3529093421273612,0.8665506289181643,0.35290934212736125,1000.0,57.8571428571429,[1.48321186]
8.065659481992261e-18,0.6855312140274664,2.310842778501109e-19,0.6855312140274664,-2.988808693946002e-18,0.028354270221535968,2.310842778501109e-19,0.028354270221535968,1.1225939408198056e-17,0.686117344224563,1.1207005433405928e-17,-0.686117344224563,0.351139411590284,0.8679874580061963,0.3511394115902841,1000.0,57.8571428571429,[1.48314896]
8.82968320041564e-18,0.679571618824203,-3.313818916761203e-19,0.679571618824203,-3.3057048953375176e-18,0.03175300194357662,-3.313818916761203e-19,0.03175300194357662,1.3192432274367323e-17,0.6803130442992963,1.3219375672189928e-17,-0.6803130442992966,0.34784856518226476,0.8706335345030536,0.34784856518226487,1000.0,57.8571428571429,[1.48314896]
9.545955436437558e-18,0.6677913493409572,-8.238487290456642e-19,0.6677913493409572,-3.791901807061486e-18,0.03824183341036277,-8.238487290456642e-19,0.03824183341036277,1.500047703984083e-17,0.6688854341942286,1.5077684197287897e-17,-0.668885434194229,0.3413575842785623,0.8757568151667496,0.3413575842785624,1000.0,57.8571428571429,[1.46013456]
1.0053857567434918e-17,0.6391462648398174,-1.1023199094422534e-18,0.6391462648398174,-4.7946829374921705e-18,0.05265691919558767,-1.1023199094422534e-18,0.05265691919558767,1.631798384973569e-17,0.6413117019031078,1.640634378939221e-17,-0.6413117019031076,0.32577305341563184,0.8875493424799049,0.32577305341563184,1000.0,57.8571428571429,[1.41335777]
9.41572412079721e-18,0.5119707953409565,-6.586770975359224e-19,0.5119707953409565,-9.587195353057002e-18,0.08278194298169855,-6.586770975359224e-19,0.08278194298169855,1.5384659420979857e-17,0.5186202323144333,1.501025202099606e-17,-0.5186202323144331,0.2758118938794526,0.9207907462552277,0.2758118938794526,1000.0,57.8571428571429,[1.35643088]
9.71959719062469e-18,0.5174492130229567,-6.171997800806759e-19,0.5174492130229567,-9.526420739091506e-18,0.07846534061748718,-6.171997800806759e-19,0.07846534061748718,1.5701555622371372e-17,0.5233645935065684,1.561084067954289e-17,-0.5233645935065685,0.13083916023330613,0.9827320226281865,0.13083916023330613,1000.0,70.71428571428567,[1.35518006]
1.0466256733629355e-17,0.6459180970530309,-5.886862439805136e-19,0.6459180970530309,-4.6015064859589866e-18,0.04742560696690123,-5.886862439805136e-19,0.04742560696690123,1.7752698843706864e-17,0.6476568352891737,1.7862522078757208e-17,-0.6476568352891736,0.18404232724632233,0.9655344859524776,0.18404232724632233,1000.0,70.71428571428567,[1.42484559]
1.0092926962127022e-17,0.67367252645054,1.5234350777511621e-19,0.67367252645054,-3.470664561815292e-18,0.033836101136439485,1.5234350777511621e-19,0.033836101136439485,1.7522623519408915e-17,0.6745217228780471,1.7493558313093765e-17,-0.6745217228780473,0.19976837055204136,0.959262840025592,0.19976837055204136,1000.0,70.71428571428567,[1.46909872]
9.572001699565628e-18,0.685476254135885,1.0728143769924869e-18,0.685476254135885,-2.852065812523636e-18,0.02744347531673254,1.0728143769924869e-18,0.02744347531673254,1.6782475542186266e-17,0.6860253926216032,1.6670783311148678e-17,-0.686025392621603,0.20665617695742652,0.9563401325107513,0.20665617695742652,1000.0,70.71428571428567,[1.48681612]
8.977278691474702e-18,0.6918830973597107,2.066353832029423e-18,0.6918830973597107,-2.402767773564433e-18,0.023802763222599558,2.066353832029423e-18,0.023802763222599558,1.5866515288849147e-17,0.6922924179485848,1.5722424817314116e-17,-0.6922924179485848,0.21045667808686364,0.9546810846022269,0.21045667808686358,1000.0,70.71428571428567,[1.4815412]
8.343486288691672e-18,0.6957403065026991,3.0890766326675362e-18,0.6957403065026991,-2.0294380020621002e-18,0.021505784803524493,3.0890766326675362e-18,0.021505784803524493,1.4861563636491123e-17,0.6960726060350925,1.4662444650896963e-17,-0.6960726060350928,0.2128103413235754,0.953636994485578,0.21281034132357546,1000.0,70.71428571428567,[1.48009749]
7.709693885908642e-18,0.6981144374979517,4.125093880110602e-18,0.6981144374979517,-1.6995186691065504e-18,0.01999109607158785,4.125093880110602e-18,0.01999109607158785,1.3802348935949622e-17,0.6984006097972889,1.356156154048002e-17,-0.698400609797289,0.21434238532799654,0.9529505148242532,0.21434238532799657,1000.0,70.71428571428567,[1.47953463]
7.049855219997542e-18,0.6994664162057839,5.180306680848573e-18,0.6994664162057839,-1.4130097746977831e-18,0.019004843021379777,5.180306680848573e-18,0.019004843021379777,1.2701894318788676e-17,0.6997245539910902,1.2417070560464928e-17,-0.6997245539910902,0.21532879982721556,0.9525056513900281,0.2153287998272156,1000.0,70.71428571428567,[1.47953463]
6.4030396856504774e-18,0.6999861051321349,6.246321219615568e-18,0.6999861051321349,-1.139524011853051e-18,0.01843348001483054,6.246321219615568e-18,0.01843348001483054,1.1566711350790302e-17,0.7002287773031848,1.1233136919632797e-17,-0.7002287773031848,0.2158916707004315,0.9522507931445123,0.21589167070043158,1000.0,70.71428571428567,[1.47786138]
5.7258368443206635e-18,0.6996971826377164,7.320288686381953e-18,0.6996971826377164,-9.029371217730842e-19,0.01824724104338894,7.320288686381953e-18,0.01824724104338894,1.0398970553881842e-17,0.6999350749868547,1.0017632343454518e-17,-0.6999350749868548,0.21606344802104252,0.952172869209429,0.21606344802104252,1000.0,70.71428571428567,[1.47953463]
5.057316090700207e-18,0.6984647024943487,8.398698940218361e-18,0.6984647024943487,-6.793733632571523e-19,0.018490663005978437,8.398698940218361e-18,0.018490663005978437,9.200842449990634e-18,0.6987094140262601,8.752268734685748e-18,-0.6987094140262602,0.2157979839283097,0.9522932637927006,0.21579798392830976,1000.0,70.71428571428567,[1.47953463]
4.3736016835883764e-18,0.6959112153470538,9.493252450889354e-18,0.6959112153470538,-5.187547406340556e-19,0.01931278767698875,9.493252450889354e-18,0.01931278767698875,7.939769210206591e-18,0.6961791460634755,7.41168938840789e-18,-0.6961791460634756,0.2149375317804122,0.9526823787938393,0.21493753178041217,1000.0,70.71428571428567,[1.47953463]
3.666011535275815e-18,0.6911299686341836,1.0615564902146708e-17,0.6911299686341836,-4.2759281968581154e-19,0.021074561779824853,1.0615564902146708e-17,0.021074561779824853,6.581022483692287e-18,0.6914512063034525,5.924035215301344e-18,-0.6914512063034526,0.21309175107841685,0.9535113063014344,0.21309175107841685,1000.0,70.71428571428567,[1.48258899]
2.912840426489132e-18,0.6816593442930965,1.178462836085464e-17,0.6816593442930965,-4.970495213606641e-19,0.024700562111089012,1.178462836085464e-17,0.024700562111089012,5.018246696008102e-18,0.682106721437854,4.162065326801163e-18,-0.682106721437854,0.2092204371524464,0.9552243806328847,0.20922043715244643,1000.0,70.71428571428567,[1.48681612]
2.0316085239894394e-18,0.6582113417186318,1.3069831699877776e-17,0.6582113417186318,-1.0896020075242506e-18,0.03304871784182158,1.3069831699877776e-17,0.03304871784182158,2.9063288607071146e-18,0.6590405056732324,1.6000904769801855e-18,-0.6590405056732322,0.19977949752533408,0.9592582054572429,0.19977949752533408,1000.0,70.71428571428567,[1.46909872]
2.973615040454628e-19,0.5416320127390313,1.4770740859594026e-17,0.5416320127390313,-5.474056300749323e-18,0.04933937233284874,1.4770740859594026e-17,0.04933937233284874,-1.7277354541619593e-18,0.5438746279115559,-4.3604386831863035e-18,-0.543874627911556,0.17203180570818266,0.9699536667540177,0.17203180570818272,1000.0,70.71428571428567,[1.36641264]
-5.10072652924699e-19,0.5446966596845055,1.5082244670572308e-17,0.5446966596845055,-5.3807238578737395e-18,0.04308482948671426,1.5082244670572308e-17,0.04308482948671426,-3.266635500645413e-18,0.5463979809656669,-5.584171114760254e-18,-0.5463979809656669,0.023517799756530046,0.999446760057395,0.023517799756530094,1000.0,83.57142857142856,[1.41037008]
-6.272808370010128e-19,0.6620482694366868,1.4566898327652277e-17,0.6620482694366868,-8.269688543162142e-19,0.025434456201596102,1.4566898327652277e-17,0.025434456201596102,-1.4477381255352095e-18,0.6625366575717773,-2.5662104238468762e-18,-0.6625366575717774,0.05213768338864844,0.9972779572123962,0.05213768338864845,1000.0,83.57142857142856,[1.46953912]
-1.5779694411755583e-18,0.6850556976145401,1.4437073984873304e-17,0.6850556976145401,-5.86040920381569e-20,0.01824172467281256,1.4437073984873304e-17,0.01824172467281256,-2.161839839629788e-18,0.6852985257193994,-2.931469612521518e-18,-0.6852985257193998,0.060438906123990714,0.9963404424457891,0.06043890612399075,1000.0,83.57142857142856,[1.4935297]
-2.669741970627148e-18,0.6945927843612255,1.4396953243622645e-17,0.6945927843612255,1.9534697346052304e-19,0.014717171951009961,1.4396953243622645e-17,0.014717171951009961,-3.4359362109778663e-18,0.6947486820692184,-4.045758900532928e-18,-0.6947486820692182,0.06426830027300355,0.9958610200023087,0.06426830027300358,1000.0,83.57142857142856,[1.4860572]
-3.787560763206807e-18,0.699675525369723,1.438686370810103e-17,0.699675525369723,2.821678505540888e-19,0.01256809680848605,1.438686370810103e-17,0.01256809680848605,-4.927084775059858e-18,0.6997883950586674,-5.443583025321861e-18,-0.6997883950586676,0.06653838880250537,0.9955627984367101,0.0665383888025054,1000.0,83.57142857142856,[1.48676511]
-4.92274373120518e-18,0.7026659412396645,1.4404957043229708e-17,0.7026659412396645,3.0387306982748025e-19,0.011076712644952132,1.4404957043229708e-17,0.011076712644952132,-6.513736303944774e-18,0.7027532415729171,-6.966792574475522e-18,-0.7027532415729172,0.06808575211143282,0.9953535355434475,0.06808575211143286,1000.0,83.57142857142856,[1.48509186]
-6.073120352694927e-18,0.7044363531149912,1.442321995038396e-17,0.7044363531149912,2.626331532080365e-19,0.009953431835148775,1.442321995038396e-17,0.009953431835148775,-8.163332968722523e-18,0.704506668808213,-8.570347435071141e-18,-0.7045066688082128,0.06923558764142676,0.9951948888574003,0.06923558764142677,1000.0,83.57142857142856,[1.48509186]
-7.227838018039352e-18,0.7053584329157587,1.445067366132429e-17,0.7053584329157587,2.0185853924254047e-19,0.009061031783037068,1.445067366132429e-17,0.009061031783037068,-9.849828506265038e-18,0.7054166295051087,-1.0220576811534802e-17,-0.7054166295051086,0.0701386774412872,0.9950684056151992,0.07013867744128721,1000.0,83.57142857142856,[1.48301361]
-8.378214639529098e-18,0.7055798792315077,1.4475600749083574e-17,0.7055798792315077,1.0418505251227895e-19,0.008328299682689761,1.4475600749083574e-17,0.008328299682689761,-1.1577563960426997e-17,0.7056290289889963,-1.1918853867657847e-17,-0.7056290289889964,0.07087206093164096,0.9949644727117665,0.07087206093164099,1000.0,83.57142857142856,[1.48301361]
-9.53944387065554e-18,0.7051091146075694,1.4510922602010507e-17,0.7051091146075694,-6.5115657820174346e-21,0.0077181366179825146,1.4510922602010507e-17,0.0077181366179825146,-1.3335686721571706e-17,0.7051513547711046,-1.365283535240226e-17,-0.7051513547711047,0.07147522292432071,0.9948781759672074,0.07147522292432074,1000.0,83.57142857142856,[1.48301361]
-1.0720207799128035e-17,0.7038179838906077,1.4545769653265835e-17,0.7038179838906077,-1.5410705684107927e-19,0.0072157318823616945,1.4545769653265835e-17,0.0072157318823616945,-1.5143731487045212e-17,0.703854971733835,-1.5441510356591082e-17,-0.7038549717338349,0.07196319191044627,0.9948078196416232,0.07196319191044631,1000.0,83.57142857142856,[1.48509186]
-1.1890119117963834e-17,0.7013645529591953,1.458597518052928e-17,0.7013645529591953,-3.5162455222894143e-19,0.006827606811487324,1.458597518052928e-17,0.006827606811487324,-1.7008209822629537e-17,0.7013977846859967,-1.7291805340865554e-17,-0.7013977846859969,0.07232718941903363,0.9947550227777122,0.07232718941903368,1000.0,83.57142857142856,[1.48509186]
-1.3081735656073026e-17,0.6969334825498299,1.4622738395673588e-17,0.6969334825498299,-6.229397931463345e-19,0.00659324715024703,1.4622738395673588e-17,0.00659324715024703,-1.8974702688798802e-17,0.696964669123922,-1.9250813630706254e-17,-0.6969646691239219,0.072520166964724,0.9947269227113625,0.07252016696472402,1000.0,83.57142857142856,[1.48676511]
-1.431242158887432e-17,0.688300340581192,1.4669167216275577e-17,0.688300340581192,-1.0592147005415026e-18,0.006627066879303914,1.4669167216275577e-17,0.006627066879303914,-2.1147395138065286e-17,0.6883322430771404,-2.142928792525193e-17,-0.6883322430771407,0.07240215430549286,0.9947441158930508,0.0724021543054929,1000.0,83.57142857142856,[1.49148543]
-1.5619075789132485e-17,0.6669008880118126,1.4744813296883857e-17,0.6669008880118126,-2.0077327827887088e-18,0.007241506710209891,1.4744813296883857e-17,0.007241506710209891,-2.3921322161204713e-17,0.6669402026046851,-2.424042187436365e-17,-0.6669402026046851,0.0715368210856894,0.9948693212969771,0.07153682108568943,1000.0,83.57142857142856,[1.46749485]
-1.7698435795523385e-17,0.553863538237416,1.482171421048138e-17,0.553863538237416,-6.759005281734097e-18,0.006450732519642696,1.482171421048138e-17,0.006450732519642696,-2.930204601907845e-17,0.5539011021282676,-2.964562016130549e-17,-0.5539011021282676,0.07098228497942367,0.9949487576946867,0.07098228497942372,1000.0,83.57142857142856,[1.40389466]
