stress_11,stress_12,stress_13,stress_21,stress_22,stress_23,stress_31,stress_32,stress_33,e1,e2,e3,anev1,anev2,anev3,temp,miss,velo
-1.9100592960584473e-19,0.5433031354264152,-6.6640449474130095e-18,0.5433031354264152,-5.825680852978264e-18,-0.04376985021323965,-6.6640449474130095e-18,-0.04376985021323965,-5.70847266890195e-18,0.5450633878292168,-6.67702997361809e-18,-0.5450633878292168,0.17919247621072443,0.9673572829823208,0.17919247621072446,500.0,109.28571428571416,[1.58399782]
2.819507983613549e-18,0.6599777718559244,-7.478753744280268e-18,0.6599777718559244,-1.0830904417422332e-18,-0.02750528404773126,-7.478753744280268e-18,-0.02750528404773126,-3.418572035559153e-19,0.6605506793535659,-9.59908194173218e-19,-0.6605506793535657,0.20554842416502878,0.9568174803203311,0.20554842416502872,500.0,109.28571428571416,[1.62076988]
4.970495213606641e-18,0.6835180054549029,-8.693847529330092e-18,0.6835180054549029,-1.2806079371300953e-19,-0.019193104714059623,-8.693847529330092e-18,-0.019193104714059623,2.514549652822399e-18,0.6837874224125606,2.0314679847796497e-18,-0.6837874224125606,0.2147166795670714,0.952781976651208,0.2147166795670714,500.0,109.28571428571416,[1.63572627]
6.976057474468011e-18,0.6930793316964068,-1.0036849493269909e-17,0.6930793316964068,3.0821411368215854e-19,-0.015608339216045451,-1.0036849493269909e-17,-0.015608339216045451,4.818558678692901e-18,0.6932550614873443,4.3672255133141656e-18,-0.6932550614873441,0.2184565489936051,0.9510801608716319,0.21845654899360506,500.0,109.28571428571416,[1.62880923]
8.95557347220131e-18,0.697950105663218,-1.1428493192745447e-17,0.697950105663218,5.730177888175342e-19,-0.013891837888507435,-1.1428493192745447e-17,-0.013891837888507435,6.90443025086582e-18,0.6980883419419193,6.450882115805802e-18,-0.698088341941919,0.22021464941819438,0.9502689179191561,0.2202146494181944,500.0,109.28571428571416,[1.62880923]
1.0919895816443237e-17,0.7005920273892591,-1.2839451145933794e-17,0.7005920273892591,7.575121526413615e-19,-0.013118582995255068,-1.2839451145933794e-17,-0.013118582995255068,8.914333555581867e-18,0.700714839332803,8.435593327942036e-18,-0.7007148393328029,0.22100626762952702,0.9499012892595377,0.221006267629527,500.0,109.28571428571416,[1.62880923]
1.2879877116830486e-17,0.7019118622260956,-1.4266781278191247e-17,0.7019118622260956,9.15960253337119e-19,-0.01292738605586424,-1.4266781278191247e-17,-0.01292738605586424,1.0854780158623062e-17,0.7020308965023849,1.032942156637848e-17,-0.7020308965023848,0.22121279784999895,0.9498051358751177,0.221212797849999,500.0,109.28571428571416,[1.62880923]
1.4815982676017e-17,0.7022870503894152,-1.57008688556678e-17,0.7022870503894152,1.0223158277767371e-18,-0.013169028657859164,-1.57008688556678e-17,-0.013169028657859164,1.2757242627935824e-17,0.7024105099302378,1.2170945803910906e-17,-0.7024105099302378,0.22098838268382934,0.9499096111933866,0.2209883826838294,500.0,109.28571428571416,[1.62880923]
1.6734724059784805e-17,0.7018525220201602,-1.7147191054789472e-17,0.7018525220201602,1.1026251390882855e-18,-0.013798821094675095,-1.7147191054789472e-17,-0.013798821094675095,1.4634744095084183e-17,0.7019881552630803,1.3962055142600937e-17,-0.7019881552630804,0.22037799427525998,0.9501931799789066,0.22037799427526006,500.0,109.28571428571416,[1.62880923]
1.8666488575116644e-17,0.7005845819452563,-1.860098714093829e-17,0.7005845819452563,1.1633997530537815e-18,-0.014846385264374356,-1.860098714093829e-17,-0.014846385264374356,1.6473176167540438e-17,0.7007418723144978,1.568498886770917e-17,-0.7007418723144979,0.21934960343688667,0.950668976533978,0.2193496034368867,500.0,109.28571428571416,[1.62880923]
2.0572206827320413e-17,0.6982933539669529,-2.0069273156672353e-17,0.6982933539669529,1.2068101916005644e-18,-0.016425125597423186,-2.0069273156672353e-17,-0.016425125597423186,1.827362410626826e-17,0.6984865016199722,1.7331871663385343e-17,-0.6984865016199723,0.21778324902292914,0.9513889388100083,0.2177832490229292,500.0,109.28571428571416,[1.62880923]
2.2475754557596843e-17,0.6945179061399271,-2.1554957262230243e-17,0.6945179061399271,1.1894460161818513e-18,-0.01878875652409761,-2.1554957262230243e-17,-0.01878875652409761,2.002306477970361e-17,0.6947720052799409,1.88588629598307e-17,-0.6947720052799408,0.21540790556414233,0.9524698779703952,0.2154079055641423,500.0,109.28571428571416,[1.62880923]
2.4325039239689794e-17,0.6881916935201144,-2.307574277708182e-17,0.6881916935201144,1.1026251390882855e-18,-0.0224985871178804,-2.307574277708182e-17,-0.0224985871178804,2.1675917227372368e-17,0.6885593608777565,2.016874905084637e-17,-0.6885593608777565,0.21160979334916027,0.954171153786076,0.2116097933491603,500.0,109.28571428571416,[1.64556111]
2.614176609287266e-17,0.6764675227704152,-2.466001499848291e-17,0.6764675227704152,8.334804200982316e-19,-0.028962680554362158,-2.466001499848291e-17,-0.028962680554362158,2.3157298442781334e-17,0.6770872515621872,2.1045709986213192e-17,-0.6770872515621869,0.20477937644513983,0.9571472269016296,0.20477937644513983,500.0,109.28571428571416,[1.64044992]
2.776748701644968e-17,0.6487918039421273,-2.6429393102825052e-17,0.6487918039421273,7.162722360219177e-20,-0.04262596403658719,-2.6429393102825052e-17,-0.04262596403658719,2.41286070052656e-17,0.650190570273461,2.0663479126637358e-17,-0.6501905702734608,0.18928421552958477,0.9635055638151236,0.1892842155295848,500.0,109.28571428571416,[1.58246043]
2.8307946976357124e-17,0.5204017437873686,-2.890744555661826e-17,0.5204017437873686,-4.496236172483038e-18,-0.07374209502988385,-2.890744555661826e-17,-0.07374209502988385,2.2807844412479732e-17,0.5256004866020676,1.465397360800418e-17,-0.5256004866020678,0.13759223155793718,0.9808856995745294,0.13759223155793732,500.0,109.28571428571416,[1.54956039]
-1.0613852224688417e-18,0.5462862277096628,-5.198925689256529e-18,0.5462862277096628,-5.88645546694376e-18,-0.037434238578804874,-5.198925689256529e-18,-0.037434238578804874,-6.905515511829489e-18,0.547567315316782,-7.586906646819236e-18,-0.547567315316782,0.030948475378129982,0.9990417327336923,0.03094847537812999,500.0,96.42857142857144,[1.60269905]
-2.1705219273391446e-20,0.6635368084447062,-3.642034050859741e-18,0.6635368084447062,-1.2806079371300953e-18,-0.019742414550619515,-3.642034050859741e-18,-0.019742414550619515,-3.656244186602789e-18,0.66383044453631,-3.865902093460424e-18,-0.66383044453631,0.058238589883659965,0.9966024951286876,0.05823858988365997,500.0,96.42857142857144,[1.61699946]
1.5844810069575756e-19,0.6864445989504131,-2.4625588697816036e-18,0.6864445989504131,-4.623211705232378e-19,-0.012505284834247636,-2.4625588697816036e-18,-0.012505284834247636,-2.928034079980506e-18,0.6865584968354695,-3.0168386359010214e-18,-0.6865584968354697,0.06635912957077744,0.9955867274352432,0.06635912957077744,500.0,96.42857142857144,[1.63201057]
2.1488167080657534e-19,0.6958818248072194,-1.3790105835703223e-18,0.6958818248072194,-1.4759549105906183e-19,-0.008938284176974249,-1.3790105835703223e-18,-0.008938284176974249,-2.773927023139427e-18,0.6959392265284764,-2.8089274706569194e-18,-0.6959392265284762,0.07013969964960837,0.9950682615107999,0.07013969964960838,500.0,96.42857142857144,[1.62295288]
2.5612158742601907e-19,0.7008641278844475,-3.2866449996630704e-19,0.7008641278844475,-1.3023131564034869e-20,-0.0067500023940482885,-3.2866449996630704e-19,-0.0067500023940482885,-2.8325311151775837e-18,0.7008966316708528,-2.838722229509478e-18,-0.7008966316708529,0.07240017804939347,0.9947444035715067,0.07240017804939348,500.0,96.42857142857144,[1.62295288]
2.713152409173931e-19,0.7037534668093266,7.126942662823196e-19,0.7037534668093266,4.775148240146118e-20,-0.005223105693548859,7.126942662823196e-19,-0.005223105693548859,-2.9822971281639847e-18,0.7037728489216046,-2.9715512231800793e-18,-0.7037728489216045,0.07395380855291447,0.994515795953507,0.07395380855291445,500.0,96.42857142857144,[1.61793207]
2.713152409173931e-19,0.7054221785973727,1.7317543111680482e-18,0.7054221785973727,6.511565782017434e-20,-0.004068232139626133,1.7317543111680482e-18,-0.004068232139626133,-3.1993493208978996e-18,0.7054339094272443,-3.179275007774227e-18,-0.7054339094272444,0.07511728502591286,0.9943413835201026,0.07511728502591287,500.0,96.42857142857144,[1.61793207]
2.865088944087671e-19,0.7062419792555725,2.754663641034292e-18,0.7062419792555725,4.558096047412204e-20,-0.003148299066098923,2.754663641034292e-18,-0.003148299066098923,-3.4511298644692403e-18,0.706248996494748,-3.4264939195030768e-18,-0.706248996494748,0.07603775067873476,0.9942014488741391,0.07603775067873476,500.0,96.42857142857144,[1.61793207]
2.7565628477207137e-19,0.7063606241784753,3.771909265246385e-18,0.7063606241784753,1.0852609636695723e-20,-0.002392191676553607,3.771909265246385e-18,-0.002392191676553607,-3.748491368514703e-18,0.7063646749171584,-3.722885831844049e-18,-0.7063646749171583,0.07679073877960023,0.9940856929235861,0.07679073877960021,500.0,96.42857142857144,[1.61793207]
2.582921093533582e-19,0.7057865994917051,4.7874422120001875e-18,0.7057865994917051,-6.077461396549605e-20,-0.001762883688673193,4.7874422120001875e-18,-0.001762883688673193,-4.0740696576155744e-18,0.7057888011161445,-4.050128094534578e-18,-0.7057888011161444,0.07741552300967264,0.9939887693501762,0.07741552300967262,500.0,96.42857142857144,[1.61793207]
2.3658689007996676e-19,0.7043918177434662,5.8002450491422586e-18,0.7043918177434662,-1.606186226230967e-19,-0.001245618821037936,5.8002450491422586e-18,-0.001245618821037936,-4.445228907190568e-18,0.7043929190943017,-4.424700686078856e-18,-0.7043929190943019,0.0779281609820368,0.9939086494501975,0.0779281609820368,500.0,96.42857142857144,[1.61793207]
2.1488167080657534e-19,0.7018344152882624,6.805196701500283e-18,0.7018344152882624,-3.0387306982748025e-19,-0.0008469580671326838,6.805196701500283e-18,-0.0008469580671326838,-4.877162770731058e-18,0.7018349263330977,-4.86073035714693e-18,-0.7018349263330977,0.07832282813418609,0.9938466024423115,0.07832282813418608,500.0,96.42857142857144,[1.61771672]
1.7581227611447071e-19,0.6972991253493614,7.809113964502309e-18,0.6972991253493614,-5.25266306416073e-19,-0.0006064138564980437,7.809113964502309e-18,-0.0006064138564980437,-5.402429077147131e-18,0.6972993890365528,-5.38884235019643e-18,-0.6972993890365528,0.0785597340383013,0.9938092052178139,0.07855973403830128,500.0,96.42857142857144,[1.61761885]
1.0418505251227895e-19,0.6885615898586845,8.81676181206695e-18,0.6885615898586845,-9.072781656277625e-19,-0.0006384148862481798,8.81676181206695e-18,-0.0006384148862481798,-6.149088620151797e-18,0.6885618858187595,-6.132733969859502e-18,-0.6885618858187597,0.07851931942528367,0.9938155930322187,0.07851931942528366,500.0,96.42857142857144,[1.63450482]
-6.077461396549605e-20,0.6670576449768735,9.787714273297513e-18,0.6670576449768735,-1.799362677764151e-18,-0.001255405219733795,9.787714273297513e-18,-0.001255405219733795,-7.488300649320049e-18,0.6670588263147099,-7.45143294540458e-18,-0.6670588263147099,0.07784829223155472,0.9939211672930911,0.0778482922315547,500.0,96.42857142857144,[1.60515257]
-1.0027811304306848e-18,0.5539157802299359,1.0752545184404877e-17,0.5539157802299359,-6.502883694308078e-18,-0.00047154311094678734,1.0752545184404877e-17,-0.00047154311094678734,-1.1438650557077292e-17,0.5539159809399294,-1.1420335974345866e-17,-0.5539159809399294,0.07857264367027401,0.9938071640581632,0.07857264367027397,500.0,96.42857142857144,[1.56544213]
2.7522218038660357e-17,0.5149885451604305,-2.8469739885257316e-17,0.5149885451604305,-4.486468823810012e-18,-0.07812051045406936,-2.8469739885257316e-17,-0.07812051045406936,2.2292345454736685e-17,0.5208800397404965,1.3775248872722813e-17,-0.5208800397404965,0.2821529311512923,0.9169402635316372,0.2821529311512924,500.0,122.14285714285735,[1.53678337]
2.5881303461591964e-17,0.6422345237980746,-2.4734810039487844e-17,0.6422345237980746,7.813878938420921e-20,-0.048051860290458576,-2.4734810039487844e-17,-0.048051860290458576,2.2089401654530475e-17,0.6440296304018264,1.8382296737718344e-17,-0.6440296304018266,0.3304833136619943,0.8840597031773225,0.3304833136619944,500.0,122.14285714285735,[1.58255333]
2.3122570091943908e-17,0.6709479303981665,-2.1723070968383683e-17,0.6709479303981665,8.584414222626318e-19,-0.033694505675674155,-2.1723070968383683e-17,-0.033694505675674155,1.9630200310855224e-17,0.6717934541347595,1.7457587985397795e-17,-0.6717934541347592,0.34570034514048953,0.8723431336002438,0.3457003451404895,500.0,122.14285714285735,[1.60685212]
2.0138102441852584e-17,0.6827952053787268,-1.8913186197221423e-17,0.6827952053787268,1.1178187925796595e-18,-0.027265076944702003,-1.8913186197221423e-17,-0.027265076944702003,1.6683716794492335e-17,0.6833393570613202,1.519430586584763e-17,-0.6833393570613201,0.3520149522540998,0.8672778947829165,0.35201495225409984,500.0,122.14285714285735,[1.6292363]
1.71058833093598e-17,0.6888207060768671,-1.6186192471460066e-17,0.6888207060768671,1.2046396696732253e-18,-0.02392741607991486,-1.6186192471460066e-17,-0.02392741607991486,1.3573358872615342e-17,0.6892361615299177,1.2451325025854597e-17,-0.6892361615299175,0.3551914978863495,0.864683757022475,0.3551914978863495,500.0,122.14285714285735,[1.61428477]
1.405847052337564e-17,0.6920512300946432,-1.3494465487717332e-17,0.6920512300946432,1.2350269766559733e-18,-0.02213016971404995,-1.3494465487717332e-17,-0.02213016971404995,1.0375094812681111e-17,0.6924049750594528,9.51517928391582e-18,-0.6924049750594528,0.3568752727270592,0.8632960554942749,0.35687527272705927,500.0,122.14285714285735,[1.61088792]
1.0956794689208002e-17,0.6936153722033542,-1.0818474787947804e-17,0.6936153722033542,1.2046396696732253e-18,-0.021262431901346288,-1.0818474787947804e-17,-0.021262431901346288,7.121482443599733e-18,0.6939411902799525,6.461234531558552e-18,-0.6939411902799525,0.35768187467274065,0.8626281661649982,0.35768187467274065,500.0,122.14285714285735,[1.61088792]
7.863800942749721e-18,0.6939844373835712,-8.163044696279048e-18,0.6939844373835712,1.1406092728167205e-18,-0.02106208345693735,-8.163044696279048e-18,-0.02106208345693735,3.843994333317625e-18,0.6943039757124676,3.3535503642007806e-18,-0.6943039757124675,0.35786772315727616,0.8624739911698522,0.3578677231572761,500.0,122.14285714285735,[1.61088792]
4.731737801599335e-18,0.6933252683658387,-5.5217145185367186e-18,0.6933252683658387,1.0613852224688417e-18,-0.021433947148042753,-5.5217145185367186e-18,-0.021433947148042753,5.40459959907447e-19,0.6936565013354287,2.0031702897306643e-19,-0.6936565013354287,0.3575232942119267,0.8627596352355064,0.35752329421192675,500.0,122.14285714285735,[1.61088792]
1.6105272700856455e-18,0.6916036565646536,-2.894094239061996e-18,0.6916036565646536,9.572001699565628e-19,-0.022394429602881443,-2.894094239061996e-18,-0.022394429602881443,-2.7999732862674966e-18,0.6919661323004455,-2.9838848253136597e-18,-0.6919661323004458,0.3566296169993325,0.8634990634377195,0.35662961699933265,500.0,122.14285714285735,[1.61088792]
-1.5432410903381318e-18,0.6885734214155433,-2.84567294715952e-19,0.6885734214155433,8.117752008248402e-19,-0.024076782021601614,-2.84567294715952e-19,-0.024076782021601614,-6.1621117517158316e-18,0.6889942293752709,-6.174230812551965e-18,-0.688994229375271,0.3550514007111553,0.864798823834823,0.3550514007111553,500.0,122.14285714285735,[1.62314173]
-4.723055713889979e-18,0.6836426616803665,2.300380184523232e-18,0.6836426616803665,6.272808370010128e-19,-0.026801072414917016,2.300380184523232e-18,-0.026801072414917016,-9.572001699565628e-18,0.684167805696823,-9.392887443369452e-18,-0.6841678056968231,0.3524607501307805,0.8669157048032381,0.3524607501307805,500.0,122.14285714285735,[1.62685769]
-7.933257644424574e-18,0.6754519244102518,4.840179111953506e-18,0.6754519244102518,3.67903466683985e-19,-0.03128926984189914,4.840179111953506e-18,-0.03128926984189914,-1.304809256619927e-17,0.6761762496544461,-1.2593824718240581e-17,-0.6761762496544462,0.34809522040592966,0.8704363475068664,0.34809522040592966,500.0,122.14285714285735,[1.60809164]
-1.1251985671326126e-17,0.6604173224373764,7.294021979620638e-18,0.6604173224373764,-6.620091878384391e-20,-0.039360937836655924,7.294021979620638e-18,-0.039360937836655924,-1.6684802055456005e-17,0.6615892405433562,-1.5807010069816893e-17,-0.6615892405433562,0.3399162688755952,0.8768773348122233,0.3399162688755952,500.0,122.14285714285735,[1.61085391]
-1.4826835285653697e-17,0.625665897034217,9.511701887271737e-18,0.625665897034217,-1.0071221742853631e-18,-0.05673293065746417,9.511701887271737e-18,-0.05673293065746417,-2.072848440608883e-17,0.6282327913541411,-1.900243265749962e-17,-0.6282327913541411,0.3205982003455953,0.891310040261149,0.3205982003455953,500.0,122.14285714285735,[1.57069188]
-1.989283346406326e-17,0.48142706931630097,1.083626289343045e-17,0.48142706931630097,-5.745371541666716e-18,-0.09509213500567612,1.083626289343045e-17,-0.09509213500567612,-2.6681140791816438e-17,0.4907285779434702,-2.2313526248283358e-17,-0.4907285779434697,0.2530534497926616,0.9337707979456551,0.2530534497926615,500.0,122.14285714285735,[1.5288269]
-2.1173441401193356e-17,0.47465923767157026,1.1593198501184862e-17,0.47465923767157026,-5.6878527105922285e-18,-0.09667701824104746,1.1593198501184862e-17,-0.09667701824104746,-2.7578651608771175e-17,0.48440462194629813,-2.2808856238023443e-17,-0.4844046219462981,0.39015133455149853,0.8340047195881861,0.39015133455149864,500.0,135.00000000000023,[1.52912464]
-1.806742452317104e-17,0.6174314156301843,1.1937311012680903e-17,0.6174314156301843,-8.085194179338315e-19,-0.05874028019646493,1.1937311012680903e-17,-0.05874028019646493,-2.402659247468066e-17,0.62021929470523,-2.174137773030648e-17,-0.62021929470523,0.4503980609787781,0.7708976412813271,0.45039806097877816,500.0,135.00000000000023,[1.57144912]
-1.6480772994286125e-17,0.6534374480699012,1.136626025936002e-17,0.6534374480699012,2.6046263128069735e-19,-0.04116876164897446,1.136626025936002e-17,-0.04116876164897446,-2.2349864285811172e-17,0.6547330490175484,-2.0896581088559404e-17,-0.6547330490175484,0.4675712394079251,0.7501694956188727,0.4675712394079251,500.0,135.00000000000023,[1.59132326]
-1.5182800881737317e-17,0.6685864046007796,1.0559724834125397e-17,0.6685864046007796,8.345656810619012e-19,-0.033157531459963696,1.0559724834125397e-17,-0.033157531459963696,-2.106165952193539e-17,0.6694080984791829,-2.0003607123494793e-17,-0.6694080984791831,0.47461994752112957,0.7412636581069383,0.4746199475211296,500.0,135.00000000000023,[1.6029655]
-1.40063779971195e-17,0.6763631414423114,9.657584700872508e-18,0.6763631414423114,1.2371974985833124e-18,-0.02885013044267559,9.657584700872508e-18,-0.02885013044267559,-1.9902600812736287e-17,0.6769781600083355,-1.9072776603525368e-17,-0.6769781600083355,0.4782377403369005,0.7365984845456242,0.4782377403369005,500.0,135.00000000000023,[1.60109688]
-1.2864683463339112e-17,0.6805755063707563,8.715052511128042e-18,0.6805755063707563,1.558434743829506e-18,-0.02637581207346156,8.715052511128042e-18,-0.02637581207346156,-1.8816254588103045e-17,0.6810864139992409,-1.8124015399702318e-17,-0.6810864139992411,0.4802618881031047,0.7339598338269483,0.48026188810310483,500.0,135.00000000000023,[1.61125964]
-1.1766399368105503e-17,0.6826603434619053,7.741302111475518e-18,0.6826603434619053,1.8406025943835946e-18,-0.024994847297676762,7.741302111475518e-18,-0.024994847297676762,-1.776355145334356e-17,0.6831177694416682,-1.7190944394790346e-17,-0.6831177694416681,0.4813705085594242,0.7325058818729597,0.4813705085594242,500.0,135.00000000000023,[1.61125964]
-1.0698502579854644e-17,0.6832225096470275,6.752646330775096e-18,0.6832225096470275,2.0771894844635614e-18,-0.02438410629900662,6.752646330775096e-18,-0.02438410629900662,-1.6735809320748475e-17,0.6836575036729898,-1.6244179653221e-17,-0.6836575036729899,0.4818482937789577,0.7318773418849733,0.4818482937789578,500.0,135.00000000000023,[1.61125964]
-9.634946835458463e-18,0.6824794834739575,5.745795471730649e-18,0.6824794834739575,2.2996679820158237e-18,-0.024416782736823676,5.745795471730649e-18,-0.024416782736823676,-1.5727601885499442e-17,0.6829161183059727,-1.5312513095106603e-17,-0.6829161183059728,0.4818034624585468,0.7319363682219316,0.48180346245854677,500.0,135.00000000000023,[1.61125964]
-8.60177839804503e-18,0.6803932858033006,4.7252601502224325e-18,0.6803932858033006,2.491759172585338e-18,-0.02509284223086107,4.7252601502224325e-18,-0.02509284223086107,-1.473892914759646e-17,0.6808558394384487,-1.438926710298929e-17,-0.6808558394384489,0.4812328877967146,0.7326867102695868,0.4812328877967147,500.0,135.00000000000023,[1.61125964]
-7.574036265449945e-18,0.6766583581634749,3.689649875640743e-18,0.6766583581634749,2.6599746219541217e-18,-0.026539023512457304,3.689649875640743e-18,-0.026539023512457304,-1.3771961628966874e-17,0.6771785978908991,-1.347769128828119e-17,-0.677178597890899,0.48002058591030755,0.7342754756933189,0.48002058591030755,500.0,135.00000000000023,[1.61125964]
-6.6135803126023744e-18,0.6705359680745663,2.6198538807034622e-18,0.6705359680745663,2.763074413502731e-18,-0.02907839290865604,2.6198538807034622e-18,-0.02907839290865604,-1.2840807722138381e-17,0.6711661771989454,-1.2613676753038703e-17,-0.6711661771989454,0.47786792374057135,0.737078350597649,0.47786792374057147,500.0,135.00000000000023,[1.60109688]
-5.7030463640836025e-18,0.6603330087563049,1.5143799315855441e-18,0.6603330087563049,2.8151669397588706e-18,-0.03345062610985263,1.5143799315855441e-18,-0.03345062610985263,-1.1957405297711348e-17,0.6611797235550221,-1.1796432741608203e-17,-0.661179723555022,0.47406352638571697,0.7419754348369472,0.47406352638571697,500.0,135.00000000000023,[1.6029655]
-4.933596340841876e-18,0.6416232643760285,3.152004811357814e-19,0.6416232643760285,2.6881914070095306e-18,-0.04152644386131509,3.152004811357814e-19,-0.04152644386131509,-1.1182528969651273e-17,0.6429656747667928,-1.1100695140186463e-17,-0.6429656747667931,0.46666318597207673,0.7512995020075428,0.4666631859720767,500.0,135.00000000000023,[1.56996725]
-4.543987654884499e-18,0.59889218006315,-1.136607373013189e-18,0.59889218006315,2.0511432213354917e-18,-0.05916238027751883,-1.136607373013189e-18,-0.05916238027751883,-1.0715866755273357e-17,0.6018073035290399,-1.0955716065611487e-17,-0.6018073035290401,0.448424102383454,0.7731957377037116,0.44842410238345404,500.0,135.00000000000023,[1.57144912]
-6.024283609329796e-18,0.4372354135398594,-3.479007505473502e-18,0.4372354135398594,-2.3864888591093895e-18,-0.09716387109856071,-3.479007505473502e-18,-0.09716387109856071,-1.1747407301241285e-17,0.44790135599284514,-1.3066725982529282e-17,-0.44790135599284525,0.3796277214739364,0.8436620094427713,0.37962772147393636,500.0,135.00000000000023,[1.42362818]
-6.235909497245363e-18,0.4304620305457037,-4.211117768683973e-18,0.4304620305457037,-2.4298992976561724e-18,-0.09563808362856777,-4.211117768683973e-18,-0.09563808362856777,-1.102353823847368e-17,0.4409582778241898,-1.2527715644854155e-17,-0.4409582778241898,0.5028792094178633,0.7030113807546289,0.5028792094178633,500.0,147.8571428571427,[1.40041709]
-4.536390828138812e-18,0.5906383854814874,-3.4620163885110507e-18,0.5906383854814874,1.9225397971406473e-18,-0.0573438817458481,-3.4620163885110507e-18,-0.0573438817458481,-9.155804119998347e-18,0.5934155569058327,-9.707215831644282e-18,-0.5934155569058329,0.5595685086673328,0.6113641862389666,0.5595685086673329,500.0,147.8571428571427,[1.47400801]
-4.76972193532777e-18,0.6346104778949048,-3.606084781438186e-18,0.6346104778949048,2.4548602998205726e-18,-0.040036027565717044,-3.606084781438186e-18,-0.040036027565717044,-8.75371493295877e-18,0.635872111479378,-9.211078480426203e-18,-0.635872111479378,0.5738498235782573,0.5842882507447893,0.5738498235782573,500.0,147.8571428571427,[1.40491603]
-5.407855381965479e-18,0.653420818929058,-3.990267162577215e-18,0.653420818929058,2.493929694512677e-18,-0.03202809947871627,-3.990267162577215e-18,-0.03202809947871627,-8.62565413924576e-18,0.6542052932880774,-9.007049416988803e-18,-0.6542052932880774,0.5795885847320835,0.5728474010559187,0.5795885847320835,500.0,147.8571428571427,[1.39339448]
-6.179475927134545e-18,0.6631957303130765,-4.460049502225681e-18,0.6631957303130765,2.3539310301993023e-18,-0.027603305193273746,-4.460049502225681e-18,-0.027603305193273746,-8.58929789696283e-18,0.663769929390514,-8.94630454669255e-18,-0.6637699293905139,0.5825618247634013,0.5667834160035666,0.5825618247634015,500.0,147.8571428571427,[1.39339448]
-7.033576305542498e-18,0.6685853031505405,-4.973547510066962e-18,0.6685853031505405,2.154243012884101e-18,-0.02494205241158583,-4.973547510066962e-18,-0.02494205241158583,-8.60069313708136e-18,0.6690503819350249,-8.967727105445057e-18,-0.6690503819350249,0.5842834460803839,0.5632279372268942,0.584283446080384,500.0,147.8571428571427,[1.39339448]
-7.94193973213393e-18,0.6713599632375533,-5.51387181235395e-18,0.6713599632375533,1.8921524901578993e-18,-0.023322321889402923,-5.51387181235395e-18,-0.023322321889402923,-8.633250965991448e-18,0.6717649372635056,-9.009825102267099e-18,-0.6717649372635055,0.585302456233794,0.5611078946632061,0.585302456233794,500.0,147.8571428571427,[1.39339448]
-8.876349421853432e-18,0.6722713325785306,-6.0649130666571755e-18,0.6722713325785306,1.6105272700856455e-18,-0.022423990381246324,-6.0649130666571755e-18,-0.022423990381246324,-8.687514014174926e-18,0.6726452110522543,-9.088204815690267e-18,-0.6726452110522544,0.5858501270026661,0.5599636214808242,0.5858501270026661,500.0,147.8571428571427,[1.39339448]
-9.823782243136969e-18,0.671596205243631,-6.634946387824619e-18,0.671596205243631,1.2963442211033041e-18,-0.022113751821175694,-6.634946387824619e-18,-0.022113751821175694,-8.757513346331614e-18,0.6719601780740091,-9.20147946015105e-18,-0.6719601780740091,0.5860195183828253,0.5596090136414199,0.5860195183828252,500.0,147.8571428571427,[1.39390923]
-1.0814625502967288e-17,0.6693003132554037,-7.21491662969066e-18,0.6693003132554037,9.647969967022498e-19,-0.022375147544149824,-7.21491662969066e-18,-0.022375147544149824,-8.840535810052336e-18,0.6696742167288539,-9.325983356134038e-18,-0.669674216728854,0.5858204266166468,0.5600257632621735,0.5858204266166469,500.0,147.8571428571427,[1.39339448]
-1.1831515025925677e-17,0.665027405427799,-7.818050410250026e-18,0.665027405427799,5.871261813452386e-19,-0.023303307305903465,-7.818050410250026e-18,-0.023303307305903465,-8.936038774855258e-18,0.6654355672049874,-9.478844889523702e-18,-0.6654355672049874,0.5851826732964142,0.5613577092615051,0.5851826732964142,500.0,147.8571428571427,[1.39339448]
-1.289290024839452e-17,0.6579051422058377,-8.439260568735512e-18,0.6579051422058377,1.7581227611447071e-19,-0.025160309581181862,-8.439260568735512e-18,-0.025160309581181862,-9.054332219895242e-18,0.6583860701132008,-9.697639635946158e-18,-0.6583860701132009,0.5839104104733964,0.5640011215251077,0.5839104104733964,500.0,147.8571428571427,[1.39339448]
-1.403459478217491e-17,0.6459321121333313,-9.095300821273768e-18,0.6459321121333313,-3.2286513669169776e-19,-0.028557031099502504,-9.095300821273768e-18,-0.028557031099502504,-9.201385080472469e-18,0.646563065377419,-1.0016357394399397e-17,-0.6465630653774191,0.5815242109770073,0.5689105238041725,0.5815242109770073,500.0,147.8571428571427,[1.39706976]
-1.5365124723633805e-17,0.6239009867425603,-9.831107754641738e-18,0.6239009867425603,-9.713085624842672e-19,-0.035044821950981096,-9.831107754641738e-18,-0.035044821950981096,-9.42603409995207e-18,0.6248844539624239,-1.055427780606701e-17,-0.6248844539624238,0.5766838521286638,0.5786808009499634,0.5766838521286637,500.0,147.8571428571427,[1.39706976]
-1.7184022098744008e-17,0.5738566123565264,-1.0764025210536194e-17,0.5738566123565264,-2.1499019690294227e-18,-0.049459924637909033,-1.0764025210536194e-17,-0.049459924637909033,-9.838975896628343e-18,0.5759841106232848,-1.1720888123131051e-17,-0.5759841106232849,0.564208225441902,0.602775378302233,0.5642082254419022,500.0,147.8571428571427,[1.43063841]
-2.1243983363831878e-17,0.3966517415943079,-1.2435462752207796e-17,0.3966517415943079,-7.124195596008907e-18,-0.07958616086967908,-1.2435462752207796e-17,-0.07958616086967908,-1.139524011853051e-17,0.40455724083468325,-1.6565964268572168e-17,-0.4045572408346831,0.5130163862916512,0.6882066366960659,0.5130163862916514,500.0,147.8571428571427,[1.36363352]
-2.1631421527861915e-17,0.3912115137569779,-1.1830328021746664e-17,0.3912115137569779,-7.214272255993482e-18,-0.07526009020991256,-1.1830328021746664e-17,-0.07526009020991256,-1.1358883876247579e-17,0.39838490141373323,-1.6012220850394165e-17,-0.3983849014137339,0.611289281268287,0.5026438393266176,0.611289281268287,500.0,160.7142857142859,[1.29990088]
-1.7868821766819508e-17,0.5672109655338695,-9.337822732248803e-18,0.5672109655338695,-2.466798170420938e-18,-0.0442001092436718,-9.337822732248803e-18,-0.0442001092436718,-1.0217731972949023e-17,0.5689305134012566,-1.1718511654856899e-17,-0.5689305134012564,0.6472651800232954,0.40261094552784177,0.6472651800232954,500.0,160.7142857142859,[0.90635026]
-1.6376587941773846e-17,0.6182324507123468,-7.55999570173247e-18,0.6182324507123468,-1.5009159127550185e-18,-0.030591565727083554,-7.55999570173247e-18,-0.030591565727083554,-1.0183546252593432e-17,0.6189888585487052,-1.0952123993485052e-17,-0.6189888585487051,0.6550686025769162,0.3765239060615575,0.6550686025769162,500.0,160.7142857142859,[0.91330262]
-1.5396597291580222e-17,0.6403260503156571,-5.9605245277142085e-18,0.6403260503156571,-1.0597573310233374e-18,-0.02418114693814279,-5.9605245277142085e-18,-0.02418114693814279,-1.0324630177870476e-17,0.6407824736836156,-1.077873886210524e-17,-0.6407824736836156,0.6581377285697597,0.36566304224801716,0.6581377285697597,500.0,160.7142857142859,[0.91330262]
-1.461520939773813e-17,0.6519374055190166,-4.434410211958987e-18,0.6519374055190166,-7.816592090830096e-19,-0.02052396954220899,-4.434410211958987e-18,-0.02052396954220899,-1.053028713048586e-17,0.6522603882197935,-1.0812835691918522e-17,-0.6522603882197935,0.6597471806950235,0.3598156682663166,0.6597471806950235,500.0,160.7142857142859,[0.90619625]
-1.3911960293280247e-17,0.65845329386611,-2.9320698941891523e-18,0.65845329386611,-5.738317345402864e-19,-0.018211946704012178,-2.9320698941891523e-18,-0.018211946704012178,-1.0754393519483627e-17,0.6587051048882797,-1.0924550031834068e-17,-0.6587051048882797,0.6607141496148211,0.3562493859609132,0.6607141496148212,500.0,160.7142857142859,[0.90619625]
-1.3253206888332819e-17,0.6619370562533289,-1.4517061109336263e-18,0.6619370562533289,-4.102286442670984e-19,-0.016683729168799163,-1.4517061109336263e-18,-0.016683729168799163,-1.1001290388718455e-17,0.6621472746000698,-1.107636236489582e-17,-0.6621472746000698,0.6613299767521034,0.35395666923809255,0.6613299767521034,500.0,160.7142857142859,[0.90619625]
-1.264220496578685e-17,0.6632712991481876,1.3735334071443025e-20,0.6632712991481876,-2.859662639269323e-19,-0.015685556737661456,1.3735334071443025e-20,-0.015685556737661456,-1.1254156193253465e-17,0.663456745360159,-1.1253924509264642e-17,-0.663456745360159,0.6617182948859506,0.35250219350588496,0.6617182948859505,500.0,160.7142857142859,[0.90619625]
-1.2058334567332618e-17,0.6627891420741343,1.4709016642285319e-18,0.6627891420741343,-1.8557962478749686e-19,-0.015103975544354258,1.4709016642285319e-18,-0.015103975544354258,-1.1520587759834345e-17,0.6629612182689204,-1.1454230874674485e-17,-0.6629612182689205,0.6619323632018852,0.3516974453872743,0.6619323632018853,500.0,160.7142857142859,[0.90679046]
-1.1508107258752145e-17,0.6604668562698485,2.9184363033330533e-18,0.6604668562698485,-1.2100659744915731e-19,-0.014909308621044769,2.9184363033330533e-18,-0.014909308621044769,-1.178756195689706e-17,0.6606351154113247,-1.1657037314374458e-17,-0.6606351154113246,0.6619856924046194,0.35149663739949666,0.6619856924046194,500.0,160.7142857142859,[0.90679046]
-1.0999119866791115e-17,0.6559163071446443,4.35186254990987e-18,0.6559163071446443,-7.271248456586134e-20,-0.015146178683075292,4.35186254990987e-18,-0.015146178683075292,-1.2070815068414818e-17,0.6560911588392021,-1.1867965153420783e-17,-0.656091158839202,0.6618569889698923,0.351981039693073,0.6618569889698922,500.0,160.7142857142859,[0.90679046]
-1.0543310262049895e-17,0.6481713203096533,5.777081510448936e-18,0.6481713203096533,-6.67435492656787e-20,-0.01596370981022468,5.777081510448936e-18,-0.01596370981022468,-1.2364378159087437e-17,0.6483678743605858,-1.207922597900202e-17,-0.6483678743605858,0.6614738323550046,0.3534186444136285,0.6614738323550046,500.0,160.7142857142859,[0.90619625]
-1.0183003622111597e-17,0.6350086788891518,7.180425679689037e-18,0.6350086788891518,-1.5085127395007055e-19,-0.017722927652686692,7.180425679689037e-18,-0.017722927652686692,-1.2678018577587945e-17,0.6352559519037411,-1.2273171922359945e-17,-0.6352559519037412,0.6606509329310336,0.3564837859352229,0.6606509329310337,500.0,160.7142857142859,[0.90619625]
-1.0037578652979874e-17,0.6106559535961188,8.531236435406508e-18,0.6106559535961188,-4.140270576399419e-19,-0.021348486038948452,8.531236435406508e-18,-0.021348486038948452,-1.3035340749876152e-17,0.6110290103739268,-1.2430838623988064e-17,-0.6110290103739268,0.6588591684103967,0.3630553572158396,0.6588591684103967,500.0,160.7142857142859,[0.90946291]
-1.0425559447491746e-17,0.5554018660670699,9.76117625129528e-18,0.5554018660670699,-1.1579734482354337e-18,-0.02969839708221424,9.76117625129528e-18,-0.02969839708221424,-1.3515840041540855e-17,0.556195314273715,-1.2452891645892362e-17,-0.556195314273715,0.6540040257148935,0.38020713919839344,0.6540040257148934,500.0,160.7142857142859,[0.91671697]
-1.3350337744581245e-17,0.36758756630478956,1.0581430053398789e-17,0.36758756630478956,-5.714441604202133e-18,-0.04599312967888574,1.0581430053398789e-17,-0.04599312967888574,-1.4867803887032223e-17,0.3704537580853198,-1.2248754071253139e-17,-0.37045375808532,0.6332673161635679,0.4449101173922476,0.6332673161635679,500.0,160.7142857142859,[1.23768456]
-1.3088789852336878e-17,0.3645464644339471,1.1650429059815875e-17,0.3645464644339471,-5.680527199087459e-18,-0.03973127211033364,1.1650429059815875e-17,-0.03973127211033364,-1.46974179157361e-17,0.3667051931931107,-1.2235680165153113e-17,-0.3667051931931105,0.6899463091731116,0.2189707307308493,0.689946309173112,500.0,173.57142857142813,[0.47864561]
-9.337042700931165e-18,0.5516472866329534,1.2415164980746663e-17,0.5516472866329534,-1.0396800031954503e-18,-0.022061968869392393,1.2415164980746663e-17,-0.022061968869392393,-1.3296617326879601e-17,0.552088271311657,-1.2290521265645346e-17,-0.552088271311657,0.6989356450957904,0.1515847222811807,0.6989356450957902,500.0,173.57142857142813,[0.34950068]
-8.14596879330381e-18,0.6073993761851979,1.27900039432766e-17,0.6073993761851979,-2.0619958309721876e-19,-0.014852449582728987,1.27900039432766e-17,-0.014852449582728987,-1.2743948181130872e-17,0.6075809390104128,-1.2114316351788288e-17,-0.6075809390104129,0.7005153181716034,0.13622253122693864,0.7005153181716034,500.0,173.57142857142813,[0.34224662]
-7.494812215102066e-18,0.6317427479649853,1.3073901428491536e-17,0.6317427479649853,1.2059962458778122e-19,-0.011313265784058406,1.3073901428491536e-17,-0.011313265784058406,-1.2310115110903959e-17,0.6318440389756415,-1.1840610320694117e-17,-0.6318440389756416,0.7011304323241393,0.1297390987248292,0.7011304323241393,500.0,173.57142857142813,[0.34224662]
-7.069389917343594e-18,0.644660888139947,1.3329022540966673e-17,0.644660888139947,2.8366008437913446e-19,-0.009151774075191516,1.3329022540966673e-17,-0.009151774075191516,-1.190612671717796e-17,0.6447258453529753,-1.15269954155165e-17,-0.6447258453529753,0.7014660312657687,0.12605877185068434,0.7014660312657687,500.0,173.57142857142813,[0.34224662]
-6.737300062460706e-18,0.6520258298060297,1.3563388037511628e-17,0.6520258298060297,3.7020964623178285e-19,-0.0076502521821396816,1.3563388037511628e-17,-0.0076502521821396816,-1.1524657488448106e-17,0.6520707086602591,-1.1205868671232175e-17,-0.6520707086602591,0.7016834298919635,0.12361524351834417,0.7016834298919636,500.0,173.57142857142813,[0.34224662]
-6.4659848215433126e-18,0.6560951766537502,1.3789156232360014e-17,0.6560951766537502,3.969341974621461e-19,-0.006519175564823293,1.3789156232360014e-17,-0.006519175564823293,-1.1142645629236416e-17,0.6561275641812043,-1.0868073778713107e-17,-0.6561275641812042,0.7018393292391596,0.12183231043632274,0.7018393292391596,500.0,173.57142857142813,[0.34224662]
-6.24350632399105e-18,0.6578408191502915,1.4011329500266243e-17,0.6578408191502915,4.0439536658737443e-19,-0.005621382491421972,1.4011329500266243e-17,-0.005621382491421972,-1.0770401118697753e-17,0.6578648366354908,-1.0530567838801366e-17,-0.6578648366354911,0.7019584831614561,0.12045154974235373,0.7019584831614564,500.0,173.57142857142813,[0.35344917]
-6.054670916312544e-18,0.657638072538284,1.4228347778595042e-17,0.657638072538284,3.8770947927095476e-19,-0.00488572001805116,1.4228347778595042e-17,-0.00488572001805116,-1.0410365794000372e-17,0.657656220765807,-1.0198742991163045e-17,-0.6576562207658071,0.7020530928208647,0.11934366225869047,0.7020530928208647,500.0,173.57142857142813,[0.35344917]
-5.885370205980091e-18,0.6554784968732028,1.4442245931653292e-17,0.6554784968732028,3.3534563777389784e-19,-0.004275151482252949,1.4442245931653292e-17,-0.004275151482252949,-1.0047074686411983e-17,0.6554924383876214,-9.858486909437692e-18,-0.6554924383876213,0.7021293416199142,0.1184431309649137,0.7021293416199141,500.0,173.57142857142813,[0.34224662]
-5.784983566840655e-18,0.6509671996686641,1.4654363578443022e-17,0.6509671996686641,2.509665978485886e-19,-0.00377493836942114,1.4654363578443022e-17,-0.00377493836942114,-9.692058693671574e-18,0.6509781449512383,-9.521971634371567e-18,-0.6509781449512382,0.7021897264122684,0.11772500262105409,0.7021897264122682,500.0,173.57142857142813,[0.34224662]
-5.7258368443206635e-18,0.6431025224878364,1.4863089784721284e-17,0.6431025224878364,1.3959169145199874e-19,-0.0033917017951588,1.4863089784721284e-17,-0.0033917017951588,-9.350744120597494e-18,0.6431114662881432,-9.193878220767944e-18,-0.643111466288143,0.7022333315771795,0.11720365200807477,0.7022333315771794,500.0,173.57142857142813,[0.34224662]
-5.774673587685794e-18,0.6295698589183183,1.5063557833354122e-17,0.6295698589183183,-6.633657640430261e-20,-0.003165101700042083,1.5063557833354122e-17,-0.003165101700042083,-9.017569004750935e-18,0.6295778149896984,-8.866026187950004e-18,-0.6295778149896984,0.7022537438048814,0.11695879028126033,0.7022537438048814,500.0,173.57142857142813,[0.34224662]
-6.038934632339335e-18,0.6043595929799831,1.5262465819351686e-17,0.6043595929799831,-4.346470159496637e-19,-0.0032099515415533256,1.5262465819351686e-17,-0.0032099515415533256,-8.721699734530518e-18,0.6043681174713224,-8.559514855392894e-18,-0.6043681174713222,0.7022302349696182,0.11724075310671388,0.702230234969618,500.0,173.57142857142813,[0.34224662]
-6.8821824011105936e-18,0.5470365867912841,1.5439804243696317e-17,0.5470365867912841,-1.3090960374264216e-18,-0.003839968548247276,1.5439804243696317e-17,-0.003839968548247276,-8.51441489046963e-18,0.5470500641136146,-8.297591038531821e-18,-0.5470500641136147,0.7020875985952763,0.11893699087094722,0.7020875985952764,500.0,173.57142857142813,[0.3528583]
-1.0349048549553042e-17,0.35565910487120617,1.56053574122636e-17,0.35565910487120617,-5.9875882229957185e-18,-0.003074423993430483,1.56053574122636e-17,-0.003074423993430483,-9.081192428746064e-18,0.3556723927446143,-8.811593509846965e-18,-0.35567239274461426,0.7019500399298927,0.12054991864304342,0.7019500399298927,500.0,173.57142857142813,[0.28211796]
-1.0426916023696333e-17,0.35561470519658095,1.5514822907809976e-17,0.35561470519658095,-6.0238088076581905e-18,0.003887045198296557,1.5514822907809976e-17,0.003887045198296557,-9.151598733764127e-18,0.3556359482285568,-9.490927021190115e-18,-0.3556359482285569,0.7017533455901628,0.12281890695665436,0.7017533455901628,500.0,173.57142857142813,[0.28211796]
-7.103575637699186e-18,0.5469036616197618,1.4546668385001374e-17,0.5469036616197618,-1.3977482923961798e-18,0.004672589311423139,1.4546668385001374e-17,0.004672589311423139,-8.72875393079437e-18,0.5469236218924687,-8.97719211482123e-18,-0.5469236218924687,0.7019586097316982,0.12045007450011368,0.7019586097316982,500.0,173.57142857142813,[0.3528583]
-6.4128070343235035e-18,0.6041385687154444,1.3591248721313333e-17,0.6041385687154444,-5.845486865565234e-19,0.004061932282955736,1.3591248721313333e-17,0.004061932282955736,-9.08051414064377e-18,0.6041522237842188,-9.263165088861981e-18,-0.6041522237842188,0.7021124666234126,0.11864302939479981,0.7021124666234124,500.0,173.57142857142813,[0.34224662]
-6.306180144642968e-18,0.6292612337990153,1.2652735388574956e-17,0.6292612337990153,-2.8277830984615293e-19,0.0040359134562216546,1.2652735388574956e-17,0.0040359134562216546,-9.52289364095958e-18,0.6292741763013044,-9.685014714488513e-18,-0.6292741763013044,0.7021384201192046,0.11833544686616558,0.7021384201192045,500.0,173.57142857142813,[0.34224662]
-6.417690708660017e-18,0.6427068645801219,1.1727474109635136e-17,0.6427068645801219,-1.3341926972112805e-19,0.004280832263865284,1.1727474109635136e-17,0.004280832263865284,-9.99959451925144e-18,0.6427211209407101,-1.0155640357808279e-17,-0.6427211209407101,0.7021177403360562,0.11858059457930431,0.7021177403360561,500.0,173.57142857142813,[0.34224662]
-6.611138475434118e-18,0.6504851447862109,1.0798346588512244e-17,0.6504851447862109,-6.911755762370589e-20,0.004681872020669088,1.0798346588512244e-17,0.004681872020669088,-1.0486062746216325e-17,0.6505019934736216,-1.0641309308690547e-17,-0.6505019934736218,0.7020726245163508,0.11911364241532711,0.7020726245163508,500.0,173.57142857142813,[0.34224662]
-6.9041589356249024e-18,0.6549107464367008,9.87261050790082e-18,0.6549107464367008,-4.083294375806766e-20,0.0051993660588882055,9.87261050790082e-18,0.0051993660588882055,-1.0988131599533961e-17,0.6549313851127392,-1.1144562777918668e-17,-0.6549313851127393,0.7020099783305298,0.11984982540136942,0.7020099783305298,500.0,173.57142857142813,[0.34224662]
-7.189582569069999e-18,0.6569853913929842,8.955666736815376e-18,0.6569853913929842,-5.453436342439601e-20,0.005826686862305625,8.955666736815376e-18,0.005826686862305625,-1.148979347999022e-17,0.6570112288108811,-1.1648286595534445e-17,-0.6570112288108811,0.7019308850287884,0.12077278371141172,0.7019308850287884,500.0,173.57142857142813,[0.35344917]
-7.547718687080958e-18,0.6571040333572227,8.035730019478561e-18,0.6571040333572227,-8.892357021067558e-20,0.006578568093951484,8.035730019478561e-18,0.006578568093951484,-1.2000544421017213e-17,0.6571369630545042,-1.2161109399172284e-17,-0.6571369630545042,0.7018328555727301,0.12190687296971736,0.7018328555727302,500.0,173.57142857142813,[0.35344917]
-7.919420567137787e-18,0.6552751712795997,7.119600194115869e-18,0.6552751712795997,-1.5994033452080322e-19,0.007492043632102634,7.119600194115869e-18,0.007492043632102634,-1.2512787595869253e-17,0.6553179997629349,-1.2675104609492055e-17,-0.655317999762935,0.7017095843871846,0.12331795634995371,0.7017095843871847,500.0,173.57142857142813,[0.34224662]
-8.34158708200525e-18,0.6511235467432943,6.210829794663062e-18,0.6511235467432943,-2.5720684838968864e-19,0.008638266051658669,6.210829794663062e-18,0.008638266051658669,-1.3036358182029592e-17,0.6511808448994385,-1.3200136556836032e-17,-0.6511808448994384,0.7015485702298345,0.12513675406110827,0.7015485702298344,500.0,173.57142857142813,[0.34224662]
-8.821543743188119e-18,0.6436773240258674,5.3098427511840706e-18,0.6436773240258674,-3.915757214540276e-19,0.010154399606731238,5.3098427511840706e-18,0.010154399606731238,-1.3563727181562775e-17,0.6437574149448492,-1.3730392601620492e-17,-0.6437574149448493,0.7013244104303591,0.12762500800790536,0.7013244104303592,500.0,173.57142857142813,[0.34224662]
-9.415995436038127e-18,0.6306789523717841,4.4298232886672275e-18,0.6306789523717841,-6.085600853777127e-19,0.01232997537872254,4.4298232886672275e-18,0.01232997537872254,-1.4115446723968292e-17,0.6307994683396707,-1.4286405123969864e-17,-0.6307994683396707,0.7009788773675936,0.13136676508514977,0.7009788773675936,500.0,173.57142857142813,[0.34224662]
-1.0212170010510217e-17,0.6062564506704884,3.576112925918093e-18,0.6062564506704884,-1.000678437313575e-18,0.015882729835631056,3.576112925918093e-18,0.015882729835631056,-1.470487908486133e-17,0.6064644631687913,-1.488916643807971e-17,-0.6064644631687912,0.7003462258236005,0.1379504546903596,0.7003462258236004,500.0,173.57142857142813,[0.34224662]
-1.1564269513622045e-17,0.5504263874532075,2.814285165225889e-18,0.5504263874532075,-1.8894393377487254e-18,0.023105344074392603,2.814285165225889e-18,0.023105344074392603,-1.539151013081302e-17,0.5509111225321055,-1.5614702622021917e-17,-0.5509111225321055,0.6987219419285007,0.1535424883715581,0.6987219419285005,500.0,173.57142857142813,[0.34636612]
-1.5453573492172875e-17,0.36324882176178963,2.44640713434574e-18,0.36324882176178963,-6.580106794754191e-18,0.040787399820479485,2.44640713434574e-18,0.040787399820479485,-1.6942551534327528e-17,0.36553155608708265,-1.756889312451292e-17,-0.36553155608708277,0.6894383629810699,0.22214744495484384,0.68943836298107,500.0,173.57142857142813,[0.47864561]
-1.5136948606022277e-17,0.3662153750978798,2.6032443007985506e-18,0.3662153750978798,-6.514414592047067e-18,0.04707832103561521,2.6032443007985506e-18,0.04707832103561521,-1.7260532996682713e-17,0.3692290200805095,-1.7764527243628072e-17,-0.3692290200805094,0.6322010718909808,0.44793259470571006,0.6322010718909807,500.0,160.7142857142859,[1.23474322]
-1.0885574438467186e-17,0.5539587751428927,2.7266079494031777e-18,0.5539587751428927,-1.6663503809043991e-18,0.030833873566926597,2.7266079494031777e-18,0.030833873566926597,-1.6071561782172467e-17,0.5548162329248806,-1.6366933708312906e-17,-0.5548162329248806,0.6534156972596269,0.38222487248926024,0.6534156972596269,500.0,160.7142857142859,[0.91671697]
-9.130029172111194e-18,0.6091435001514132,3.2692002775322103e-18,0.6091435001514132,-6.249068286429856e-19,0.02253310636840749,3.2692002775322103e-18,0.02253310636840749,-1.5749815820849553e-17,0.6095601239084827,-1.5983132278776898e-17,-0.6095601239084826,0.6583369538595973,0.36494507856077885,0.6583369538595975,500.0,160.7142857142859,[0.90946291]
-7.948858270777324e-18,0.6334284908629261,3.926758199699348e-18,0.6334284908629261,-1.0572815794499663e-19,0.018955909455737763,3.926758199699348e-18,0.018955909455737763,-1.5557995945520957e-17,0.6337120635905382,-1.5791740559864064e-17,-0.6337120635905381,0.6601418033919156,0.3583651752457801,0.6601418033919156,500.0,160.7142857142859,[0.90619625]
-6.962898685283517e-18,0.6465250494077087,4.637324337060722e-18,0.6465250494077087,2.6242966677734845e-19,0.017244355620840552,4.637324337060722e-18,0.017244355620840552,-1.5400904421029786e-17,0.6467549824411236,-1.564135193903609e-17,-0.6467549824411236,0.660962102226602,0.3553282972694151,0.660962102226602,500.0,160.7142857142859,[0.90619625]
-6.0758335051041006e-18,0.6542056107737069,5.36530976074912e-18,0.6542056107737069,5.508547250750946e-19,0.016473814658412043,5.36530976074912e-18,0.016473814658412043,-1.5275726351751524e-17,0.6544129947802066,-1.553848767391723e-17,-0.6544129947802064,0.6613357299833207,0.35393516990383506,0.6613357299833206,500.0,160.7142857142859,[0.90619625]
-5.239639932596695e-18,0.6586933905438174,6.112605198849686e-18,0.6586933905438174,7.893916934491553e-19,0.016283270142613673,6.112605198849686e-18,0.016283270142613673,-1.5157704221952458e-17,0.6588946255909568,-1.545186215474223e-17,-0.6588946255909568,0.6614509228094433,0.35350438954710517,0.6614509228094433,500.0,160.7142857142859,[0.90619625]
-4.463678343572951e-18,0.6609545576799343,6.866386766928434e-18,0.6609545576799343,9.905889017919595e-19,0.01652360360415502,6.866386766928434e-18,0.01652360360415502,-1.5048499837483207e-17,0.661161067209757,-1.538483028445794e-17,-0.661161067209757,0.6613811885613506,0.3537652425470171,0.6613811885613506,500.0,160.7142857142859,[0.90619625]
-3.704131326624709e-18,0.6613772383848867,7.635599389334357e-18,0.6613772383848867,1.1858510892396958e-18,0.01715019765751287,7.635599389334357e-18,0.01715019765751287,-1.4937396246327535e-17,0.6615995622227322,-1.5326444758390884e-17,-0.6615995622227322,0.6611480558278217,0.3546357237366015,0.6611480558278217,500.0,160.7142857142859,[0.90619625]
-2.9801266062366456e-18,0.6599851508319592,8.412917554562689e-18,0.6599851508319592,1.3419760531850982e-18,0.01819273566112949,8.412917554562689e-18,0.01819273566112949,-1.4852067603059014e-17,0.6602358479736767,-1.5309644536958313e-17,-0.6602358479736766,0.660737633060234,0.3561622671141891,0.660737633060234,500.0,160.7142857142859,[0.90619625]
-2.3063152054183e-18,0.6564451634243392,9.191842414733327e-18,0.6564451634243392,1.466679320791755e-18,0.019764679810981248,9.191842414733327e-18,0.019764679810981248,-1.476192311426421e-17,0.6567426399673149,-1.530548299403949e-17,-0.6567426399673147,0.660095520667641,0.3585356428432628,0.660095520667641,500.0,160.7142857142859,[0.90619625]
-1.6551586272165567e-18,0.6498746571097752,9.997635962356067e-18,0.6498746571097752,1.5533306258597476e-18,0.022119801826830734,9.997635962356067e-18,0.022119801826830734,-1.4701419815539632e-17,0.650250994298668,-1.5370083880614317e-17,-0.6502509942986678,0.6590955318097648,0.3621963002251776,0.6590955318097648,500.0,160.7142857142859,[0.91330262]
-1.1266365379094748e-18,0.6382102797612326,1.0838009485293856e-17,0.6382102797612326,1.5623857720253656e-18,0.02581946873736171,1.0838009485293856e-17,0.02581946873736171,-1.4663978312293032e-17,0.638732343128787,-1.5521455159487692e-17,-0.6387323431287869,0.65744029946245,0.3681636936003441,0.65744029946245,500.0,160.7142857142859,[0.91330262]
-7.50797100428656e-19,0.6160652491418723,1.174266564347619e-17,0.6160652491418723,1.389761449991674e-18,0.03227180133310011,1.174266564347619e-17,0.03227180133310011,-1.4685564831148522e-17,0.6169099288887483,-1.5861185532904125e-17,-0.6169099288887483,0.6542953741106294,0.3792032790402303,0.6542953741106295,500.0,160.7142857142859,[0.91330262]
-9.025979777219374e-19,0.564993947157909,1.2835873176194196e-17,0.564993947157909,6.983993445264845e-19,0.04592177635722143,1.2835873176194196e-17,0.04592177635722143,-1.4874417196029585e-17,0.566857098278637,-1.6881981787223327e-17,-0.5668570982786368,0.6463130361386308,0.4056586232715011,0.6463130361386309,500.0,160.7142857142859,[0.91011424]
-3.3280884027132026e-18,0.38894643866740675,1.4632573573156843e-17,0.38894643866740675,-3.7669662407009215e-18,0.07702305591513056,1.4632573573156843e-17,0.07702305591513056,-1.6176815138445858e-17,0.39649953757169026,-2.1246000162262956e-17,-0.39649953757168993,0.6093447758024612,0.5073439547333707,0.6093447758024613,500.0,160.7142857142859,[1.30081109]
-2.9473652908958703e-18,0.39434219820611816,1.5511274613174854e-17,0.39434219820611816,-3.778505617041189e-18,0.08140229501443996,1.5511274613174854e-17,0.08140229501443996,-1.7101915323961382e-17,0.4026563086798109,-2.2605962256311e-17,-0.40265630867981117,0.510307359594665,0.6922230836132544,0.5103073595946651,500.0,147.85714285714295,[1.36363352]
-2.8956119086908776e-19,0.5715103180864969,1.5082662241685282e-17,0.5715103180864969,6.56998334482746e-19,0.05135020141819965,1.5082662241685282e-17,0.05135020141819965,-1.714586839299e-17,0.573812588625431,-1.9798260655352854e-17,-0.5738125886254313,0.5626559384268619,0.6056703640644595,0.5626559384268618,500.0,147.85714285714295,[1.42747307]
1.375568271451183e-19,0.6215187926859898,1.5381289176971586e-17,0.6215187926859898,1.294377185606653e-18,0.03700802015233119,1.5381289176971586e-17,0.03700802015233119,-1.8326564492652265e-17,0.6226196296435296,-2.007773288111106e-17,-0.6226196296435296,0.5753045956423204,0.5814200241354377,0.5753045956423202,500.0,147.85714285714295,[1.39706976]
6.002849705297322e-20,0.6435151035512219,1.5881490618357595e-17,0.6435151035512219,1.422887345187432e-18,0.030592475877175035,1.5881490618357595e-17,0.030592475877175035,-1.971078093740769e-17,0.6442418707898729,-2.1173398355415037e-17,-0.6442418707898728,0.5801846012990042,0.5716394465316676,0.5801846012990042,500.0,147.85714285714295,[1.39706976]
-1.903954703137806e-19,0.6554544421463236,1.6461028451558426e-17,0.6554544421463236,1.3811132766874321e-18,0.027267459617763737,1.6461028451558426e-17,0.027267459617763737,-2.1158502105740342e-17,0.6560213716666211,-2.2475492307762824e-17,-0.656021371666621,0.5825701505787063,0.5667663004355563,0.5825701505787063,500.0,147.85714285714295,[1.39339448]
-5.163807322760284e-19,0.6625441312825978,1.708613664698178e-17,0.6625441312825978,1.262264483263696e-18,0.025481658654777688,1.708613664698178e-17,0.025481658654777688,-2.2644241322206544e-17,0.663033966569444,-2.3925496651519766e-17,-0.6630339665694439,0.5838238814046047,0.5641802469099078,0.5838238814046045,500.0,147.85714285714295,[1.39339448]
-8.942889484688423e-19,0.6667855673451129,1.771896672851968e-17,0.6667855673451129,1.1032440769816283e-18,0.02462420731724431,1.771896672851968e-17,0.02462420731724431,-2.415287276212515e-17,0.6672400950225841,-2.5434358694888826e-17,-0.6672400950225837,0.5844329414839842,0.5629176439025121,0.5844329414839842,500.0,147.85714285714295,[1.39339448]
-1.2992269455380514e-18,0.6690510735303768,1.8376312685654852e-17,0.6690510735303768,9.029328824724448e-19,0.024433028024006157,1.8376312685654852e-17,0.024433028024006157,-2.5670644134222165e-17,0.6694970588811961,-2.6980749349112393e-17,-0.6694970588811961,0.5845961866733879,0.562578525233471,0.5845961866733879,500.0,147.85714285714295,[1.39339448]
-1.724750986511868e-18,0.6696968861600855,1.903731927889209e-17,0.6696968861600855,6.700002695435842e-19,0.02481298683429865,1.903731927889209e-17,0.02481298683429865,-2.7204168747494943e-17,0.6701564023779475,-2.8579498878043334e-17,-0.6701564023779477,0.584384702116314,0.563017797112004,0.5843847021163143,500.0,147.85714285714295,[1.39339448]
-2.1834094012827208e-18,0.6687572612003803,1.972109939516383e-17,0.6687572612003803,4.3084860257682025e-19,0.025780535299452467,1.972109939516383e-17,0.025780535299452467,-2.874692655756019e-17,0.6692539954371288,-3.022604853225124e-17,-0.6692539954371287,0.5837881891155687,0.5642541098639248,0.5837881891155687,500.0,147.85714285714295,[1.39339448]
-2.6799841209717795e-18,0.6659553965359082,2.0421251690504678e-17,0.6659553965359082,1.5024505395864575e-19,0.027468970909828652,2.0421251690504678e-17,0.027468970909828652,-3.0320766919913034e-17,0.6665216684685831,-3.195985076821685e-17,-0.6665216684685831,0.5827114949982873,0.5664756192403357,0.5827114949982873,500.0,147.85714285714295,[1.39339448]
-3.2177987572802823e-18,0.6605396676738924,2.1144598259468485e-17,0.6605396676738924,-1.6507412759503702e-19,0.03019840887073367,2.1144598259468485e-17,0.03019840887073367,-3.190155125671311e-17,0.6612296094920889,-3.376604281369436e-17,-0.6612296094920889,0.5809184572882599,0.5701469038446639,0.5809184572882601,500.0,147.85714285714295,[1.39339448]
-3.821949969993087e-18,0.6507396555351592,2.1910787200693404e-17,0.6507396555351592,-5.595495306863692e-19,0.0346908654597762,2.1910787200693404e-17,0.0346908654597762,-3.3544873756544645e-17,0.6516636827631002,-3.579518597297765e-17,-0.6516636827631,0.5778485285622968,0.5763524582031185,0.5778485285622967,500.0,147.85714285714295,[1.39706976]
-4.579529951444678e-18,0.6319052962285618,2.277218977445261e-17,0.6319052962285618,-1.138517177951209e-18,0.04276594923646164,2.277218977445261e-17,0.04276594923646164,-3.5271100019679e-17,0.633350795227891,-3.815084780717251e-17,-0.6333507952278908,0.5719554429080902,0.5879914477742182,0.5719554429080901,500.0,147.85714285714295,[1.4057896]
-5.7456089425025185e-18,0.587910364142778,2.3857262089243733e-17,0.587910364142778,-2.222391890311719e-18,0.06014054876736345,2.3857262089243733e-17,0.06014054876736345,-3.7274228921973393e-17,0.5909784106653417,-4.175793640532779e-17,-0.5909784106653418,0.5573320503086691,0.6154364072733027,0.557332050308669,500.0,147.85714285714295,[1.47400801]
-8.826919176398794e-18,0.4277127324154123,2.5843072388601287e-17,0.4277127324154123,-7.082639851491833e-18,0.09850153696276309,2.5843072388601287e-17,0.09850153696276309,-4.074829340290143e-17,0.43890857163455443,-5.134239647082901e-17,-0.4389085716345542,0.4990229200825875,0.7084858858611759,0.4990229200825876,500.0,147.85714285714295,[1.40041709]
-8.49091220772516e-18,0.4344672399510187,2.583649193418388e-17,0.4344672399510187,-7.271053448756725e-18,0.10010301517987712,2.583649193418388e-17,0.10010301517987712,-4.0191660511054924e-17,0.44585019483987987,-4.901350842030062e-17,-0.44585019483987964,0.3749737340489661,0.8478144829777031,0.3749737340489662,500.0,134.9999999999996,[1.41588115]
-5.330394880683563e-18,0.5961164270836238,2.3695767521126034e-17,0.5961164270836238,-2.7813775940130568e-18,0.062197565874817805,2.3695767521126034e-17,0.062197565874817805,-3.500864491709782e-17,0.5993524270741694,-3.94955963098217e-17,-0.5993524270741694,0.44541311346248125,0.7766687303550448,0.4454131134624814,500.0,134.9999999999996,[1.57144912]
-4.057994229591219e-18,0.638840209786623,2.2462028761951838e-17,0.638840209786623,-2.0582398106057372e-18,0.04465640078199567,2.2462028761951838e-17,0.04465640078199567,-3.132073739401984e-17,0.6403991003827366,-3.4318377150329594e-17,-0.6403991003827367,0.46391680488737913,0.7546935777427625,0.4639168048873792,500.0,134.9999999999996,[1.5725167]
-3.1591437936344534e-18,0.6575434492368849,2.1463361872791627e-17,0.6575434492368849,-1.855476180676699e-18,0.03667465529492217,2.1463361872791627e-17,0.03667465529492217,-2.7948089702286596e-17,0.6585654242179294,-3.0256934473057094e-17,-0.6585654242179296,0.47137973776809056,0.7453873393366512,0.47137973776809056,500.0,134.9999999999996,[1.59377334]
-2.403513890476956e-18,0.6677408441753135,2.055992875284374e-17,0.6677408441753135,-1.822820847851907e-18,0.03239588792862389,2.055992875284374e-17,0.03239588792862389,-2.467205143282314e-17,0.6685262362350817,-2.6601002684141347e-17,-0.6685262362350816,0.4751832626829554,0.7405415138477807,0.4751832626829555,500.0,134.9999999999996,[1.6029655]
-1.7222582777359394e-18,0.6738586705325535,1.9698654417928874e-17,0.6738586705325535,-1.8670865653026756e-18,0.029949357807992048,1.9698654417928874e-17,0.029949357807992048,-2.1449190950579492e-17,0.6745238853332117,-2.3168556538306037e-17,-0.6745238853332117,0.47730653185577576,0.7378054955715786,0.4773065318557758,500.0,134.9999999999996,[1.6029655]
-1.0556197735993471e-18,0.6775900755857085,1.88715499059922e-17,0.6775900755857085,-1.9493342968315596e-18,0.02859533740796833,1.88715499059922e-17,0.02859533740796833,-1.8263788928785003e-17,0.6781931906571471,-1.98308258102474e-17,-0.6781931906571472,0.478473351781135,0.7362924033769822,0.478473351781135,500.0,134.9999999999996,[1.61125964]
-4.145018593115473e-19,0.6796738274935731,1.805284238879689e-17,0.6796738274935731,-2.079879320719219e-18,0.02801069596798015,1.805284238879689e-17,0.02801069596798015,-1.5099413838161612e-17,0.6802507705753622,-1.655454332488305e-17,-0.6802507705753622,0.4789874261916715,0.7356236069489315,0.4789874261916717,500.0,134.9999999999996,[1.61125964]
1.9897581480779317e-19,0.6804155201728264,1.7264099308345553e-17,0.6804155201728264,-2.2283300906822665e-18,0.02806862405731267,1.7264099308345553e-17,0.02806862405731267,-1.1949702488449677e-17,0.680994220055155,-1.3351072685574285e-17,-0.680994220055155,0.4789665439911325,0.7356507999549656,0.47896654399113253,500.0,134.9999999999996,[1.61125964]
7.820492247418283e-19,0.67985316989756,1.6473705550207775e-17,0.67985316989756,-2.3997091181531534e-18,0.028769082001719692,1.6473705550207775e-17,0.028769082001719692,-8.829704396918837e-18,0.6804616026632084,-1.0206876224053248e-17,-0.6804616026632085,0.47841353968218436,0.73637013118236,0.4784135396821845,500.0,134.9999999999996,[1.61125964]
1.3391272431554655e-18,0.6777693383615109,1.5709894326728943e-17,0.6777693383615109,-2.604731235497797e-18,0.030238800802826545,1.5709894326728943e-17,0.030238800802826545,-5.72165689389028e-18,0.6784435577828075,-7.105670703770544e-18,-0.6784435577828074,0.47721769197340946,0.7379204218173829,0.4772176919734095,500.0,134.9999999999996,[1.61312826]
1.893441237552257e-18,0.6735592142296758,1.4971273557561615e-17,0.6735592142296758,-2.8509996284128435e-18,0.03280083622360359,1.4971273557561615e-17,0.03280083622360359,-2.6662487869003364e-18,0.6743574051870903,-4.1137414560095226e-18,-0.6743574051870903,0.4750881157954349,0.7406635973638009,0.4750881157954349,500.0,134.9999999999996,[1.6029655]
2.3604256387787624e-18,0.6657860100535654,1.4276330302881347e-17,0.6657860100535654,-3.1893848447451444e-18,0.03719484977639538,1.4276330302881347e-17,0.03719484977639538,3.3285716829860863e-19,0.666824165753563,-1.2594190775786988e-18,-0.6668241657535628,0.47133201866402696,0.7454476885497643,0.471332018664027,500.0,134.9999999999996,[1.59377334]
2.7514078581432832e-18,0.6506419641794741,1.367118629895007e-17,0.6506419641794741,-3.673604652633443e-18,0.04529154233744612,1.367118629895007e-17,0.04529154233744612,3.1878862519691397e-18,0.6522164436432346,1.2986521859660579e-18,-0.6522164436432345,0.4640717262973153,0.7545030587763442,0.4640717262973153,500.0,134.9999999999996,[1.5725167]
2.8157519632470987e-18,0.6146424164230192,1.3312508875238726e-17,0.6146424164230192,-4.665328097259004e-18,0.0629474141142844,1.3312508875238726e-17,0.0629474141142844,5.672021042354635e-18,0.6178573273903962,2.8455723001828154e-18,-0.617857327390396,0.44645825002908684,0.7754676408219304,0.4464582500290868,500.0,134.9999999999996,[1.57144912]
1.395976264728938e-18,0.47187896826699005,1.3856204481359145e-17,0.47187896826699005,-9.480839248704804e-18,0.10096781574101751,1.3856204481359145e-17,0.10096781574101751,6.274173424815994e-18,0.4825601107719443,1.077413371568883e-18,-0.48256011077194383,0.3843160098051074,0.8394059859299082,0.3843160098051073,500.0,134.9999999999996,[1.5298915]
1.498194281744566e-18,0.47865561153976155,1.3020939580648043e-17,0.47865561153976155,-9.461919249951455e-18,0.09947341417001676,1.3020939580648043e-17,0.09947341417001676,7.286887236644639e-18,0.488882557047337,2.268312320133915e-18,-0.4888825570473372,0.24651063307079052,0.9372646454262938,0.2465106330707906,500.0,122.14285714285755,[1.53107378]
2.5347202452643515e-18,0.6229174199409483,1.0932208335237603e-17,0.6229174199409483,-4.6321677577455516e-18,0.06122287421642152,1.0932208335237603e-17,0.06122287421642152,9.328631928462726e-18,0.6259188065501848,7.2822129711566e-18,-0.625918806550185,0.3158366144270744,0.8947035631841906,0.3158366144270744,500.0,122.14285714285755,[1.57575317]
2.1408722586676408e-18,0.6576922235160821,9.743937930114297e-18,0.6576922235160821,-3.617788430678228e-18,0.04395732637857526,9.743937930114297e-18,0.04395732637857526,9.462350068878927e-18,0.6591595462525601,8.135089663868206e-18,-0.6591595462525602,0.3354389474148477,0.8803189337475585,0.3354389474148477,500.0,122.14285714285755,[1.61085391]
1.425803984027294e-18,0.6727513950435077,8.788337301280213e-18,0.6727513950435077,-3.102631266549228e-18,0.03599035687811484,8.788337301280213e-18,0.03599035687811484,9.185019260354319e-18,0.6737133999863739,8.219831729906298e-18,-0.6737133999863739,0.34368192241333995,0.8739367668272929,0.34368192241334,500.0,122.14285714285755,[1.61085391]
6.396256804627542e-19,0.6809681177504839,7.93187616232873e-18,0.6809681177504839,-2.7471463011755924e-18,0.03160513166712686,7.93187616232873e-18,0.03160513166712686,8.753445737368173e-18,0.6817011528084234,7.983385688318524e-18,-0.6817011528084234,0.3480408044953594,0.870479865828295,0.34804080449535935,500.0,122.14285714285755,[1.6292363]
-1.9321884453957721e-19,0.6859263712680499,7.100926604712182e-18,0.6859263712680499,-2.4806564442109216e-18,0.028982004197456415,7.100926604712182e-18,0.028982004197456415,8.249562463376902e-18,0.6865383771998882,7.647394408365668e-18,-0.6865383771998881,0.35059316186326905,0.8684289664154641,0.3505931618632691,500.0,122.14285714285755,[1.6292363]
-1.0575359374883262e-18,0.6889856654177112,6.3096992940861954e-18,0.6889856654177112,-2.2465924679239386e-18,0.02739889675279387,6.3096992940861954e-18,0.02739889675279387,7.702805022369724e-18,0.6895302362437461,7.195782856286256e-18,-0.6895302362437461,0.3521157011915957,0.8671960942881962,0.35211570119159563,500.0,122.14285714285755,[1.62475204]
-1.9473397058807528e-18,0.6907379450199945,5.529188670520155e-18,0.6907379450199945,-2.0627260505073127e-18,0.02653562540354788,5.529188670520155e-18,0.02653562540354788,7.131900524920897e-18,0.6912474579381844,6.687593479198125e-18,-0.6912474579381849,0.35294234382616707,0.8665237468580901,0.3529423438261671,500.0,122.14285714285755,[1.61936527]
-2.8404331715693028e-18,0.6914294279562574,4.7589718637752885e-18,0.6914294279562574,-1.8795426904061995e-18,0.026258821905229667,4.7589718637752885e-18,0.026258821905229667,6.521924513129648e-18,0.6919278716540966,6.162485556985522e-18,-0.6919278716540969,0.3532107540233292,0.8663049846818048,0.35321075402332924,500.0,122.14285714285755,[1.61704538]
-3.7416660944853746e-18,0.6910943569086945,4.006789704340875e-18,0.6910943569086945,-1.743573481350512e-18,0.026551964268651914,4.006789704340875e-18,0.026551964268651914,5.8967506085463835e-18,0.6916042343403963,5.566243584516658e-18,-0.6916042343403962,0.35294000060582403,0.8665256556760002,0.3529400006058241,500.0,122.14285714285755,[1.61704538]
-4.667855780265207e-18,0.6895659222590618,3.276983368549738e-18,0.6895659222590618,-1.6245675688468306e-18,0.02751011797732125,3.276983368549738e-18,0.02751011797732125,5.233591510409525e-18,0.6901144598775748,4.963974732189402e-18,-0.6901144598775745,0.3520374380442355,0.8672596407250267,0.35203743804423543,500.0,122.14285714285755,[1.62475204]
-5.614135511774845e-18,0.6863728545339315,2.558022356097322e-18,0.6863728545339315,-1.5599664561417555e-18,0.029395296328437376,2.558022356097322e-18,0.029395296328437376,4.520509348118706e-18,0.6870020224768586,4.301325869628092e-18,-0.6870020224768587,0.35024086247266634,0.8687132303060693,0.35024086247266634,500.0,122.14285714285755,[1.6292363]
-6.5864784636151105e-18,0.6803866049801334,1.8857210736535943e-18,0.6803866049801334,-1.5713399698445094e-18,0.03281830964609657,1.8857210736535943e-18,0.03281830964609657,3.727384950456617e-18,0.6811776373930806,3.531012666946492e-18,-0.6811776373930806,0.34692080047510654,0.8713735802716438,0.3469208004751065,500.0,122.14285714285755,[1.62799678]
-7.636951726238305e-18,0.6685804582710333,1.2756800150931592e-18,0.6685804582710333,-1.742254396460954e-18,0.03933043877257045,1.2756800150931592e-18,0.03933043877257045,2.753834857759302e-18,0.6697363007900559,2.5863167414058767e-18,-0.669736300790056,0.34039398285874495,0.8765066302470967,0.34039398285874495,500.0,122.14285714285755,[1.61085391]
-8.885506311234394e-18,0.6399102868878862,8.84439728302219e-19,0.6399102868878862,-2.435729130904127e-18,0.05376784624262961,8.84439728302219e-19,0.05376784624262961,1.3024975659812978e-18,0.6421652097042536,1.1129032262911173e-18,-0.6421652097042533,0.32475188125050974,0.8882974902860581,0.32475188125050974,500.0,122.14285714285755,[1.57069188]
-1.1252969189074451e-17,0.512710531935825,1.2192422056817021e-18,0.512710531935825,-6.921927434342092e-18,0.08391422638469387,1.2192422056817021e-18,0.08391422638469387,-2.4059165141142986e-18,0.5195321808585668,-2.6314910280693535e-18,-0.5195321808585666,0.2745585345722496,0.9215395933909067,0.2745585345722496,500.0,122.14285714285755,[1.53762151]
-1.1803327915974744e-17,0.5181673192011772,1.9826586442884966e-19,0.5181673192011772,-6.834303739689952e-18,0.07961850457770421,1.9826586442884966e-19,0.07961850457770421,-2.8827678875788546e-18,0.5242484877987964,-2.8194269234217252e-18,-0.5242484877987963,0.12947035974160395,0.98309452846446,0.1294703597416039,500.0,109.28571428571402,[1.55234239]
-1.103035927320237e-17,0.646616979765437,-1.782512517547957e-18,0.646616979765437,-2.179365373429086e-18,0.048599061777361285,-1.782512517547957e-18,0.048599061777361285,3.5243743812653377e-19,0.6484407354004025,5.718427501881739e-19,-0.6484407354004025,0.18286373604330902,0.9659822503962304,0.18286373604330902,500.0,109.28571428571402,[1.58246043]
-1.1379020554284416e-17,0.6743526689829052,-3.0567646831945304e-18,0.6743526689829052,-1.323656445384795e-18,0.0350287637083872,-3.0567646831945304e-18,0.0350287637083872,1.314022104769328e-18,0.6752618280721232,1.6055434155656125e-18,-0.6752618280721231,0.19860582631128296,0.9597455139308674,0.19860582631128296,500.0,109.28571428571402,[1.60472827]
-1.1872013064933238e-17,0.6861381447618694,-4.1428801308992186e-18,0.6861381447618694,-9.823637312046361e-19,0.028654292687618956,-4.1428801308992186e-18,0.028654292687618956,1.7592917482960036e-18,0.6867362100447937,2.079394305334545e-18,-0.6867362100447938,0.20549059616028376,0.9568423223182501,0.20549059616028376,500.0,109.28571428571402,[1.64044992]
-1.2431214972967183e-17,0.6925272284161944,-5.167681844827418e-18,0.6925272284161944,-8.022351846485983e-19,0.02503071454695169,-5.167681844827418e-18,0.02503071454695169,2.024677267444128e-18,0.692979436035837,2.379540699387834e-18,-0.6929794360358371,0.20928244044475866,0.955197215366006,0.2092824404447587,500.0,109.28571428571402,[1.6308158]
-1.3034916819812219e-17,0.6963671735474335,-6.1568009678399056e-18,0.6963671735474335,-7.040464904125126e-19,0.022749883035640826,-6.1568009678399056e-18,0.022749883035640826,2.2064998120400147e-18,0.6967386867201915,2.595124001054254e-18,-0.6967386867201912,0.21162525913883456,0.954164293708815,0.2116252591388345,500.0,109.28571428571402,[1.6308158]
-1.3642425558631376e-17,0.6987245385374317,-7.126532444247268e-18,0.6987245385374317,-6.484579983885172e-19,0.021250389355262193,-7.126532444247268e-18,0.021250389355262193,2.3280882535019206e-18,0.6990476091097781,2.7437552620433945e-18,-0.6990476091097781,0.21314549935756633,0.9534872795204072,0.2131454993575663,500.0,109.28571428571402,[1.62937209]
-1.425752476524526e-17,0.7000602509907741,-8.080386679935164e-18,0.7000602509907741,-6.183763184862361e-19,0.020278415802093587,-8.080386679935164e-18,0.020278415802093587,2.413320452680896e-18,0.7003538885197313,2.871655238630753e-18,-0.7003538885197312,0.21411963380786872,0.9530506622609147,0.2141196338078687,500.0,109.28571428571402,[1.62880923]
-1.48916308762756e-17,0.7005641745065431,-9.030725475567891e-18,0.7005641745065431,-6.254682710214074e-19,0.019720453892365587,-9.030725475567891e-18,0.019720453892365587,2.4638248309350248e-18,0.7008416789145426,2.9605436741653613e-18,-0.7008416789145427,0.21466988724731123,0.9528030641315408,0.2146698872473112,500.0,109.28571428571402,[1.62880923]
-1.553333169440131e-17,0.7002599879361913,-9.965050644230896e-18,0.7002599879361913,-6.488432448341167e-19,0.019546775382517496,-9.965050644230896e-18,0.019546775382517496,2.4847526684536783e-18,0.700532745224839,3.032801687780696e-18,-0.7005327452248391,0.214828617663879,0.9527315099571618,0.21482861766387898,500.0,109.28571428571402,[1.62880923]
-1.6180473654897604e-17,0.6990127449820432,-1.0893587246588108e-17,0.6990127449820432,-7.156326977770307e-19,0.019801955323853707,-1.0893587246588108e-17,0.019801955323853707,2.466611641192807e-18,0.6992931681934116,3.0746479110377948e-18,-0.6992931681934117,0.21454933350718816,0.9528573696956131,0.2145493335071882,500.0,109.28571428571402,[1.62880923]
-1.6835216681440224e-17,0.6964449956887326,-1.1809866109863902e-17,0.6964449956887326,-8.149841526915988e-19,0.020635073827287985,-1.1809866109863902e-17,0.020635073827287985,2.396106772434879e-18,0.6967506284832017,3.0775515144926882e-18,-0.6967506284832016,0.21367351979045457,0.9532508871649248,0.2136735197904545,500.0,109.28571428571402,[1.62937209]
-1.7523064406675405e-17,0.6916499863948052,-1.270161028564584e-17,0.6916499863948052,-1.0025175651612487e-18,0.02240711595278939,-1.270161028564584e-17,0.02240711595278939,2.2200597450475053e-18,0.6920128485261353,3.019712426098485e-18,-0.6920128485261356,0.2118090917301872,0.9540827098951467,0.21180909173018722,500.0,109.28571428571402,[1.6308158]
-1.8224482133257096e-17,0.6821660974548595,-1.354873357007032e-17,0.6821660974548595,-1.3482320686254507e-18,0.02604269667069819,-1.354873357007032e-17,0.02604269667069819,1.847852328389436e-18,0.6826630256331998,2.8594193650199762e-18,-0.6826630256331998,0.20791112692411756,0.9557959649435055,0.20791112692411753,500.0,109.28571428571402,[1.63773285]
-1.908652908071348e-17,0.6587053262210807,-1.427103614501262e-17,0.6587053262210807,-2.2080935241241144e-18,0.03439978302033871,-1.427103614501262e-17,0.03439978302033871,9.123934117616992e-19,0.6596029501631013,2.3387723757964487e-18,-0.6596029501631013,0.19841695827686803,0.9598236407467315,0.19841695827686803,500.0,109.28571428571402,[1.60472827]
-2.0802138015396625e-17,0.5421137220276558,-1.4580407190334878e-17,0.5421137220276558,-6.862303724261103e-18,0.050698755805890706,-1.4580407190334878e-17,0.050698755805890706,-2.5281212439066478e-18,0.5444792479525219,-4.325293756775715e-20,-0.5444792479525219,0.1703810494218694,0.9705362414643796,0.17038104942186946,500.0,109.28571428571402,[1.55589237]
-1.9903007785597663e-17,0.5451675767370499,-1.469291610965249e-17,0.5451675767370499,-6.83172180688338e-18,0.04445156418781029,-1.469291610965249e-17,0.04445156418781029,-2.5633948747888085e-18,0.5469768078118945,-2.027583916186547e-19,-0.5469768078118946,0.021805331321931822,0.999524414435126,0.02180533132193178,500.0,96.42857142857196,[1.60884833]
-1.6656101990127712e-17,0.662509618749659,-1.403593499732859e-17,0.662509618749659,-2.123670766410962e-18,0.026807587809305436,-1.403593499732859e-17,0.026807587809305436,1.0903661414644906e-18,0.6630517639671675,2.1908741015250326e-18,-0.6630517639671674,0.05069710720663067,0.9974264918487773,0.050697107206630634,500.0,96.42857142857196,[1.61699946]
-1.428554230317062e-17,0.6855076292972384,-1.2999393997539352e-17,0.6855076292972384,-1.2118628418109984e-18,0.019620725562267877,-1.2999393997539352e-17,0.019620725562267877,2.2179125392736825e-18,0.6857883658216359,2.950843391824824e-18,-0.6857883658216359,0.05903498140408688,0.9965087766503806,0.05903498140408687,500.0,96.42857142857196,[1.63535031]
-1.2006150896112733e-17,0.6950354531280784,-1.186356162167429e-17,0.6950354531280784,-8.074154113126473e-19,0.016101558062896017,-1.186356162167429e-17,0.016101558062896017,2.7724390286150205e-18,0.6952219367058307,3.3123713865215975e-18,-0.6952219367058305,0.06287576301820141,0.9960387928438119,0.06287576301820139,500.0,96.42857142857196,[1.62224496]
-9.759859948446767e-18,0.7001090907228946,-1.069894545429331e-17,0.7001090907228946,-5.649443719452845e-19,0.013957426986412332,-1.069894545429331e-17,0.013957426986412332,3.1142554289022826e-18,0.7002482050536932,3.534135161428925e-18,-0.7002482050536933,0.06514959992612923,0.9957464834278505,0.06514959992612922,500.0,96.42857142857196,[1.62295288]
-7.551551014858916e-18,0.7030905676813286,-9.516033591417196e-18,0.7030905676813286,-4.0793842833577053e-19,0.012470588256635173,-9.516033591417196e-18,0.012470588256635173,3.3562267607067838e-18,0.7032011532512727,3.690319746600898e-18,-0.7032011532512727,0.0666973870622846,0.9955415195350356,0.06669738706228458,500.0,96.42857142857196,[1.62295288]
-5.3508516259186706e-18,0.704852210401854,-8.326611156345151e-18,0.704852210401854,-2.95972073260921e-19,0.011351496936376512,-8.326611156345151e-18,0.011351496936376512,3.543666908562368e-18,0.7049436112137453,3.809620860073356e-18,-0.7049436112137455,0.06784584029200637,0.9953862988358556,0.06784584029200637,500.0,96.42857142857196,[1.62295288]
-3.1387463986082965e-18,0.7057656964197679,-7.13623209658821e-18,0.7057656964197679,-2.0462700127724322e-19,0.010462974280302384,-7.13623209658821e-18,0.010462974280302384,3.686608707344601e-18,0.7058432489396426,3.8973025064185286e-18,-0.7058432489396426,0.06874634430507374,0.9952627192301421,0.06874634430507373,500.0,96.42857142857196,[1.62295288]
-9.402132922947504e-19,0.7059787304792269,-5.92916820934001e-18,0.7059787304792269,-1.5398027525633418e-19,0.009733854360664648,-5.92916820934001e-18,0.009733854360664648,3.7964500467349114e-18,0.7060458312388618,3.9593990075995366e-18,-0.7060458312388619,0.06947613143950282,0.9951613609462547,0.0694761314395028,500.0,96.42857142857196,[1.62295288]
1.2583113354175167e-18,0.7054997422221388,-4.7298457487327424e-18,0.7054997422221388,-1.1771478050271425e-19,0.0091270917992879,-4.7298457487327424e-18,0.0091270917992879,3.87319304638362e-18,0.7055587786146641,3.9951348236871166e-18,-0.7055587786146643,0.07007461424935992,0.995077432602914,0.07007461424935993,500.0,96.42857142857196,[1.62295288]
3.4340497221933626e-18,0.7042005853623727,-3.527387099879846e-18,0.7042005853623727,-1.2160553114260826e-19,0.008627943677206498,-3.527387099879846e-18,0.008627943677206498,3.897299299556614e-18,0.7042534386403845,3.983560042273917e-18,-0.7042534386403846,0.07055646861635917,0.9950093313495998,0.07055646861635914,500.0,96.42857142857196,[1.62295288]
5.6021849232725616e-18,0.7017393383667574,-2.317349276994081e-18,0.7017393383667574,-1.6049753759858572e-19,0.008243030863954445,-2.317349276994081e-18,0.008243030863954445,3.868770925904214e-18,0.7017877503698954,3.923375370567114e-18,-0.7017877503698954,0.07091209515535096,0.9949587677493761,0.07091209515535095,500.0,96.42857142857196,[1.62295288]
7.780089592675107e-18,0.6973006834720833,-1.1027167477255386e-18,0.6973006834720833,-2.8295642671207746e-19,0.008012016651047478,-1.1027167477255386e-18,0.008012016651047478,3.734972768688446e-18,0.6973467111713164,3.760607951272532e-18,-0.6973467111713163,0.07109254477901561,0.9949330128976964,0.0710925447790156,500.0,96.42857142857196,[1.62295288]
9.914030594797436e-18,0.6886602357761,1.1261049693527457e-19,0.6886602357761,-5.701050580829491e-19,0.008049719547120566,1.1261049693527457e-19,0.008049719547120566,3.390903710023958e-18,0.6887072805800595,3.3891230991863014e-18,-0.6887072805800597,0.07095262359274579,0.9949529890455189,0.07095262359274579,500.0,96.42857142857196,[1.63983884]
1.1961157078777159e-17,0.667253901581416,1.3508635151387087e-18,0.667253901581416,-1.3673283295506944e-18,0.008669855331040604,1.3508635151387087e-18,0.008669855331040604,2.454284284846203e-18,0.6673102243837445,2.4206079099435763e-18,-0.6673102243837445,0.0700350215876684,0.9950830073428197,0.0700350215876684,500.0,96.42857142857196,[1.61365973]
1.323123035381851e-17,0.5542106661976199,2.6049880443818392e-18,0.5542106661976199,-5.9705636553016595e-18,0.007891650266723024,2.6049880443818392e-18,0.007891650266723024,-1.086963042876265e-18,0.5542668496952907,-1.1583635420649514e-18,-0.5542668496952906,0.06915833433949145,0.995205631808208,0.06915833433949145,500.0,96.42857142857196,[1.5742625]
1.3352963991327313e-17,0.5542516691380315,2.8548512979999686e-18,0.5542516691380315,-5.9372759380518094e-18,0.0009301984443495145,2.8548512979999686e-18,0.0009301984443495145,-1.5260305895675945e-18,0.5542524497117174,-1.5355707735216973e-18,-0.5542524497117172,0.08034999979761008,0.9935229011276229,0.08034999979761007,500.0,83.57142857142804,[1.56499916]
1.2376826865414844e-17,0.6673882502857532,2.7213750295569633e-18,0.6673882502857532,-1.2590526831168203e-18,0.00015759491080474607,2.7213750295569633e-18,0.00015759491080474607,1.1487466103939226e-18,0.6673882688927301,1.1474620032174392e-18,-0.6673882688927302,0.07933676211248246,0.9936857432584079,0.07933676211248246,500.0,83.57142857142804,[1.59040746]
1.0600852409277899e-17,0.6888860681092916,2.580148094122414e-18,0.6888860681092916,-3.974207234495822e-19,0.0007787454958437256,2.580148094122414e-18,0.0007787454958437256,1.215913029898375e-18,0.6888865082723183,1.2100915071116467e-18,-0.6888865082723182,0.07996510605894697,0.993585005737286,0.07996510605894695,500.0,83.57142857142804,[1.62007292]
8.760304925802615e-18,0.6976172088552565,2.417114063720984e-18,0.6976172088552565,-4.870989554131318e-20,0.0008128611387582396,2.417114063720984e-18,0.0008128611387582396,6.897130175164885e-19,0.6976176824265778,6.8409112449982625e-19,-0.6976176824265777,0.07998952373412778,0.9935810747923768,0.07998952373412777,500.0,83.57142857142804,[1.6043125]
6.858440197880002e-18,0.7021459851707825,2.245108778939244e-18,0.7021459851707825,1.514559704428281e-19,0.0005736480608579352,2.245108778939244e-18,0.0005736480608579352,-4.8384727934461744e-20,0.7021462195038486,-5.204853324477582e-20,-0.7021462195038488,0.0797448822225294,0.9936204041376313,0.0797448822225294,500.0,83.57142857142804,[1.60263925]
4.967977069026877e-18,0.7046968053146814,2.0732044756235147e-18,0.7046968053146814,2.5923939432903195e-19,0.00017592100771408095,2.0732044756235147e-18,0.00017592100771408095,-8.890391045396067e-19,0.7046968272732032,-8.90073853750778e-19,-0.7046968272732033,0.07934625053071469,0.9936842280389854,0.07934625053071466,500.0,83.57142857142804,[1.60263925]
3.054717100985732e-18,0.7060849600653303,1.8920918814065713e-18,0.7060849600653303,3.301241441676878e-19,-0.0003406546997406289,1.8920918814065713e-18,-0.0003406546997406289,-1.793179657781682e-18,0.7060850422407227,-1.7913528079234843e-18,-0.7060850422407225,0.07883182851195192,0.9937661121345024,0.0788318285119519,500.0,83.57142857142804,[1.600561]
1.130602403657572e-18,0.7066523275215412,1.7230860011857695e-18,0.7066523275215412,3.6723008027305576e-19,-0.0009694504114639639,1.7230860011857695e-18,-0.0009694504114639639,-2.737475926504691e-18,0.7066529925116792,-2.7327401990815416e-18,-0.7066529925116792,0.07820679245696707,0.9938648777510882,0.07820679245696706,500.0,83.57142857142804,[1.6008]
-7.826575643835728e-19,0.7065270050187127,1.5364269775925182e-18,0.7065270050187127,3.753054180784076e-19,-0.0017251956161704687,1.5364269775925182e-18,-0.0017251956161704687,-3.705646346690691e-18,0.7065291113044291,-3.698126356666403e-18,-0.7065291113044291,0.07745485465519218,0.9939826411867996,0.07745485465519217,500.0,83.57142857142804,[1.60087422]
-2.7121922075791216e-18,0.7057005132807779,1.3498862569827335e-18,0.7057005132807779,3.615400114680543e-19,-0.0026449168188864575,1.3498862569827335e-18,-0.0026449168188864575,-4.725096407235238e-18,0.7057054697462197,-4.714944698620938e-18,-0.7057054697462197,0.07653677915924523,0.9941248628174721,0.07653677915924523,500.0,83.57142857142804,[1.60087422]
-4.632504252233799e-18,0.7040251007135016,1.155239364279353e-18,0.7040251007135016,3.207788708645654e-19,-0.003799756053039213,1.155239364279353e-18,-0.003799756053039213,-5.781037837770595e-18,0.7040353546383298,-5.768531256115413e-18,-0.7040353546383299,0.07537735064175302,0.9943020215309131,0.07537735064175302,500.0,83.57142857142804,[1.60295247]
-6.57832840813599e-18,0.7011290504632341,9.60270119129702e-19,0.7011290504632341,2.233123149967614e-19,-0.005326864083911255,9.60270119129702e-19,-0.005326864083911255,-6.899922814461048e-18,0.7011492857333915,-6.885392140905105e-18,-0.7011492857333915,0.07383020906184666,0.9945341625403162,0.07383020906184666,500.0,83.57142857142804,[1.60295247]
-8.558329805792493e-18,0.6961400150145356,7.377782412847967e-19,0.6961400150145356,6.520706774020998e-20,-0.007515756177177116,7.377782412847967e-19,-0.007515756177177116,-8.116754712772997e-18,0.6961805851180805,-8.10095555368347e-18,-0.6961805851180803,0.07158051367971542,0.9948630358610657,0.07158051367971542,500.0,83.57142857142804,[1.60964652]
-1.0535620170690143e-17,0.6866959988875511,4.952259928145617e-19,0.6866959988875511,-2.783421466833796e-19,-0.011084152606956131,4.952259928145617e-19,-0.011084152606956131,-9.536935264502215e-18,0.6867854492686823,-9.521522477297386e-18,-0.6867854492686823,0.0678201635266574,0.9953897984400054,0.0678201635266574,500.0,83.57142857142804,[1.61757867]
-1.2648025525564655e-17,0.6637812245505326,1.5172688824931055e-19,0.6637812245505326,-1.1330498049079176e-18,-0.018324726142734813,1.5172688824931055e-19,-0.018324726142734813,-1.1532982944991178e-17,0.6640341178388434,-1.1529537647416392e-17,-0.6640341178388434,0.05975002250836952,0.996423539274589,0.05975002250836951,500.0,83.57142857142804,[1.60256756]
-1.5604223399342577e-17,0.5465229035466314,-5.779896935986034e-19,0.5465229035466314,-5.767857057214035e-18,-0.03602709514183658,-5.779896935986034e-19,-0.03602709514183658,-1.6056874195194913e-17,0.5477090794257473,-1.614471315742135e-17,-0.5477090794257474,0.03277991252346297,0.9989248994143193,0.03277991252346297,500.0,83.57142857142804,[1.60225608]
-1.674722787702052e-17,0.543537224623426,-1.773617404981474e-20,0.543537224623426,-5.723611741397593e-18,-0.042323753193398386,-1.773617404981474e-20,-0.042323753193398386,-1.671042120904466e-17,0.5451825516611042,-1.6693531505305303e-17,-0.545182551661104,0.18102393562680888,0.9666750588798502,0.18102393562680888,500.0,70.71428571428592,[1.52735925]
-1.5826335197389537e-17,0.6602030010984564,2.365994887515543e-18,0.6602030010984564,-9.790144187432721e-19,-0.026070340946454898,2.365994887515543e-18,-0.026070340946454898,-1.3779316815576119e-17,0.6607175382389006,-1.3596922528165736e-17,-0.6607175382389006,0.2070256390825735,0.9561803017866997,0.20702563908257343,500.0,70.71428571428592,[1.55530305]
-1.575793408157388e-17,0.6837348895012154,4.339226055811957e-18,0.6837348895012154,-2.5911400376480917e-20,-0.017762780215122065,4.339226055811957e-18,-0.017762780215122065,-1.3361541686258426e-17,0.6839655806268395,-1.3139130878155532e-17,-0.68396558062684,0.21613054356356473,0.9521424138635124,0.2161305435635647,500.0,70.71428571428592,[1.57297652]
-1.5850668783059316e-17,0.6932878453657869,6.189550558864851e-18,0.6932878453657869,4.049101766587636e-19,-0.014180905578377739,6.189550558864851e-18,-0.014180905578377739,-1.3497385306032673e-17,0.6934328623702212,-1.3244569042665817e-17,-0.693432862370221,0.21984466002540717,0.9504402405815037,0.21984466002540715,500.0,70.71428571428592,[1.56448977]
-1.5938532528110158e-17,0.6981500888718624,7.991597641280714e-18,0.6981500888718624,6.709085397055616e-19,-0.012466779567793953,7.991597641280714e-18,-0.012466779567793953,-1.3839156133838062e-17,0.6982613888685107,-1.3555253392119789e-17,-0.6982613888685106,0.22158908962882146,0.9496296913612908,0.22158908962882143,500.0,70.71428571428592,[1.56448977]
-1.6074681907443017e-17,0.7007832782261312,9.776415344790382e-18,0.7007832782261312,8.652802090627478e-19,-0.011695769876625054,9.776415344790382e-18,-0.011695769876625054,-1.4270189675905272e-17,0.7008808701015957,-1.3945082815170835e-17,-0.7008808701015957,0.22237254014681782,0.9492633495386327,0.22237254014681784,500.0,70.71428571428592,[1.56281652]
-1.6206498721522477e-17,0.7020941611273195,1.1543563444518087e-17,0.7020941611273195,1.0142073704351405e-18,-0.011506857966305505,1.1543563444518087e-17,-0.011506857966305505,-1.4767425726494066e-17,0.702188449683795,-1.4389683898821894e-17,-0.702188449683795,0.22257399879980672,0.9491689154816056,0.2225739987998067,500.0,70.71428571428592,[1.56281652]
-1.6360554906755884e-17,0.7024601683549558,1.3300146610900918e-17,0.7024601683549558,1.1259640788455604e-18,-0.0117509213700218,1.3300146610900918e-17,-0.0117509213700218,-1.5296811573306413e-17,0.7025584475887523,-1.4853024325786488e-17,-0.7025584475887524,0.22234658998757437,0.949275506816538,0.22234658998757434,500.0,70.71428571428592,[1.56281652]
-1.652384428878176e-17,0.7020162238540506,1.5046012295354936e-17,0.7020162238540506,1.2172383412607468e-18,-0.012383336271603545,1.5046012295354936e-17,-0.012383336271603545,-1.586241694495607e-17,0.7021254343573634,-1.533099228079344e-17,-0.7021254343573635,0.22173488837301744,0.9495616244122396,0.2217348883730174,500.0,70.71428571428592,[1.56281652]
-1.6667043625077833e-17,0.7007386276056509,1.6785264074659933e-17,0.7007386276056509,1.280024503379607e-18,-0.013433777017528969,1.6785264074659933e-17,-0.013433777017528969,-1.646220909678648e-17,0.7008673844484474,-1.581896342895997e-17,-0.7008673844484475,0.2207068603207996,0.9500405063020579,0.22070686032079959,500.0,70.71428571428592,[1.56281652]
-1.6867766031749032e-17,0.6984374990811842,1.8515748450330214e-17,0.6984374990811842,1.3147298030198069e-18,-0.015015694248858895,1.8515748450330214e-17,-0.015015694248858895,-1.7092523153394937e-17,0.6985988914939352,-1.6298663689984166e-17,-0.6985988914939351,0.21914294047721228,0.9507642942801345,0.2191429404772123,500.0,70.71428571428592,[1.56448977]
-1.7064147394565553e-17,0.69465190211497,2.0221763185275816e-17,0.69465190211497,1.2955798222067742e-18,-0.01738284581329856,2.0221763185275816e-17,-0.01738284581329856,-1.7781846155252607e-17,0.6948693607006391,-1.676943743605819e-17,-0.6948693607006391,0.21677314697323014,0.9518502011885299,0.2167731469732301,500.0,70.71428571428592,[1.56448977]
-1.728169134617363e-17,0.6883152874330961,2.1893150517730472e-17,0.6883152874330961,1.205481700762713e-18,-0.021096583174516945,2.1893150517730472e-17,-0.021096583174516945,-1.8557720838613244e-17,0.6886385123820373,-1.722467031642612e-17,-0.6886385123820371,0.21298620419214806,0.9535584689192592,0.212986204192148,500.0,70.71428571428592,[1.58136764]
-1.756028546628876e-17,0.67658045713822,2.349765824586455e-17,0.67658045713822,9.561215329001422e-19,-0.027565011814207504,2.349765824586455e-17,-0.027565011814207504,-1.951998909248413e-17,0.6771417465034043,-1.7606311908431694e-17,-0.6771417465034042,0.20617946206598817,0.9565459000196278,0.20617946206598814,500.0,70.71428571428592,[1.57637271]
-1.8024175178048552e-17,0.6488938164228882,2.4925284599254177e-17,0.6488938164228882,1.8129210210339017e-19,-0.041233101666470304,2.4925284599254177e-17,-0.041233101666470304,-2.0985139085570246e-17,0.6502025481839475,-1.7845117473919285e-17,-0.6502025481839476,0.1907471289134344,0.9629283803183721,0.19074712891343432,500.0,70.71428571428592,[1.54030239]
-1.9584462496257447e-17,0.5204925668425903,2.5639334514394072e-17,0.5204925668425903,-4.382249856892618e-18,-0.07235455361638747,2.5639334514394072e-17,-0.07235455361638747,-2.4737746815005743e-17,0.5254975676132241,-1.7673317277988764e-17,-0.5254975676132243,0.13942183762730578,0.9803688603710597,0.13942183762730573,500.0,70.71428571428592,[1.49612655]
-1.9064228239700263e-17,0.5150665119770595,2.535972720142614e-17,0.5150665119770595,-4.3869348140116626e-18,-0.07673899736646311,2.535972720142614e-17,-0.07673899736646311,-2.420700439198881e-17,0.5207517503350559,-1.640133655761612e-17,-0.5207517503350558,0.28386713421637344,0.9158814880886975,0.28386713421637344,500.0,57.857142857142705,[1.47572638]
-1.5982443204132382e-17,0.642297708158098,2.4478683020457884e-17,0.642297708158098,1.8188772384321664e-19,-0.04667707833454971,2.4478683020457884e-17,-0.04667707833454971,-1.9877345179177453e-17,0.6439915337541283,-1.630809807265777e-17,-0.6439915337541284,0.3318179212948859,0.8830593039060752,0.33181792129488585,500.0,57.857142857142705,[1.51728168]
-1.4061616084450026e-17,0.6709957049896655,2.2862730637857192e-17,0.6709957049896655,9.676277897041652e-19,-0.03232703063344333,2.2862730637857192e-17,-0.03232703063344333,-1.7803265221732843e-17,0.6717739746552809,-1.558740714038414e-17,-0.6717739746552809,0.34695589800251453,0.8713456315851578,0.34695589800251453,500.0,57.857142857142705,[1.53443457]
-1.2334508046782688e-17,0.6828269320005826,2.1043190081353115e-17,0.6828269320005826,1.2270841169956006e-18,-0.02590552166371636,2.1043190081353115e-17,-0.02590552166371636,-1.6214977322801145e-17,0.6833181653651526,-1.4622021200600692e-17,-0.6833181653651526,0.3532345809032923,0.866285554368853,0.3532345809032922,500.0,57.857142857142705,[1.54758876]
-1.0654863219073337e-17,0.6888357359896021,1.9156634527864297e-17,0.6888357359896021,1.3063192955076577e-18,-0.02257643090688302,1.9156634527864297e-17,-0.02257643090688302,-1.4800464716026718e-17,0.689205605323136,-1.3538542039001111e-17,-0.6892056053231359,0.35638907292403327,0.8636976655061054,0.3563890729240332,500.0,57.857142857142705,[1.54925957]
-9.007521862235713e-18,0.692048904418877,1.7219325802165082e-17,0.692048904418877,1.3433644241444801e-18,-0.020788442814276203,1.7219325802165082e-17,-0.020788442814276203,-1.3464635648768656e-17,0.6923610658189921,-1.243068291223725e-17,-0.6923610658189918,0.3580569103135723,0.8623169359077885,0.35805691031357223,500.0,57.857142857142705,[1.52949233]
-7.404125095825428e-18,0.6935950223543133,1.5267552715162597e-17,0.6935950223543133,1.3086498510341317e-18,-0.019930689444089676,1.5267552715162597e-17,-0.019930689444089676,-1.2185784901753563e-17,0.6938813208441318,-1.1303029479323585e-17,-0.6938813208441318,0.3588508141410034,0.8616566522581243,0.35885081414100345,500.0,57.857142857142705,[1.52949233]
-5.808884743845222e-18,0.6939453855754042,1.3302908978940953e-17,0.6939453855754042,1.2510748492261732e-18,-0.019741089640784384,1.3302908978940953e-17,-0.019741089640784384,-1.0933518809047737e-17,0.6942261222264701,-1.0176614883286806e-17,-0.6942261222264703,0.35902596405025783,0.8615107162859705,0.35902596405025794,500.0,57.857142857142705,[1.52949233]
-4.235603969176767e-18,0.6932668281740217,1.1319204949610425e-17,0.6932668281740217,1.1600591841499861e-18,-0.02012450404889816,1.1319204949610425e-17,-0.02012450404889816,-9.701876913952272e-18,0.6935588588646837,-9.039726576014735e-18,-0.6935588588646836,0.35867232375371766,0.8618052728698152,0.3586723237537176,500.0,57.857142857142705,[1.52949233]
-2.6468836615798575e-18,0.6915251335722392,9.324444691734369e-18,0.6915251335722392,1.061383102818522e-18,-0.02109737682248549,9.324444691734369e-18,-0.02109737682248549,-8.508212793634284e-18,0.6918468831113526,-7.93520997533325e-18,-0.6918468831113526,0.357770858458705,0.8625543609972898,0.3577708584587049,500.0,57.857142857142705,[1.52949233]
-1.1042360733312325e-18,0.6884741139496254,7.306723719204953e-18,0.6884741139496254,9.072198752439716e-19,-0.02279299611796514,7.306723719204953e-18,-0.02279299611796514,-7.34501440736087e-18,0.6888513092466007,-6.85277014028008e-18,-0.6888513092466005,0.356186650279099,0.8638646539394408,0.356186650279099,500.0,57.857142857142705,[1.54925957]
4.3025510048731346e-19,0.6835218616476767,5.268416835249076e-18,0.6835218616476767,7.30407124178618e-19,-0.025531466096930723,5.268416835249076e-18,-0.025531466096930723,-6.217551205826726e-18,0.6839985315125793,-5.811179892507245e-18,-0.683998531512579,0.3535928599040604,0.8659931748286097,0.3535928599040603,500.0,57.857142857142705,[1.54158094]
1.9167065194609234e-18,0.6753089182506029,3.1901411624748306e-18,0.6753089182506029,4.6449805140153595e-19,-0.030034790909288858,3.1901411624748306e-18,-0.030034790909288858,-5.1621985081676564e-18,0.6759764964359072,-4.878107879742275e-18,-0.6759764964359071,0.34922961029024013,0.8695270890507404,0.34922961029024013,500.0,57.857142857142705,[1.53567409]
3.3011603650521513e-18,0.660251392195589,1.0239927361358838e-18,0.660251392195589,4.0175852158970847e-20,-0.038122567850526166,1.0239927361358838e-18,-0.038122567850526166,-4.263727489618111e-18,0.6613510649237149,-4.1242835958524895e-18,-0.6613510649237149,0.3410653992359353,0.8759844672641541,0.34106539923593526,500.0,57.857142857142705,[1.53443457]
4.4357328737584594e-18,0.6254763215790079,-1.3891205207262647e-18,0.6254763215790079,-9.1589030487657e-19,-0.055511683323408556,-1.3891205207262647e-18,-0.055511683323408556,-3.775491474286623e-18,0.6279348499975177,-4.00112822974338e-18,-0.6279348499975177,0.32180117724766105,0.8904425891903639,0.32180117724766105,500.0,57.857142857142705,[1.50876712]
4.07320484028515e-18,0.48121312570357033,-4.685382373889665e-18,0.48121312570357033,-5.649743517494933e-18,-0.09388905425720416,-4.685382373889665e-18,-0.09388905425720416,-5.191409409222989e-18,0.49028688220134187,-6.8156349171736625e-18,-0.49028688220134164,0.25458643007836923,0.9329370285501072,0.2545864300783693,500.0,57.857142857142705,[1.47618195]
4.215475769741208e-18,0.47441801981982773,-5.349734040287626e-18,0.47441801981982773,-5.638948138416868e-18,-0.09549229497229164,-5.349734040287626e-18,-0.09549229497229164,-4.5379042584670546e-18,0.4839330903429125,-6.965739348828121e-18,-0.48393309034291243,0.3915063181348377,0.8327338144455325,0.39150631813483777,500.0,45.00000000000011,[1.47547433]
5.470495288212282e-18,0.6171597967648372,-3.2282351205854534e-18,0.6171597967648372,-8.759624518050002e-19,-0.05757397611252407,-3.2282351205854534e-18,-0.05757397611252407,-2.4199538983562942e-18,0.6198394771779387,-2.9622734632419444e-18,-0.6198394771779387,0.45139575749518623,0.7697296539894342,0.4513957574951862,500.0,45.00000000000011,[1.52915932]
5.19070144601622e-18,0.6531344158721912,-2.00358489206941e-18,0.6531344158721912,9.515534215049695e-20,-0.040021783122818115,-2.00358489206941e-18,-0.040021783122818115,-2.1818705351506425e-18,0.6543594641487493,-2.3783119246771963e-18,-0.6543594641487495,0.4684830481874094,0.7490308852925004,0.4684830481874093,500.0,45.00000000000011,[1.50596792]
4.65529473247086e-18,0.6682509553645289,-1.0345279281372093e-18,0.6682509553645289,5.540596363584313e-19,-0.03203079615658029,-1.0345279281372093e-18,-0.03203079615658029,-2.3183844943384845e-18,0.66901816959484,-2.399108240854704e-18,-0.66901816959484,0.47548795243725944,0.7401502645909444,0.4754879524372595,500.0,45.00000000000011,[1.51393561]
3.9850782585946695e-18,0.6759942827962305,-1.4859517114107485e-19,0.6759942827962305,8.45799827756137e-19,-0.027744564790573977,-1.4859517114107485e-19,-0.027744564790573977,-2.5975763558437607e-18,0.6765633978043809,-2.591679035561289e-18,-0.6765633978043809,0.47907536833162273,0.735509063789047,0.4790753683316227,500.0,45.00000000000011,[1.51206699]
3.271315688551238e-18,0.6801722601440429,6.871961977181738e-19,0.6801722601440429,1.047463359169268e-18,-0.025292348508335748,6.871961977181738e-19,-0.025292348508335748,-2.937089226146124e-18,0.6806423483464153,-2.87711976328191e-18,-0.6806423483464151,0.4810749090375455,0.7328941695695462,0.48107490903754535,500.0,45.00000000000011,[1.52267156]
2.5251987760284067e-18,0.6822217487125404,1.506133961929459e-18,0.6822217487125404,1.233958672894861e-18,-0.023934421274744506,1.506133961929459e-18,-0.023934421274744506,-3.3166592481895574e-18,0.6826414658795298,-3.201050155578602e-18,-0.6826414658795299,0.4821618377588907,0.7314642331774933,0.4821618377588907,500.0,45.00000000000011,[1.52267156]
1.7504920199939055e-18,0.68274762583744,2.2968048643465333e-18,0.68274762583744,1.3595988259428107e-18,-0.023347653078491307,2.2968048643465333e-18,-0.023347653078491307,-3.718460162785659e-18,0.6831467144698383,-3.5487483088032436e-18,-0.6831467144698384,0.4826195887296923,0.7308602227161946,0.4826195887296923,500.0,45.00000000000011,[1.52267156]
9.587941469969525e-19,0.6819673938162462,3.0808205946724327e-18,0.6819673938162462,1.4787570883132183e-18,-0.02340523394245428,3.0808205946724327e-18,-0.02340523394245428,-4.145323822761505e-18,0.6823689113701062,-3.92172156704573e-18,-0.6823689113701062,0.4825558058847414,0.7309444496087618,0.4825558058847413,500.0,45.00000000000011,[1.52267156]
1.476294054641765e-19,0.6798431007595692,3.841785127771952e-18,0.6798431007595692,1.5653320859697029e-18,-0.02410712218998589,3.841785127771952e-18,-0.02410712218998589,-4.593799437396677e-18,0.6802703837377228,-4.311788769346245e-18,-0.6802703837377229,0.4819671664718539,0.7317207806849444,0.4819671664718539,500.0,45.00000000000011,[1.52267156]
-6.96466223434948e-19,0.6760692191057757,4.59276080874004e-18,0.6760692191057757,1.6139865394073423e-18,-0.025580045385286812,4.59276080874004e-18,-0.025580045385286812,-5.058087643416566e-18,0.6765529748247409,-4.69638562598346e-18,-0.6765529748247409,0.4807377972796548,0.7333364442964845,0.4807377972796548,500.0,45.00000000000011,[1.51206699]
-1.574883230310123e-18,0.669907051091781,5.3081878341969905e-18,0.669907051091781,1.6213629225197839e-18,-0.028147054619642474,5.3081878341969905e-18,-0.028147054619642474,-5.554441919472379e-18,0.6704981087119093,-5.099197426074006e-18,-0.6704981087119092,0.4785695799388754,0.7361673140762616,0.4785695799388753,500.0,45.00000000000011,[1.51206699]
-2.505596249872125e-18,0.6596635286176143,5.9832063758723866e-18,0.6596635286176143,1.5603593863197638e-18,-0.03254780609288965,5.9832063758723866e-18,-0.03254780609288965,-6.112528891438178e-18,0.6604659950896054,-5.515067137482159e-18,-0.6604659950896052,0.4747524680961379,0.7410939131265695,0.47475246809613786,500.0,45.00000000000011,[1.51393561]
-3.5839725893034185e-18,0.6409124786103871,6.571149152503278e-18,0.6409124786103871,1.3175576815025328e-18,-0.040652996641785184,6.571149152503278e-18,-0.040652996641785184,-6.764626594381854e-18,0.6422004915713374,-5.9111107801069356e-18,-0.6422004915713371,0.4673458599353336,0.750450327738357,0.46734585993533356,500.0,45.00000000000011,[1.50551516]
-5.0434111846031906e-18,0.5981393931748774,6.903277161091921e-18,0.5981393931748774,5.717459986257339e-19,-0.05831913190636435,6.903277161091921e-18,-0.05831913190636435,-7.728635081165187e-18,0.600975752267862,-6.436861283977476e-18,-0.6009757522678622,0.44911983489469287,0.772387692683103,0.44911983489469287,500.0,45.00000000000011,[1.52915932]
-8.386489754377079e-18,0.4364399813125354,6.3437610148980864e-18,0.4364399813125354,-3.963245860302098e-18,-0.09635161446802662,6.3437610148980864e-18,-0.09635161446802662,-1.0193669702520162e-17,0.4469490920660666,-7.955005282100629e-18,-0.4469490920660668,0.38045537274996477,0.8429160211381499,0.38045537274996505,500.0,45.00000000000011,[1.35021525]
-9.150852616851604e-18,0.4296210821639629,5.889141593811358e-18,0.4296210821639629,-3.97055441460431e-18,-0.09485496521491145,5.889141593811358e-18,-0.09485496521491145,-1.3281678031426588e-17,0.43996788367522544,-1.1160065010996872e-17,-0.4399678836752254,0.5035364486898415,0.7020698609694376,0.5035364486898414,500.0,32.14285714285738,[1.31862128]
-6.689819895300162e-18,0.5897489839124848,5.402466171027725e-18,0.5897489839124848,5.421726373657381e-19,-0.05658784410070599,5.402466171027725e-18,-0.05658784410070599,-1.7604781165799213e-17,0.592457634034514,-1.654475689917251e-17,-0.5924576340345139,0.5600545198429955,0.6104734798554835,0.5600545198429955,500.0,32.14285714285738,[1.42215059]
-6.1636718143511066e-18,0.6336719896868052,4.023963243708963e-18,0.6336719896868052,1.2776404266825613e-18,-0.03930752943713299,4.023963243708963e-18,-0.03930752943713299,-2.3396038897586083e-17,0.6348899687222078,-2.2830695853269122e-17,-0.6348899687222076,0.5742841825827311,0.5834341053371569,0.5742841825827312,500.0,32.14285714285738,[1.35465675]
-6.051008160560159e-18,0.6524326777475001,2.4103041902760096e-18,0.6524326777475001,1.5111411058970928e-18,-0.03132755954644273,2.4103041902760096e-18,-0.03132755954644273,-2.9458866228328706e-17,0.6531843652292281,-2.9177816589432555e-17,-0.653184365229228,0.5799922066966028,0.5720297897333766,0.5799922066966028,500.0,32.14285714285738,[1.35465675]
-6.08939926714997e-18,0.6621574407715504,7.043089296177164e-19,0.6621574407715504,1.5558233346356761e-18,-0.02693109898821802,7.043089296177164e-19,-0.02693109898821802,-3.561694216583589e-17,0.6627048818756676,-3.5507274221308985e-17,-0.6627048818756676,0.5829416213268618,0.5660018836096036,0.5829416213268619,500.0,32.14285714285738,[1.34842144]
-6.1884293300848195e-18,0.667496444577898,-1.0436066554126336e-18,0.667496444577898,1.5353899055540848e-18,-0.02429850927503125,-1.0436066554126336e-18,-0.02429850927503125,-4.182142996674251e-17,0.6679385608550567,-4.1841833211945755e-17,-0.6679385608550567,0.5846424545562217,0.5624823558663441,0.5846424545562217,500.0,32.14285714285738,[1.34842144]
-6.342536386925899e-18,0.6702201933796532,-2.8201979297926005e-18,0.6702201933796532,1.4552162518629951e-18,-0.022707721992363983,-2.8201979297926005e-18,-0.022707721992363983,-4.8053371478589453e-17,0.6706047630698295,-4.818661865625285e-17,-0.6706047630698294,0.5856422381632365,0.5603983741574471,0.5856422381632365,500.0,32.14285714285738,[1.34842144]
-6.5308291641225695e-18,0.6710803912052387,-4.607285712555559e-18,0.6710803912052387,1.3582380104375844e-18,-0.021838561829093495,-4.607285712555559e-18,-0.021838561829093495,-5.429967574100247e-17,0.6714356367090889,-5.4550723314474824e-17,-0.6714356367090888,0.5861715634115722,0.5592904401965638,0.5861715634115722,500.0,32.14285714285738,[1.34842144]
-6.727397056167221e-18,0.6703539176152192,-6.416372286161184e-18,0.6703539176152192,1.2340773733127624e-18,-0.021557667871969863,-6.416372286161184e-18,-0.021557667871969863,-6.056017318195596e-17,0.6707004606425663,-6.091933630539862e-17,-0.6707004606425663,0.5863231290000025,0.5589726082727964,0.5863231290000025,500.0,32.14285714285738,[1.34842144]
-6.952453048508198e-18,0.6680065934378646,-8.228728420384893e-18,0.6680065934378646,1.080614690168862e-18,-0.021848523964624045,-8.228728420384893e-18,-0.021848523964624045,-6.683226934945868e-17,0.6683637982984216,-6.730889396975013e-17,-0.6683637982984217,0.5861065071331952,0.5594267821549586,0.5861065071331952,500.0,32.14285714285738,[1.34842144]
-7.234892214303204e-18,0.6636822594234353,-1.0065926856355103e-17,0.6636822594234353,8.881165267379716e-19,-0.022806199892871776,-1.0065926856355103e-17,-0.022806199892871776,-7.312373064228188e-17,0.664073990024417,-7.373229627012738e-17,-0.664073990024417,0.5854513378653409,0.5607971665257989,0.5854513378653409,500.0,32.14285714285738,[1.34842144]
-7.531439772625914e-18,0.656508670856875,-1.1920616646763205e-17,0.656508670856875,6.635353360685994e-19,-0.024692711877520365,-1.1920616646763205e-17,-0.024692711877520365,-7.943662583913756e-17,0.6569728799045869,-8.02351626962479e-17,-0.6569728799045869,0.5841615423917957,0.5634807758751633,0.5841615423917959,500.0,32.14285714285738,[1.34842144]
-7.94397459644081e-18,0.6444845137710532,-1.3812523257484024e-17,0.6444845137710532,3.559655960836197e-19,-0.028118872331729782,-1.3812523257484024e-17,-0.028118872331729782,-8.578153623442148e-17,0.6450976356117878,-8.683879397632605e-17,-0.6450976356117876,0.5817572102050838,0.5684338983107851,0.5817572102050839,500.0,32.14285714285738,[1.35465675]
-8.493387959298532e-18,0.6224025595510168,-1.578052531468089e-17,0.6224025595510168,-1.1822561622975403e-19,-0.03463596521553181,-1.578052531468089e-17,-0.03463596521553181,-9.219241014765345e-17,0.6233655398095637,-9.369416226311779e-17,-0.6233655398095637,0.5768965710406198,0.5782565975785748,0.5768965710406199,500.0,32.14285714285738,[1.35465675]
-9.559385540862969e-18,0.5723077564034008,-1.7952658176262983e-17,0.5723077564034008,-1.089975065980512e-18,-0.04908016536507029,-1.7952658176262983e-17,-0.04908016536507029,-9.880222596128809e-17,0.574408418002171,-1.0115280740002831e-16,-0.5744084180021711,0.5643902346375129,0.6024344994201661,0.5643902346375129,500.0,32.14285714285738,[1.37131135]
-1.2864140832857277e-17,0.39505296050769534,-2.0852876085098497e-17,0.39505296050769534,-5.885200633954517e-18,-0.07923522558922909,-2.0852876085098497e-17,-0.07923522558922909,-1.0655129447153488e-16,0.4029206653673534,-1.1090741541437299e-16,-0.4029206653673536,0.5130520851937966,0.6881534100450235,0.5130520851937963,500.0,32.14285714285738,[1.29032846]
-1.3225532733759244e-17,0.38956148104914273,-2.0618750109039664e-17,0.38956148104914273,-5.887642471122774e-18,-0.07493389175199759,-2.0618750109039664e-17,-0.07493389175199759,-1.064886884796932e-16,0.39670295644260267,-1.1080025840767555e-16,-0.39670295644260267,0.6112969971826417,0.5026250714707442,0.6112969971826417,500.0,19.285714285714306,[1.27576488]
-1.0154108548953895e-17,0.565508306185217,-1.7636410587869286e-17,0.565508306185217,-1.1229059533468606e-18,-0.04389454458279895,-1.7636410587869286e-17,-0.04389454458279895,-9.910263976179389e-17,0.5672092871318348,-1.0127124942750875e-16,-0.5672092871318346,0.6473516605368028,0.40233276674972523,0.6473516605368028,500.0,19.285714285714306,[0.92065889]
-9.362817648818318e-18,0.6164777672605727,-1.536292028730135e-17,0.6164777672605727,-1.3877774572924656e-19,-0.03030624364100119,-1.536292028730135e-17,-0.03030624364100119,-9.28294922477326e-17,0.6172222500284712,-9.411201331282043e-17,-0.6172222500284712,0.6551540867542298,0.3762263218043927,0.6551540867542299,500.0,19.285714285714306,[0.92707103]
-9.076037439168633e-18,0.6385200371613166,-1.3266365677517312e-17,0.6385200371613166,3.1146989657316725e-19,-0.023915630030012968,-1.3266365677517312e-17,-0.023915630030012968,-8.672252531873323e-17,0.6389677575717116,-8.761218606468426e-17,-0.6389677575717116,0.6582174852635916,0.36537581226258986,0.6582174852635915,500.0,19.285714285714306,[0.92707103]
-8.962085037983328e-18,0.6500808489280714,-1.1245533455753059e-17,0.6500808489280714,6.07067851552667e-19,-0.020277774455980467,-1.1245533455753059e-17,-0.020277774455980467,-8.068420114568596e-17,0.6503970312662334,-8.132047863932832e-17,-0.6503970312662335,0.6598205617583929,0.35954645396899404,0.659820561758393,500.0,19.285714285714306,[0.91996466]
-8.96506950563342e-18,0.6565470716582446,-9.249759740067912e-18,0.6565470716582446,8.347691674925892e-19,-0.017984544542378203,-9.249759740067912e-18,-0.017984544542378203,-7.46660221292768e-17,0.6567933473668968,-7.512362835998532e-17,-0.6567933473668969,0.6607810968323867,0.35600096086664634,0.6607810968323868,500.0,19.285714285714306,[0.91871771]
-8.994914182134333e-18,0.6599821371574578,-7.278925830043969e-18,0.6599821371574578,9.993896899192174e-19,-0.016474546121211246,-7.278925830043969e-18,-0.016474546121211246,-6.866934484571035e-17,0.6601877248456122,-6.899781429383949e-17,-0.6601877248456123,0.6613905621153228,0.35373019193949906,0.6613905621153228,500.0,19.285714285714306,[0.91871771]
-9.07332428675946e-18,0.66126874181235,-5.313204516591063e-18,0.66126874181235,1.137014345874565e-18,-0.0154939749239904,-5.313204516591063e-18,-0.0154939749239904,-6.267626248908606e-17,0.661450234074366,-6.289299317646482e-17,-0.661450234074366,0.6617726123427805,0.35229819628550946,0.6617726123427807,500.0,19.285714285714306,[0.91931192]
-9.172354349694308e-18,0.6607400937273539,-3.364088543742429e-18,0.6607400937273539,1.256800024739594e-18,-0.01492933407753839,-3.364088543742429e-18,-0.01492933407753839,-5.669864510119405e-17,0.6609087353597555,-5.682595013887227e-17,-0.6609087353597555,0.6619804822733966,0.35151626161269167,0.6619804822733966,500.0,19.285714285714306,[0.91931192]
-9.322120362680709e-18,0.6583725510170851,-1.4259226844451953e-18,0.6583725510170851,1.3358205886567848e-18,-0.014750904892127112,-1.4259226844451953e-18,-0.014750904892127112,-5.07202137675793e-17,0.6585377780567195,-5.076461072869402e-17,-0.6585377780567194,0.6620276139489882,0.3513386923440385,0.6620276139489882,500.0,19.285714285714306,[0.91931192]
-9.503630258854445e-18,0.6537780638987349,5.0975894467738825e-19,0.6537780638987349,1.3937463925926482e-18,-0.015003269868337742,5.0975894467738825e-19,-0.015003269868337742,-4.47606388432083e-17,0.653950193013138,-4.472018555628884e-17,-0.6539501930131382,0.6618925707325704,0.3518471964050004,0.6618925707325705,500.0,19.285714285714306,[0.91931192]
-9.74564345375276e-18,0.6459905403474115,2.4290471982276662e-18,0.6459905403474115,1.4067695241566831e-18,-0.015835514600062585,2.4290471982276662e-18,-0.015835514600062585,-3.881178087085354e-17,0.6461846034539895,-3.8674825629871926e-17,-0.6461846034539895,0.6615026255244979,0.35331084451003125,0.661502625524498,500.0,19.285714285714306,[0.91871771]
-1.0067423329480788e-17,0.632786843042758,4.3213650211104996e-18,0.632786843042758,1.3430104425410957e-18,-0.017608628197890233,4.3213650211104996e-18,-0.017608628197890233,-3.288028707391749e-17,0.6330317942370919,-3.262234442327208e-17,-0.6330317942370918,0.6606717437961344,0.356406641210219,0.6606717437961344,500.0,19.285714285714306,[0.91871771]
-1.0604084876015391e-17,0.6083946190698284,6.171845185983743e-18,0.6083946190698284,1.1027607967087442e-18,-0.021247230110314343,6.171845185983743e-18,-0.021247230110314343,-2.69909827969441e-17,0.6087655191454934,-2.6542632174356794e-17,-0.6087655191454934,0.658868524022109,0.36302139896410396,0.658868524022109,500.0,19.285714285714306,[0.92323132]
-1.1692058992094137e-17,0.5531026628979069,7.896112892222727e-18,0.5531026628979069,3.5433770463811536e-19,-0.029609300434866464,7.896112892222727e-18,-0.029609300434866464,-2.1229739313683715e-17,0.5538946347248708,-2.0347245249406098e-17,-0.5538946347248708,0.6539876198403474,0.380263574630959,0.6539876198403474,500.0,19.285714285714306,[0.92726163]
-1.531031904496849e-17,0.36525219346783255,9.205692209922032e-18,0.36525219346783255,-4.169572622418497e-18,-0.04591527861265519,9.205692209922032e-18,-0.04591527861265519,-1.6336840258979448e-17,0.36812684993510136,-1.4178034779565497e-17,-0.3681268499351015,0.6330854417824849,0.4454274877083272,0.6330854417824848,500.0,19.285714285714306,[1.20591687]
-1.5262024932085195e-17,0.36217449282988645,9.880215813247786e-18,0.36217449282988645,-4.15885567040226e-18,-0.039660673414316866,9.880215813247786e-18,-0.039660673414316866,-1.2629860122325108e-17,0.3643395837296058,-1.0443110745824701e-17,-0.36433958372960595,0.6898668277897614,0.21947099997626945,0.6898668277897613,500.0,6.428571428571418,[0.45276541]
-1.1300279784209422e-17,0.5492381015157234,9.350981521433296e-18,0.5492381015157234,3.977481431848983e-19,-0.021994892858241303,9.350981521433296e-18,-0.021994892858241303,-1.0389203205208816e-17,0.5496783309067599,-9.635590177474008e-18,-0.5496783309067597,0.698929940221357,0.15163732167359176,0.6989299402213569,500.0,6.428571428571418,[0.3424936]
-9.865564790238247e-18,0.604954528435517,8.432927053580346e-18,0.604954528435517,1.1450859742918575e-18,-0.014788303052876019,8.432927053580346e-18,-0.014788303052876019,-8.994371551652498e-18,0.6051352537919288,-8.580366125661005e-18,-0.6051352537919289,0.7005160125682035,0.1362153892593954,0.7005160125682034,500.0,6.428571428571418,[0.34025637]
-8.99735601930259e-18,0.6292638400686318,7.426127066143573e-18,0.6292638400686318,1.3877774572924656e-18,-0.011251446880811453,7.426127066143573e-18,-0.011251446880811453,-7.717697685515705e-18,0.6293644218374853,-7.452899751366709e-18,-0.6293644218374854,0.7011329718326019,0.12971164796720522,0.701132971832602,500.0,6.428571428571418,[0.34025637]
-8.342943658209837e-18,0.6421495712205185,6.386608156372418e-18,0.6421495712205185,1.4686293990858487e-18,-0.009091673851727978,6.386608156372418e-18,-0.009091673851727978,-6.474259936391293e-18,0.6422139288057541,-6.2937570311889484e-18,-0.642213928805754,0.7014694238380346,0.12602100952092138,0.7014694238380345,500.0,6.428571428571418,[0.34025637]
-7.772096391319642e-18,0.6494838004694075,5.32398505811689e-18,0.6494838004694075,1.474327019145114e-18,-0.007591256203263598,5.32398505811689e-18,-0.007591256203263598,-5.245201895035502e-18,0.6495281627788962,-5.121286932371067e-18,-0.6495281627788966,0.7016873544482669,0.12357068104847552,0.701687354448267,500.0,6.428571428571418,[0.34025637]
-7.275589500440813e-18,0.6535241736717621,4.260785414974413e-18,0.6535241736717621,1.4254902757799832e-18,-0.006460665548095591,4.260785414974413e-18,-0.006460665548095591,-4.026589490455031e-18,0.6535561075934365,-3.942624608859807e-18,-0.6535561075934366,0.7018436732389435,0.12178225104231957,0.7018436732389434,500.0,6.428571428571418,[0.34025637]
-6.814353590881245e-18,0.655242619988323,3.1889884701353666e-18,0.655242619988323,1.3565762045869654e-18,-0.005562737978541829,3.1889884701353666e-18,-0.005562737978541829,-2.813267733072449e-18,0.6552662322315868,-2.7594514150708945e-18,-0.6552662322315868,0.7019632187167102,0.12039634187861369,0.7019632187167103,500.0,6.428571428571418,[0.34025637]
-6.391644445531947e-18,0.6550144897397844,2.110832574337318e-18,0.6550144897397844,1.2504919453882647e-18,-0.004826320068646991,2.110832574337318e-18,-0.004826320068646991,-1.6102559548447281e-18,0.6550322703000787,-1.5794366187372977e-18,-0.6550322703000788,0.7020582328879617,0.1192831726123407,0.7020582328879617,500.0,6.428571428571418,[0.34025637]
-6.008547325356587e-18,0.6528313743155951,1.030658771434947e-18,0.6528313743155951,1.125144304084429e-18,-0.004214376381785047,1.030658771434947e-18,-0.004214376381785047,-4.126704814353549e-19,0.652844977202916,-3.9962839595212223e-19,-0.6528449772029159,0.7021349217473088,0.11837695436951014,0.7021349217473087,500.0,6.428571428571418,[0.34025637]
-5.668318013246176e-18,0.6482984087124017,-5.1939911433123443e-20,0.6482984087124017,9.685954100750933e-19,-0.0037121713423109936,-5.1939911433123443e-20,-0.0037121713423109936,7.8057394811934e-19,0.6483090366137951,7.797779201443432e-19,-0.6483090366137951,0.702195796672229,0.1176525659376245,0.7021957966722291,500.0,6.428571428571418,[0.34025637]
-5.387235423655757e-18,0.6404139580281585,-1.1387439805354134e-18,0.6404139580281585,7.716205451690659e-19,-0.0033263307143913483,-1.1387439805354134e-18,-0.0033263307143913483,1.970019964301191e-18,0.6404225965043031,1.957965694028332e-18,-0.6404225965043033,0.7022399538296856,0.11712426943448435,0.7022399538296856,500.0,6.428571428571418,[0.34025637]
-5.195144233086243e-18,0.6268634353651614,-2.2270572406653064e-18,0.6268634353651614,4.829411288329597e-19,-0.0030965207837381973,-2.2270572406653064e-18,-0.0030965207837381973,3.138303391691486e-18,0.6268710832689413,3.1160970184437966e-18,-0.6268710832689413,0.7022609937505945,0.11687169594411997,0.7022609937505945,500.0,6.428571428571418,[0.34025637]
-5.234213627778347e-18,0.6016372401872506,-3.320254175131713e-18,0.6016372401872506,3.065862222366542e-20,-0.003137563027018543,-3.320254175131713e-18,-0.003137563027018543,4.281354501676463e-18,0.601645421391936,4.246491769953277e-18,-0.6016454213919359,0.7022382137647619,0.11714513330460465,0.7022382137647616,500.0,6.428571428571418,[0.34025637]
-5.846300811287986e-18,0.5443002459426637,-4.438089924913929e-18,0.5443002459426637,-9.203012971917973e-19,-0.003763184334414525,-4.438089924913929e-18,-0.003763184334414525,5.325375548726591e-18,0.5443132547436073,5.2634683066908375e-18,-0.5443132547436073,0.7020964904810084,0.11883196585305686,0.7020964904810084,500.0,6.428571428571418,[0.3274164]
-9.08471952687799e-18,0.3529107243616489,-5.565743894976844e-18,0.3529107243616489,-5.678627992401037e-18,-0.002992667241579152,-5.565743894976844e-18,-0.002992667241579152,5.598047365848571e-18,0.3529234129760768,5.5025508797763835e-18,-0.35292341297607693,0.7019640384210654,0.12038678302528942,0.7019640384210655,500.0,6.428571428571418,[0.28094274]
-8.992472344966076e-18,0.35285331143165466,-5.975599480787681e-18,0.35285331143165466,-5.772503065758455e-18,0.003975297296159094,-5.975599480787681e-18,0.003975297296159094,5.866378139115873e-18,0.35287570386309824,5.999143134587188e-18,-0.3528757038630983,0.7017241597021697,0.12315196864267815,0.7017241597021698,500.0,6.428571428571418,[0.28094274]
-5.578241353261602e-18,0.5441281354428817,-6.2910543199618234e-18,0.5441281354428817,-1.1959575819638687e-18,0.0047684797922385785,-6.2910543199618234e-18,0.0047684797922385785,6.117344736964462e-18,0.5441490293844842,6.226772825742057e-18,-0.5441490293844841,0.7019398728862691,0.12066826303886209,0.7019398728862691,500.0,6.428571428571418,[0.3274164]
-4.765380891473092e-18,0.601350682786951,-6.5850074262932615e-18,0.601350682786951,-4.178254710127854e-19,0.00416550811808467,-6.5850074262932615e-18,0.00416550811808467,5.593435006752976e-18,0.6013651096848022,5.684150533788319e-18,-0.6013651096848023,0.7020953882338827,0.11884498997192743,0.7020953882338827,500.0,6.428571428571418,[0.34025637]
-4.560266569339543e-18,0.6264627767299956,-6.868735339482625e-18,0.6264627767299956,-1.5953336165942713e-19,0.004147205745070349,-6.868735339482625e-18,0.004147205745070349,4.97266573553398e-18,0.6264765039039756,5.063131861313905e-18,-0.6264765039039758,0.702121143384846,0.11854028861072138,0.7021211433848463,500.0,6.428571428571418,[0.34025637]
-4.56786339608523e-18,0.6398996380664123,-7.142085444706898e-18,0.6398996380664123,-5.2092526256139477e-20,0.004399855962282367,-7.142085444706898e-18,0.004399855962282367,4.331276506005263e-18,0.6399147642694412,4.429111631076114e-18,-0.6399147642694412,0.702099678576775,0.11879428725649063,0.7020996785767751,500.0,6.428571428571418,[0.34025637]
-4.670963187633839e-18,0.6476709606781152,-7.413926358903569e-18,0.6476709606781152,-2.821678505540888e-20,0.0048086257353776515,-7.413926358903569e-18,0.0048086257353776515,3.66655416575765e-18,0.6476888112258663,3.7761794425461286e-18,-0.6476888112258664,0.7020534897613172,0.11933899206844259,0.7020534897613173,500.0,6.428571428571418,[0.34025637]
-4.8326670712206055e-18,0.6520914237727744,-7.681663630081364e-18,0.6520914237727744,-5.968935300182648e-20,0.0053338319084353875,-7.681663630081364e-18,0.0053338319084353875,2.9947776292461848e-18,0.6521132376518909,3.1199583448942946e-18,-0.6521132376518909,0.7019895751104902,0.12008860425696936,0.7019895751104903,500.0,6.428571428571418,[0.34025637]
-5.02475826179012e-18,0.6541627533986116,-7.941702331298127e-18,0.6541627533986116,-1.101539878124616e-19,0.0059688304056305114,-7.941702331298127e-18,0.0059688304056305114,2.321373201289215e-18,0.6541899837741816,2.465645384559823e-18,-0.6541899837741817,0.7019090393503925,0.12102644734279473,0.7019090393503925,500.0,6.428571428571418,[0.34025637]
-5.258089368979078e-18,0.6542799044255575,-8.20728603775114e-18,0.6542799044255575,-1.9317645153318387e-19,0.0067283383267908595,-8.20728603775114e-18,0.0067283383267908595,1.6365735332137152e-18,0.654314499206426,1.8045262908242265e-18,-0.654314499206426,0.7018093747823253,0.12217693290995499,0.7018093747823253,500.0,6.428571428571418,[0.34025637]
-5.552195090133532e-18,0.6524513739429559,-8.465849462345416e-18,0.6524513739429559,-2.979041345272976e-19,0.0076493730514589795,-8.465849462345416e-18,0.0076493730514589795,9.512312346563801e-19,0.6524962132212963,1.1487875781963608e-18,-0.6524962132212963,0.7016842164378512,0.12360631377076775,0.7016842164378512,500.0,6.428571428571418,[0.34025637]
-5.8756028573070645e-18,0.6483018986579298,-8.720648387971963e-18,0.6483018986579298,-4.400733207680116e-19,0.008803070787742048,-8.720648387971963e-18,0.008803070787742048,2.593773703170278e-19,0.6483616628539745,4.95466903387521e-19,-0.6483616628539743,0.7015209380410787,0.1254461915720436,0.7015209380410786,500.0,6.428571428571418,[0.34025637]
-6.2402505411000415e-18,0.6408596349751335,-8.961915465957755e-18,0.6408596349751335,-6.180561188098214e-19,0.010326579622051704,-8.961915465957755e-18,0.010326579622051704,-4.427864731771855e-19,0.6409428289536842,-1.561151549585377e-19,-0.6409428289536842,0.7012938726467096,0.1279601827771471,0.7012938726467096,500.0,6.428571428571418,[0.34025637]
-6.715594843187314e-18,0.6278670213000558,-9.194398713018846e-18,0.6278670213000558,-8.812319024996927e-19,0.01250941473345221,-9.194398713018846e-18,0.01250941473345221,-1.1709965797994685e-18,0.6279916256552932,-8.077193429771207e-19,-0.6279916256552934,0.7009441615474024,0.13173672527134195,0.7009441615474026,500.0,6.428571428571418,[0.34025637]
-7.418843947645196e-18,0.6034520627704587,-9.384794183332627e-18,0.6034520627704587,-1.3088247221855042e-18,0.016069297017701115,-9.384794183332627e-18,0.016069297017701115,-1.9225397971406473e-18,0.6036659791379377,-1.4289767128681096e-18,-0.6036659791379375,0.7003041562766507,0.13837693956471567,0.7003041562766508,500.0,6.428571428571418,[0.34025637]
-8.658211968155848e-18,0.5476313113028408,-9.487215686778942e-18,0.5476313113028408,-2.243234411905006e-18,0.02329889239333568,-9.487215686778942e-18,0.02329889239333568,-2.7874927851852965e-18,0.5481267111772834,-1.9961107877665023e-18,-0.5481267111772835,0.6986603064049912,0.15410240915757248,0.6986603064049911,500.0,6.428571428571418,[0.34420437]
-1.2456625340999353e-17,0.36046480654148916,-9.206709642075473e-18,0.36046480654148916,-6.982569040250028e-18,0.04098776786259889,-9.206709642075473e-18,0.04098776786259889,-4.509259304047073e-18,0.3627876429391601,-2.466155378368379e-18,-0.3627876429391602,0.6892169600709914,0.22351725638304346,0.6892169600709913,500.0,6.428571428571418,[0.44707264]
-1.23871686393245e-17,0.36344110952544995,-8.708710517371598e-18,0.36344110952544995,-6.944584906521593e-18,0.04728389102422215,-8.708710517371598e-18,0.04728389102422215,-4.913519013013989e-18,0.3665040333249835,-2.6736582622488896e-18,-0.3665040333249835,0.6317184370644915,0.4492923686705482,0.6317184370644916,500.0,19.28571428571425,[1.20591687]
-8.725498147903361e-18,0.5511930071708668,-8.552195537767377e-18,0.5511930071708668,-2.101065225664292e-18,0.031042641299042592,-8.552195537767377e-18,0.031042641299042592,-3.728414040686816e-18,0.5520664604310647,-2.770665270468866e-18,-0.5520664604310647,0.6532382585975709,0.38283097446369935,0.6532382585975709,500.0,19.28571428571425,[0.92726163]
-7.58814465797765e-18,0.60638803444449,-7.98663891807507e-18,0.60638803444449,-1.0678967882508592e-18,0.022744373049223908,-7.98663891807507e-18,0.022744373049223908,-3.4120604697771357e-18,0.6068144319500437,-2.8292820575268156e-18,-0.6068144319500436,0.6582037672225982,0.3654252339781137,0.6582037672225982,500.0,19.28571428571425,[0.92323132]
-6.995592171814063e-18,0.6306851223999632,-7.298617381513676e-18,0.6306851223999632,-5.458862647257949e-19,0.019168965577124497,-7.298617381513676e-18,0.019168965577124497,-3.2221398011349606e-18,0.6309763647379779,-2.7890745259225e-18,-0.6309763647379779,0.6600232493929644,0.35880164509308704,0.6600232493929644,500.0,19.28571428571425,[0.91871771]
-6.622262400311731e-18,0.6437955597489939,-6.56145387194112e-18,0.6437955597489939,-1.8232384189648815e-19,0.017458482817447468,-6.56145387194112e-18,0.017458482817447468,-3.070745896703055e-18,0.6440322362854265,-2.716720962168878e-18,-0.6440322362854265,0.6608501373574149,0.3557445599153581,0.6608501373574149,500.0,19.28571428571425,[0.91871771]
-6.333582983975625e-18,0.6514917643495491,-5.797701468758658e-18,0.6514917643495491,8.790613805723536e-20,0.016688287604143603,-5.797701468758658e-18,0.016688287604143603,-2.9448556249173845e-18,0.6517054687191499,-2.6484093002347944e-18,-0.6517054687191497,0.6612270960554663,0.3543408738546971,0.6612270960554661,500.0,19.28571428571425,[0.91871771]
-6.112189747387031e-18,0.6559969309892911,-5.028183616706702e-18,0.6559969309892911,3.3100459391921955e-19,0.016497358476097474,-5.028183616706702e-18,0.016497358476097474,-2.8249342884318967e-18,0.6562043403575273,-2.5745596720593113e-18,-0.6562043403575273,0.6613439513725591,0.35390444468226273,0.6613439513725591,500.0,19.28571428571425,[0.91871771]
-5.929865905490543e-18,0.6582772042201274,-4.240725044349083e-18,0.6582772042201274,5.306926112344209e-19,0.016736573873727133,-4.240725044349083e-18,0.016736573873727133,-2.7164081920649395e-18,0.6584899319662361,-2.5022692034277916e-18,-0.6584899319662362,0.6612748313640782,0.35416266715849654,0.6612748313640783,500.0,19.28571428571425,[0.91871771]
-5.780099892504142e-18,0.6587206823044909,-3.4444487266616495e-18,0.6587206823044909,7.065048873488916e-19,0.01736131527352467,-3.4444487266616495e-18,0.01736131527352467,-2.611137878588991e-18,0.6589494309609203,-2.4304811710817216e-18,-0.6589494309609204,0.6610414752322513,0.3550328661483847,0.6610414752322513,500.0,19.28571428571425,[0.91871771]
-5.656380142645811e-18,0.6573510520333874,-2.643797450714422e-18,0.6573510520333874,8.627824661173101e-19,0.018401266846310778,-2.643797450714422e-18,0.018401266846310778,-2.527572784386434e-18,0.6576085554727447,-2.3810581542265083e-18,-0.6576085554727449,0.6606299448269488,0.3565615683102774,0.6606299448269488,500.0,19.28571428571425,[0.91871771]
-5.573900309406923e-18,0.6538351470981508,-1.8300212999878163e-18,0.6538351470981508,9.832464330846325e-19,0.019969893537976822,-1.8300212999878163e-18,0.019969893537976822,-2.4450929511475464e-18,0.6541400432849058,-2.3415864383664515e-18,-0.6541400432849059,0.659985517806149,0.3589404303952091,0.6599855178061491,500.0,19.28571428571425,[0.91996466]
-5.541342480496836e-18,0.647290310522663,-9.971174247765342e-19,0.647290310522663,1.0602999615051721e-18,0.022320971734064294,-9.971174247765342e-19,0.022320971734064294,-2.3832330762183808e-18,0.647675051145,-2.3215119023144434e-18,-0.647675051145,0.6589811997805625,0.3626121297909661,0.6589811997805624,500.0,19.28571428571425,[0.92707103]
-5.610799182171689e-18,0.6356531491851676,-1.2738250561071605e-19,0.6356531491851676,1.0624704834325113e-18,0.02601587501301167,-1.2738250561071605e-19,0.02601587501301167,-2.341993159598937e-18,0.6361853124850602,-2.3393088213357606e-18,-0.6361853124850603,0.6573176231878323,0.3686015253541387,0.6573176231878323,500.0,19.28571428571425,[0.92707103]
-5.849556594178995e-18,0.6135368369301143,8.051618918274787e-19,0.6135368369301143,8.877434682817101e-19,0.03246273255904116,8.051618918274787e-19,0.03246273255904116,-2.370209944654346e-18,0.6143950514737315,-2.4484906168517866e-18,-0.6143950514737315,0.6541543464036775,0.3796895865866683,0.6541543464036775,500.0,19.28571428571425,[0.92323132]
-6.602727702965679e-18,0.5624957089752924,1.9238963733452343e-18,0.5624957089752924,2.0619958309721876e-19,0.04610653130516196,1.9238963733452343e-18,0.04610653130516196,-2.5666421790785385e-18,0.5643821709131238,-2.8522096663953853e-18,-0.564382170913124,0.6461164314162828,0.40628452358879663,0.6461164314162828,500.0,19.28571428571425,[0.92666562]
-9.630605791603785e-18,0.3864797808914316,3.7520523810517435e-18,0.3864797808914316,-4.2639903262577496e-18,0.07720094528671485,3.7520523810517435e-18,0.07720094528671485,-3.8711258574093644e-18,0.3941149667178998,-5.488049996196798e-18,-0.3941149667178996,0.6087489313179714,0.5087725201290407,0.6087489313179717,500.0,19.28571428571425,[1.27554565]
-8.567050047207604e-18,0.39190599814048005,4.842841392755008e-18,0.39190599814048005,-4.199959929401245e-18,0.08156936411296538,4.842841392755008e-18,0.08156936411296538,-3.93298573233853e-18,0.400304724603994,-5.9772985229871014e-18,-0.4003047246039941,0.5095043868186344,0.6934050473028984,0.5095043868186346,500.0,32.142857142857125,[1.29032846]
-3.926474166556513e-18,0.5691035781566683,4.802449336263431e-18,0.5691035781566683,4.0371707848508095e-19,0.051502221921916246,4.802449336263431e-18,0.051502221921916246,-2.2540870215417017e-18,0.5714292270558246,-3.0807069723989758e-18,-0.5714292270558247,0.5623809226035877,0.6061809925946828,0.5623809226035877,500.0,32.142857142857125,[1.37131135]
-1.5323884807014361e-18,0.6191429943228552,5.4944727726283566e-18,0.6191429943228552,1.2241743670192776e-18,0.03714397501374196,5.4944727726283566e-18,0.03714397501374196,-1.7016891910338896e-18,0.6202561747366108,-2.408746599547714e-18,-0.6202561747366109,0.5751209800128175,0.5817832213962456,0.5751209800128175,500.0,32.142857142857125,[1.35465675]
3.7115924957499373e-19,0.6411716663658598,6.394527169966694e-18,0.6411716663658598,1.5258769149194187e-18,0.030711381752959135,6.394527169966694e-18,0.030711381752959135,-1.3620025094053132e-18,0.6419067648183412,-1.9692810921522862e-18,-0.6419067648183413,0.5800396996401264,0.5719334696298022,0.5800396996401264,500.0,32.142857142857125,[1.35465675]
2.101065225664292e-18,0.6531447206378519,7.361630346216741e-18,0.6531447206378519,1.6604492744144458e-18,0.02736836966278832,7.361630346216741e-18,0.02736836966278832,-1.0841757027059027e-18,0.6537178701512576,-1.6799775896377875e-18,-0.6537178701512576,0.5824494591190198,0.5670143341608951,0.5824494591190198,500.0,32.142857142857125,[1.34791261]
3.7593439781513985e-18,0.6602694118500717,8.368549034071416e-18,0.6602694118500717,1.7168828445252636e-18,0.02556366509920945,8.368549034071416e-18,0.02556366509920945,-8.389067249165795e-19,0.6607641010210406,-1.4699662689739662e-18,-0.6607641010210406,0.5837216066660579,0.5643918601666685,0.5837216066660578,500.0,32.142857142857125,[1.34842144]
5.356848116673009e-18,0.6645470656210276,9.396732053932992e-18,0.6645470656210276,1.7342470199439767e-18,0.024686443815230146,9.396732053932992e-18,0.024686443815230146,-6.175134883279866e-19,0.6650054307550884,-1.3161807579722978e-18,-0.6650054307550884,0.5843462537259039,0.563097603895633,0.5843462537259039,500.0,32.142857142857125,[1.34842144]
6.926135470139211e-18,0.6668499320230307,1.0445501117699175e-17,0.6668499320230307,1.708200756815907e-18,0.024474671768629504,1.0445501117699175e-17,0.024474671768629504,-4.091433833034288e-19,0.6672989145782444,-1.1604074314183931e-18,-0.6672989145782443,0.5845234802403587,0.5627295994484367,0.5845234802403589,500.0,32.142857142857125,[1.34842144]
8.482399692041377e-18,0.6675341722168999,1.15054619351532e-17,0.6675341722168999,1.6604492744144458e-18,0.024833260431914143,1.15054619351532e-17,0.024833260431914143,-2.1596693177024491e-19,0.6679959295542006,-1.0576298664167865e-18,-0.6679959295542005,0.5843248972780594,0.5631419260204049,0.5843248972780593,500.0,32.142857142857125,[1.34842144]
9.993082953469422e-18,0.666633965296791,1.258119295098555e-17,0.666633965296791,1.586651528884915e-18,0.02577870839927319,1.258119295098555e-17,0.02577870839927319,-3.5813611801095886e-20,0.667132209905996,-9.968181961976316e-19,-0.6671322099059959,0.5837403597718872,0.5643530674558045,0.5837403597718872,500.0,32.142857142857125,[1.34842144]
1.149291360526077e-17,0.6638724308671651,1.3669268810279641e-17,0.6638724308671651,1.484636998299975e-18,0.02744436159059318,1.3669268810279641e-17,0.02744436159059318,1.2589027178567039e-19,0.6644394610862558,-9.764503771225596e-19,-0.6644394610862557,0.5826745644255039,0.5665515898337051,0.5826745644255038,500.0,32.142857142857125,[1.34842144]
1.2905923379958555e-17,0.6584978650667245,1.478841026465877e-17,0.6584978650667245,1.3413825510955914e-18,0.030150384782115496,1.478841026465877e-17,0.030150384782115496,2.6371841417170607e-19,0.6591877456384819,-1.0586125580667132e-18,-0.6591877456384818,0.5808907658474084,0.5702033289155918,0.5808907658474084,500.0,32.142857142857125,[1.34842144]
1.4290716369600928e-17,0.6487397686567693,1.594438276299244e-17,0.6487397686567693,1.1199893145069986e-18,0.034618844723651045,1.594438276299244e-17,0.034618844723651045,3.5488033511995015e-19,0.6496627985707961,-1.318319267019723e-18,-0.6496627985707961,0.5778268578141272,0.5763959097506721,0.5778268578141272,500.0,32.142857142857125,[1.35465675]
1.5517061258547545e-17,0.6299479970820075,1.719636694220575e-17,0.6299479970820075,7.227838018039352e-19,0.042669401112938515,1.719636694220575e-17,0.042669401112938515,3.5488033511995015e-19,0.631391444999827,-1.8644244934880598e-18,-0.6313914449998268,0.5719318441818612,0.588037355294262,0.5719318441818613,500.0,32.142857142857125,[1.35465675]
1.6324495415517707e-17,0.5859962438563168,1.8673915829836757e-17,0.5859962438563168,-1.7364175418713157e-19,0.060018994089267155,1.8673915829836757e-17,0.060018994089267155,8.139457227521792e-20,0.5890618621717075,-3.5557069450367165e-18,-0.5890618621717072,0.5572774764671595,0.6155352373705255,0.5572774764671597,500.0,32.142857142857125,[1.42271204]
1.5206676622938047e-17,0.42584230129262485,2.1053723551138556e-17,0.42584230129262485,-4.8706512049490405e-18,0.09835454834938928,2.1053723551138556e-17,0.09835454834938928,-1.6647903182691241e-18,0.43705295188479276,-1.0449453467794074e-17,-0.43705295188479293,0.4987058455061908,0.7089322670861519,0.49870584550619074,500.0,32.142857142857125,[1.31862128]
1.5488844473492136e-17,0.43263873871779857,2.144658801998694e-17,0.43263873871779857,-4.94878999433325e-18,0.09992663191430061,2.144658801998694e-17,0.09992663191430061,-2.121685183974014e-18,0.444028839159197,-1.1884897636697008e-17,-0.44402883915919644,0.3746514611905777,0.8480993840674159,0.37465146119057774,500.0,45.0,[1.33702587]
1.6554570739815656e-17,0.5943281482002704,1.9718513421773835e-17,0.5943281482002704,-3.8852342499370693e-19,0.06198783983402663,1.9718513421773835e-17,0.06198783983402663,-6.782881022934827e-19,0.5975520396002774,-4.623140825541183e-18,-0.5975520396002773,0.4454342660451331,0.7766444677364716,0.44543426604513325,500.0,45.0,[1.52915932]
1.57362839732088e-17,0.6370925918064544,1.888391382630682e-17,0.6370925918064544,3.7115924957499373e-19,0.04441302787817203,1.888391382630682e-17,0.04441302787817203,-7.423184991499875e-19,0.6386387770719633,-3.322503315603904e-18,-0.6386387770719633,0.46401783387285456,0.7545693471748559,0.46401783387285467,500.0,45.0,[1.52836029]
1.4529473781608234e-17,0.6558368433776032,1.829933122534518e-17,0.6558368433776032,6.294513589283519e-19,0.03639740654411702,1.829933122534518e-17,0.03639740654411702,-1.1091367048703029e-18,0.6568460522334257,-3.085696928395672e-18,-0.6568460522334255,0.47152558405980455,0.7452028228302148,0.47152558405980455,500.0,45.0,[1.50474345]
1.3196773318222001e-17,0.6660755157068097,1.780563923009087e-17,0.6660755157068097,7.162722360219177e-19,0.03208460811691107,1.780563923009087e-17,0.03208460811691107,-1.5779694411755583e-18,0.6668478197475858,-3.264259151780305e-18,-0.6668478197475858,0.4753640102099129,0.7403094728519282,0.47536401020991303,500.0,45.0,[1.51393561]
1.1805468762797608e-17,0.6722348004479911,1.7346743414484214e-17,0.6722348004479911,7.227838018039352e-19,0.029603963834940825,1.7346743414484214e-17,0.029603963834940825,-2.10649153048264e-18,0.6728863363214406,-3.606135879340278e-18,-0.6728863363214406,0.4775181200187597,0.7375316197340281,0.47751812001875954,500.0,45.0,[1.51393561]
1.0362071681117076e-17,0.6760077625425596,1.6927018736785007e-17,0.6760077625425596,6.880554509665088e-19,0.028215816333037214,1.6927018736785007e-17,0.028215816333037214,-2.658889360990452e-18,0.6765963547855818,-4.036621169303926e-18,-0.676596354785582,0.47871374241648984,0.7359798269267964,0.4787137424164899,500.0,45.0,[1.51206699]
8.899139902090493e-18,0.6781330899777146,1.651799405389948e-17,0.6781330899777146,6.229397931463345e-19,0.027597102792068305,1.651799405389948e-17,0.027597102792068305,-3.2427597594446824e-18,0.6786943994208584,-4.560567985240216e-18,-0.6786943994208582,0.47925545557821053,0.7352743818446582,0.47925545557821053,500.0,45.0,[1.52267156]
7.423184991499875e-18,0.6789162988712971,1.6132404224948192e-17,0.6789162988712971,5.317778721980904e-19,0.0276210792668386,1.6132404224948192e-17,0.0276210792668386,-3.841823811390286e-18,0.6794779355453459,-5.138253716246591e-18,-0.679477935545346,0.479261492929665,0.7352665114022652,0.4792614929296651,500.0,45.0,[1.52267156]
5.916842773926508e-18,0.6783953302455795,1.5755530398111376e-17,0.6783953302455795,4.102286442670984e-19,0.028287768906338877,1.5755530398111376e-17,0.028287768906338877,-4.460422560681942e-18,0.6789848466414454,-5.731601104750512e-18,-0.6789848466414455,0.47873495598241667,0.7359522293199656,0.4787349559824168,500.0,45.0,[1.52267156]
4.393136380934429e-18,0.6763526732400745,1.5396970350036484e-17,0.6763526732400745,2.6046263128069735e-19,0.02972396269615138,1.5396970350036484e-17,0.02972396269615138,-5.105067573101668e-18,0.6770055040820255,-6.443372503510994e-18,-0.6770055040820254,0.4775653274936878,0.7374704848003707,0.4775653274936878,500.0,45.0,[1.51393561]
2.8260195493955663e-18,0.6721834467903844,1.5069865912705452e-17,0.6721834467903844,5.86040920381569e-20,0.0322527733957162,1.5069865912705452e-17,0.0322527733957162,-5.793123024068177e-18,0.6729567798385846,-7.217731804270694e-18,-0.6729567798385846,0.4754619409200115,0.7401836836037062,0.4754619409200115,500.0,45.0,[1.51393561]
1.2328564547286341e-18,0.6644507966395754,1.4780440379456823e-17,0.6644507966395754,-2.1488167080657534e-19,0.03661391640816783,1.4780440379456823e-17,0.03661391640816783,-6.535441523218165e-18,0.6654588191839601,-8.12801787225502e-18,-0.6654588191839602,0.471732331236749,0.7449410817855896,0.4717323312367492,500.0,45.0,[1.50474345]
-4.992200432880033e-19,0.6493468973322836,1.458419467426076e-17,0.6493468973322836,-6.468155343470651e-19,0.04467814330187693,1.458419467426076e-17,0.04467814330187693,-7.423184991499875e-18,0.6508821164880518,-9.413987391456522e-18,-0.6508821164880518,0.4644994375425478,0.7539764883902637,0.4644994375425477,500.0,45.0,[1.52836029]
-2.5178054357134078e-18,0.613387027946312,1.4634930624312313e-17,0.613387027946312,-1.601845182376289e-18,0.06230200171271375,1.4634930624312313e-17,0.06230200171271375,-8.682087709356578e-18,0.6165429307600735,-1.1423369069074642e-17,-0.6165429307600734,0.4469153717764807,0.7749408370577593,0.44691537177648066,500.0,45.0,[1.52915932]
-6.029709914148144e-18,0.47066273232984335,1.5584517010320632e-17,0.47066273232984335,-6.348776637466999e-18,0.1002908863987168,1.5584517010320632e-17,0.1002908863987168,-1.1831515025925677e-17,0.4812293315030104,-1.785528240599393e-17,-0.4812293315030104,0.3848184448507684,0.8389454863131885,0.38481844485076844,500.0,45.0,[1.47624119]
-6.7199358870419925e-18,0.47747570491587404,1.4459092912394007e-17,0.47747570491587404,-6.452961689979278e-18,0.09876331227491837,1.4459092912394007e-17,0.09876331227491837,-1.1529812478025536e-17,0.4875830602435075,-1.735456444032514e-17,-0.4875830602435077,0.24712921514040098,0.9369387931173409,0.24712921514040104,500.0,57.8571428571429,[1.47911434]
-5.1571600993578076e-18,0.6217711309252356,1.1394290515187298e-17,0.6217711309252356,-1.907888774131108e-18,0.060478142293408366,1.1394290515187298e-17,0.060478142293408366,-7.171404447928534e-18,0.6247054865673171,-9.306345405560258e-18,-0.6247054865673172,0.31647349396129043,0.8942533507009445,0.31647349396129026,500.0,57.8571428571429,[1.5138284]
-5.07468026611892e-18,0.6565790906147516,9.228618347779552e-18,0.6565790906147516,-1.1677407969084598e-18,0.04317879324158831,9.228618347779552e-18,0.04317879324158831,-4.727396757744657e-18,0.6579973483368257,-5.9648442825447005e-18,-0.6579973483368255,0.33610340110694775,0.8798119159960751,0.3361034011069477,500.0,57.8571428571429,[1.53443457]
-5.248322020306052e-18,0.6716709133018623,7.288621110606126e-18,0.6716709133018623,-9.354949506831713e-19,0.035178887578800354,7.288621110606126e-18,0.035178887578800354,-2.6914471899005393e-18,0.6725915327351657,-3.450128268169069e-18,-0.6725915327351656,0.3443731755110924,0.873392370001486,0.3443731755110923,500.0,57.8571428571429,[1.53443457]
-5.534830914714819e-18,0.6799197419763227,5.4446949045212936e-18,0.6799197419763227,-8.638677270809797e-19,0.030761622565300448,5.4446949045212936e-18,0.030761622565300448,-8.009225911881445e-19,0.6806152605929429,-1.2958039327728307e-18,-0.680615260592943,0.34875862806582436,0.8699050745335885,0.34875862806582436,500.0,57.8571428571429,[1.55535413]
-5.8604092038156905e-18,0.6849095191841807,3.643619549298852e-18,0.6849095191841807,-8.682087709356578e-19,0.028107378157471722,3.643619549298852e-18,0.028107378157471722,1.0071221742853631e-18,0.6854860131147774,6.933213885942964e-19,-0.6854860131147773,0.35133725920675446,0.8678273218712186,0.35133725920675446,500.0,57.8571428571429,[1.55535413]
-6.199010624480598e-18,0.6879997207314441,1.862066173520544e-18,0.6879997207314441,-9.333244287558322e-19,0.026494098491149178,1.862066173520544e-18,0.026494098491149178,2.778268066994105e-18,0.6885096607756526,2.624704142445187e-18,-0.6885096607756526,0.3528857261642557,0.8665698636226928,0.3528857261642556,500.0,57.8571428571429,[1.55541703]
-6.5679993521282524e-18,0.6897822603928027,1.0829505448211353e-19,0.6897822603928027,-1.020145305849398e-18,0.025601617010980113,1.0829505448211353e-19,0.025601617010980113,4.514685608865421e-18,0.6902572053562215,4.493684577149351e-18,-0.6902572053562214,0.3537379658171207,0.8658746462849752,0.3537379658171207,500.0,57.8571428571429,[1.53790558]
-6.945670167485263e-18,0.6905033278745829,-1.6426219554008854e-18,0.6905033278745829,-1.1286714022163552e-18,0.025296578560356924,-1.6426219554008854e-18,0.025296578560356924,6.2228863656813284e-18,0.6909665423830116,6.3190273251902034e-18,-0.6909665423830117,0.354031732046755,0.8656344871872594,0.354031732046755,500.0,57.8571428571429,[1.53775595]
-7.345046202115665e-18,0.6901971404434658,-3.3744213091382265e-18,0.6901971404434658,-1.2589027178567039e-18,0.025562470159682393,-3.3744213091382265e-18,0.025562470159682393,7.907211381296504e-18,0.6906703501360123,8.136978426299876e-18,-0.6906703501360124,0.3537862848228277,0.8658351629164307,0.35378628482282765,500.0,57.8571428571429,[1.53790558]
-7.735740149036711e-18,0.6886968657226806,-5.088341412429175e-18,0.6886968657226806,-1.4368855158985137e-18,0.026494362441862814,-5.088341412429175e-18,0.026494362441862814,9.552467002219575e-18,0.6892063000999372,9.916952385333477e-18,-0.6892063000999371,0.35290934212736386,0.8665506289181623,0.3529093421273638,500.0,57.8571428571429,[1.55541703]
-8.165503490649862e-18,0.6855312140274565,-6.781113234568225e-18,0.6855312140274565,-1.6452556209230718e-18,0.028354270221532224,-6.781113234568225e-18,0.028354270221532224,1.1156482706523203e-17,0.6861173442245533,1.1693461451103287e-17,-0.6861173442245531,0.351139411590287,0.8679874580061939,0.351139411590287,500.0,57.8571428571429,[1.55535413]
-8.638677270809796e-18,0.6795716188241944,-8.440714648854803e-18,0.6795716188241944,-1.933935037259178e-18,0.0317530019435724,-8.440714648854803e-18,0.0317530019435724,1.2678018577587945e-17,0.6803130442992877,1.3415090209708246e-17,-0.6803130442992879,0.34784856518226825,0.8706335345030507,0.34784856518226825,500.0,57.8571428571429,[1.55535413]
-9.168284621080547e-18,0.6677913493409495,-1.0024055283940398e-17,0.6677913493409495,-2.3984267297097548e-18,0.038241833410358035,-1.0024055283940398e-17,0.038241833410358035,1.4019401128683535e-17,0.6688854341942206,1.5116552824798367e-17,-0.6688854341942206,0.3413575842785663,0.8757568151667464,0.3413575842785662,500.0,57.8571428571429,[1.53443457]
-9.906262076375856e-18,0.6391462648398113,-1.14012853612422e-17,0.6391462648398113,-3.3599679435209963e-18,0.05265691919558244,-1.14012853612422e-17,0.05265691919558244,1.4883268855764515e-17,0.6413117019031013,1.657741990405148e-17,-0.6413117019031013,0.3257730534156365,0.8875493424799017,0.32577305341563656,500.0,57.8571428571429,[1.50876712]
-1.1755546758468807e-17,0.5119707953409516,-1.2047100420638382e-17,0.5119707953409516,-8.128604617885097e-18,0.08278194298169288,-1.2047100420638382e-17,0.08278194298169288,1.3491964300340124e-17,0.5186202323144277,1.6916706390230624e-17,-0.5186202323144274,0.27581189387945876,0.9207907462552242,0.2758118938794587,500.0,57.8571428571429,[1.47656453]
-1.0388117944245146e-17,0.5174492130229519,-1.29977211960027e-17,0.5174492130229519,-8.17201505643188e-18,0.07846534061748194,-1.29977211960027e-17,0.07846534061748194,1.423211227756277e-17,0.523364593506563,1.6915544038053466e-17,-0.5233645935065627,0.13083916023331207,0.982732022628185,0.130839160233312,500.0,70.71428571428567,[1.49681023]
-6.281490457719485e-18,0.6459180970530254,-1.386470056975295e-17,0.6459180970530254,-3.492369781088684e-18,0.047425606966897314,-1.386470056975295e-17,0.047425606966897314,1.7594250743011106e-17,0.6476568352891677,1.946137061318196e-17,-0.6476568352891677,0.18404232724632602,0.9655344859524762,0.184042327246326,500.0,70.71428571428567,[1.53722873]
-3.294852285700822e-18,0.6736725264505338,-1.4019095899037503e-17,0.6736725264505338,-2.6154789224436693e-18,0.0338361011364369,-1.4019095899037503e-17,0.0338361011364369,1.867300014089866e-17,0.6745217228780407,2.0011505848198866e-17,-0.6745217228780408,0.19976837055204366,0.9592628400255911,0.19976837055204363,500.0,70.71428571428567,[1.55802012]
-4.558096047412204e-19,0.6854762541358779,-1.3983680781496505e-17,0.6854762541358779,-2.248660716723354e-18,0.027443475316731275,-1.3983680781496505e-17,0.027443475316731275,1.9250358973570874e-17,0.6860253926215959,2.0329656297758144e-17,-0.686025392621596,0.20665617695742755,0.9563401325107509,0.20665617695742747,500.0,70.71428571428567,[1.57498309]
2.3181174183982065e-18,0.6918830973597029,-1.3887914980053943e-17,0.6918830973597029,-2.0468021774808134e-18,0.023802763222599627,-1.3887914980053943e-17,0.023802763222599627,1.9634541354709902e-17,0.6922924179485772,2.057169673561722e-17,-0.692292417948577,0.21045667808686333,0.9546810846022272,0.2104566780868633,500.0,70.71428571428567,[1.56649634]
5.044292959136172e-18,0.6957403065026905,-1.3762550381547552e-17,0.6957403065026905,-1.9165708618404647e-18,0.0215057848035259,-1.3762550381547552e-17,0.0215057848035259,1.994275546839206e-17,0.6960726060350843,2.077504631775388e-17,-0.6960726060350843,0.21281034132357385,0.9536369944855788,0.2128103413235738,500.0,70.71428571428567,[1.56505263]
7.770468499874138e-18,0.6981144374979423,-1.3612716539750922e-17,0.6981144374979423,-1.8384320724562555e-18,0.019991096071590587,-1.3612716539750922e-17,0.019991096071590587,2.0185853924254045e-17,0.6984006097972794,2.0956815694009724e-17,-0.6984006097972795,0.21434238532799363,0.9529505148242547,0.2143423853279936,500.0,70.71428571428567,[1.56448977]
1.0492302996757425e-17,0.6994664162057737,-1.3447756873273147e-17,0.6994664162057737,-1.7950216339094726e-18,0.019004843021383864,-1.3447756873273147e-17,0.019004843021383864,2.039856507313328e-17,0.6997245539910801,2.1119267062044915e-17,-0.69972455399108,0.21532879982721143,0.9525056513900302,0.21532879982721131,500.0,70.71428571428567,[1.56448977]
1.3192432274367323e-17,0.6999861051321239,-1.3275369952075258e-17,0.6999861051321239,-1.7668048488540637e-18,0.018433480014835954,-1.3275369952075258e-17,0.018433480014835954,2.0570036305393074e-17,0.7002287773031738,2.126196067794321e-17,-0.7002287773031738,0.21589167070042609,0.9522507931445149,0.21589167070042603,500.0,70.71428571428567,[1.56281652]
1.588387946426786e-17,0.6996971826377046,-1.309750585445135e-17,0.6996971826377046,-1.771145892708742e-18,0.018247241043395687,-1.309750585445135e-17,0.018247241043395687,2.0719802318379475e-17,0.6999350749868432,2.140019458016957e-17,-0.6999350749868434,0.2160634480210357,0.9521728692094321,0.21606344802103572,500.0,70.71428571428567,[1.56448977]
1.85753266541684e-17,0.6984647024943361,-1.2908856976000975e-17,0.6984647024943361,-1.8123858093281858e-18,0.018490663005986535,-1.2908856976000975e-17,0.018490663005986535,2.0823987370891753e-17,0.6987094140262479,2.1503454466602613e-17,-0.6987094140262479,0.21579798392830174,0.9522932637927042,0.2157979839283017,500.0,70.71428571428567,[1.56448977]
2.1260262278286922e-17,0.6959112153470405,-1.2704556599590178e-17,0.6959112153470405,-1.8840130329303775e-18,0.019312787676998174,-1.2704556599590178e-17,0.019312787676998174,2.0869568331365876e-17,0.6961791460634623,2.1575002269815606e-17,-0.6961791460634624,0.2149375317804027,0.9526823787938435,0.21493753178040265,500.0,70.71428571428567,[1.56448977]
2.3895275898076643e-17,0.6911299686341696,-1.2480721525833328e-17,0.6911299686341696,-2.042461133626135e-18,0.02107456177983562,-1.2480721525833328e-17,0.02107456177983562,2.0823987370891753e-17,0.6914512063034389,2.157906775042442e-17,-0.6914512063034386,0.21309175107840597,0.9535113063014393,0.21309175107840594,500.0,70.71428571428567,[1.56754413]
2.6519436908229672e-17,0.6816593442930816,-1.22040138945027e-17,0.6816593442930816,-2.3615278569449893e-18,0.024700562111101103,-1.22040138945027e-17,0.024700562111101103,2.0572206827320413e-17,0.6821067214378396,2.146062237223157e-17,-0.6821067214378396,0.20922043715243396,0.9552243806328903,0.2092204371524339,500.0,70.71428571428567,[1.57498309]
2.9013366602742346e-17,0.6582113417186161,-1.1811810756554052e-17,0.6582113417186161,-3.2015198428252387e-18,0.033048717841835024,-1.1811810756554052e-17,0.033048717841835024,1.976694319227759e-17,0.6590405056732175,2.0984923939193505e-17,-0.6590405056732176,0.19977949752531948,0.959258205457249,0.19977949752531948,500.0,70.71428571428567,[1.55802012]
3.062606439475533e-17,0.5416320127390147,-1.1002969151771631e-17,0.5416320127390147,-7.833413635766973e-18,0.049339372332863535,-1.1002969151771631e-17,0.049339372332863535,1.644170359959402e-17,0.5438746279115411,1.8616013154488336e-17,-0.5438746279115412,0.17203180570816232,0.9699536667540248,0.17203180570816223,500.0,70.71428571428567,[1.50134936]
3.1047145648659125e-17,0.5446966596844892,-1.0425305089453386e-17,0.5446966596844892,-7.781321109510833e-18,0.04308482948672918,-1.0425305089453386e-17,0.04308482948672918,1.555396013131231e-17,0.5463979809656517,1.7296346585156998e-17,-0.5463979809656518,0.023517799756509153,0.9994467600573959,0.02351779975650911,500.0,83.57142857142856,[1.60544066]
3.0009636167391014e-17,0.6620482694366714,-9.505563379945981e-18,0.6620482694366714,-3.0517538298388373e-18,0.025434456201610042,-9.505563379945981e-18,0.025434456201610042,1.73554933310038e-17,0.6625366575717624,1.8101268699681922e-17,-0.6625366575717624,0.05213768338863299,0.997277957212398,0.05213768338863296,500.0,83.57142857142856,[1.60256756]
2.8129964178315314e-17,0.685055697614526,-8.204623756949639e-18,0.685055697614526,-2.1119178353009877e-18,0.018241724672825577,-8.204623756949639e-18,0.018241724672825577,1.6628368485345187e-17,0.6852985257193861,1.707559174271764e-17,-0.685298525719386,0.060438906123977,0.9963404424457909,0.06043890612397698,500.0,83.57142857142856,[1.61962295]
2.6113549307817252e-17,0.6945927843612123,-6.8087746712398814e-18,0.6945927843612123,-1.677813449833159e-18,0.014717171951022016,-6.8087746712398814e-18,0.014717171951022016,1.5332566894723718e-17,0.6947486820692051,1.562641271386656e-17,-0.6947486820692053,0.06426830027299105,0.9958610200023102,0.06426830027299102,500.0,83.57142857142856,[1.60893861]
2.4090622871537166e-17,0.6996755253697109,-5.38377615433406e-18,0.6996755253697109,-1.4238623843344789e-18,0.012568096808497117,-5.38377615433406e-18,0.012568096808497117,1.383273624293237e-17,0.6997883950586556,1.4028704711163346e-17,-0.6997883950586555,0.06653838880249403,0.9955627984367116,0.06653838880249402,500.0,83.57142857142856,[1.60964652]
2.2030797562492318e-17,0.7026659412396532,-3.9436178983419804e-18,0.7026659412396532,-1.2393680205106516e-18,0.011076712644962221,-3.9436178983419804e-18,0.011076712644962221,1.2224379494774062e-17,0.7027532415729059,1.2350666120131284e-17,-0.7027532415729058,0.06808575211142257,0.995353535543449,0.06808575211142255,500.0,83.57142857142856,[1.60797327]
1.9955778599956096e-17,0.7044363531149811,-2.489588650657999e-18,0.7044363531149811,-1.0896020075242506e-18,0.009953431835157891,-2.489588650657999e-18,0.009953431835157891,1.0561759698432278e-17,0.704506668808203,1.0633372931958591e-17,-0.7045066688082029,0.06923558764141752,0.9951948888574015,0.06923558764141752,500.0,83.57142857142856,[1.60797327]
1.7880759637419873e-17,0.7053584329157496,-1.0313540167397978e-18,0.7053584329157496,-9.91928520793989e-19,0.00906103178304524,-1.0313540167397978e-18,0.00906103178304524,8.862241029325727e-18,0.7054166295050999,8.890517196171543e-18,-0.7054166295050999,0.0701386774412789,0.9950684056152002,0.07013867744127891,500.0,83.57142857142856,[1.60589502]
1.580574067488365e-17,0.7055798792314996,4.274402048627955e-19,0.7055798792314996,-9.094486875551016e-19,0.008328299682696957,4.274402048627955e-19,0.008328299682696957,7.112800355890377e-18,0.705629028988988,7.104126014905881e-18,-0.7056290289889882,0.0708720609316337,0.9949644727117677,0.0708720609316337,500.0,83.57142857142856,[1.60589502]
1.373289223427477e-17,0.7051091146075623,1.8894902093563974e-18,0.7051091146075623,-8.595266832263014e-19,0.00771813661798872,1.8894902093563974e-18,0.00771813661798872,5.339483941254296e-18,0.7051513547710975,5.2989768326033536e-18,-0.7051513547710976,0.07147522292431445,0.9948781759672081,0.07147522292431446,500.0,83.57142857142856,[1.60589502]
1.1627485964755798e-17,0.7038179838906016,3.3643429017807892e-18,0.7038179838906016,-8.313098981708925e-19,0.0072157318823669134,3.3643429017807892e-18,0.0072157318823669134,3.5205865661440926e-18,0.7038549717338293,3.452422271833552e-18,-0.7038549717338294,0.07196319191044098,0.9948078196416241,0.07196319191044098,500.0,83.57142857142856,[1.60797327]
9.537273348728201e-18,0.7013645529591903,4.834244091058438e-18,0.7013645529591903,-8.530151174442839e-19,0.006827606811491611,4.834244091058438e-18,0.006827606811491611,1.6430850989957327e-18,0.7013977846859919,1.5495908255631845e-18,-0.7013977846859919,0.0723271894190293,0.9947550227777127,0.07232718941902931,500.0,83.57142857142856,[1.60797327]
7.425355513427214e-18,0.6969334825498258,6.305637514161133e-18,0.6969334825498258,-9.398359945378496e-19,0.006593247150250321,6.305637514161133e-18,0.006593247150250321,-3.3426037681022827e-19,0.6969646691239182,-4.526671854276651e-19,-0.6969646691239182,0.07252016696472063,0.9947269227113631,0.07252016696472066,500.0,83.57142857142856,[1.60964652]
5.2765388053614606e-18,0.688300340581189,7.787849632495408e-18,0.688300340581189,-1.215492279309921e-18,0.006627066879306262,7.787849632495408e-18,0.006627066879306262,-2.5329990892047818e-18,0.6883322430771379,-2.6821486457850143e-18,-0.6883322430771379,0.07240215430549045,0.9947441158930511,0.07240215430549048,500.0,83.57142857142856,[1.61757867]
3.0409012202021416e-18,0.6669008880118106,9.285034960687813e-18,0.6669008880118106,-1.9881980854426565e-18,0.00724150671021128,9.285034960687813e-18,0.00724150671021128,-5.315608200053565e-18,0.6669402026046832,-5.5161437443425015e-18,-0.666940202604683,0.0715368210856879,0.9948693212969774,0.07153682108568793,500.0,83.57142857142856,[1.59922783]
3.4728350837426314e-20,0.5538635382374149,1.0797312199156247e-17,0.5538635382374149,-6.5701698740555915e-18,0.006450732519643124,1.0797312199156247e-17,0.006450732519643124,-1.0711525711418679e-17,0.5539011021282665,-1.096138146886949e-17,-0.5539011021282665,0.0709822849794231,0.9949487576946866,0.07098228497942312,500.0,83.57142857142856,[1.57381953]
