stress_11,stress_12,stress_13,stress_21,stress_22,stress_23,stress_31,stress_32,stress_33,e1,e2,e3,anev1,anev2,anev3,temp,miss,velo
1.8809743022321027e-17,0.5433031354264063,-8.462966737910669e-18,0.5433031354264063,-5.6954495373379155e-18,-0.04376985021324111,-8.462966737910669e-18,-0.04376985021324111,3.52709813192611e-18,0.5450633878292079,2.237342370539928e-18,-0.545063387829208,0.17919247621072174,0.9673572829823217,0.17919247621072176,700.0,109.28571428571416,[1.54801017]
1.969314544674806e-17,0.6599777718559163,-8.136150573023112e-18,0.6599777718559163,-1.4238623843344789e-18,-0.027505284047732528,-8.136150573023112e-18,-0.027505284047732528,7.465510169082988e-18,0.660550679353558,6.8098385477719106e-18,-0.660550679353558,0.20554842416502717,0.9568174803203318,0.20554842416502714,700.0,109.28571428571416,[1.59817166]
1.9682292837111363e-17,0.6835180054548956,-8.227609245016109e-18,0.6835180054548956,-9.333244287558322e-19,-0.01919310471406069,-8.227609245016109e-18,-0.01919310471406069,8.891543075344806e-18,0.6837874224125533,8.43762099565613e-18,-0.6837874224125533,0.21471667956707013,0.9527819766512086,0.21471667956707016,700.0,109.28571428571416,[1.60762836]
1.956291413110771e-17,0.6930793316964002,-8.437505498270827e-18,0.6930793316964002,-9.658822576659194e-19,-0.015608339216046326,-8.437505498270827e-18,-0.015608339216046326,9.761922368207803e-18,0.6932550614873376,9.387981108632984e-18,-0.6932550614873376,0.2184565489936041,0.9510801608716325,0.21845654899360412,700.0,109.28571428571416,[1.60303121]
1.9406636552339292e-17,0.6979501056632125,-8.70411511547856e-18,0.6979501056632125,-1.1633997530537815e-18,-0.01389183788850812,-8.70411511547856e-18,-0.01389183788850812,1.042718733893725e-17,0.6980883419419136,1.0083561216451849e-17,-0.6980883419419136,0.2202146494181936,0.9502689179191565,0.22021464941819363,700.0,109.28571428571416,[1.60303121]
1.923299479815216e-17,0.7005920273892542,-8.984493981162849e-18,0.7005920273892542,-1.4303739501164963e-18,-0.013118582995255564,-8.984493981162849e-18,-0.013118582995255564,1.1000205127754785e-17,0.7007148393327979,1.066685950549503e-17,-0.7007148393327979,0.2210062676295264,0.949901289259538,0.2210062676295264,700.0,109.28571428571416,[1.60303121]
1.905501200011035e-17,0.7019118622260916,-9.287230918418988e-18,0.7019118622260916,-1.7516111953626897e-18,-0.012927386055864546,-9.287230918418988e-18,-0.012927386055864546,1.1515704085497832e-17,0.7020308965023809,1.117554915040971e-17,-0.7020308965023809,0.2212127978499986,0.9498051358751178,0.22121279784999862,700.0,109.28571428571416,[1.60303121]
1.8837959807376436e-17,0.702287050389412,-9.593723876041577e-18,0.702287050389412,-2.1054062695189703e-18,-0.01316902865785928,-9.593723876041577e-18,-0.01316902865785928,1.1987792604694096e-17,0.7024105099302345,1.163118784973023e-17,-0.7024105099302345,0.2209883826838292,0.9499096111933867,0.22098838268382923,700.0,109.28571428571416,[1.60303121]
1.8620907614642522e-17,0.7018525220201579,-9.910458984008797e-18,0.7018525220201579,-2.4830770848759814e-18,-0.013798821094675024,-9.910458984008797e-18,-0.013798821094675024,1.2424067512089265e-17,0.7019881552630779,1.2036739661626694e-17,-0.701988155263078,0.22037799427525998,0.9501931799789066,0.22037799427526,700.0,109.28571428571416,[1.60303121]
1.8406025943835946e-17,0.7005845819452547,-1.0239475345928169e-17,0.7005845819452547,-2.880282597579045e-18,-0.014846385264374089,-1.0239475345928169e-17,-0.014846385264374089,1.2840807722138381e-17,0.7007418723144963,1.2409255150096119e-17,-0.7007418723144963,0.21934960343688692,0.9506689765339779,0.21934960343688692,700.0,109.28571428571416,[1.60303121]
1.816726853182864e-17,0.6982933539669522,-1.0573438971693644e-17,0.6982933539669522,-3.3143869830468742e-18,-0.016425125597422725,-1.0573438971693644e-17,-0.016425125597422725,1.3209796449786036e-17,0.6984865016199714,1.2714240089282253e-17,-0.6984865016199713,0.2177832490229295,0.9513889388100081,0.2177832490229295,700.0,109.28571428571416,[1.60303121]
1.7935022685603352e-17,0.6945179061399274,-1.0942169102002299e-17,0.6945179061399274,-3.798413372843503e-18,-0.018788756524096957,-1.0942169102002299e-17,-0.018788756524096957,1.3532118955995899e-17,0.6947720052799411,1.2944290097353341e-17,-0.694772005279941,0.21540790556414288,0.952469877970395,0.2154079055641429,700.0,109.28571428571416,[1.60303121]
1.7652854835049263e-17,0.6881916935201153,-1.1327313804386456e-17,0.6881916935201153,-4.356237508169663e-18,-0.022498587117879568,-1.1327313804386456e-17,-0.022498587117879568,1.3761109019330178e-17,0.6885593608777573,1.3028317368244375e-17,-0.6885593608777569,0.2116097933491611,0.9541711537860756,0.21160979334916108,700.0,109.28571428571416,[1.61746319]
1.7322935502093713e-17,0.6764675227704169,-1.1783472091605262e-17,0.6764675227704169,-5.070339222264242e-18,-0.028962680554361124,-1.1783472091605262e-17,-0.028962680554361124,1.380886050173164e-17,0.6770872515621885,1.2813043855463922e-17,-0.6770872515621886,0.2047793764451409,0.957147226901629,0.20477937644514096,700.0,109.28571428571416,[1.612352]
1.6806351283386997e-17,0.6487918039421298,-1.2424433151769408e-17,0.6487918039421298,-6.309707242774894e-18,-0.04262596403658597,-1.2424433151769408e-17,-0.04262596403658597,1.3347624592172071e-17,0.6501905702734633,1.1714116899173328e-17,-0.6501905702734629,0.1892842155295862,0.963505563815123,0.1892842155295862,700.0,109.28571428571416,[1.54801137]
1.5206676622938047e-17,0.520401743787372,-1.3773320324821781e-17,0.520401743787372,-1.1333380243601344e-17,-0.07374209502988241,-1.3773320324821781e-17,-0.07374209502988241,1.0600829093124382e-17,0.5256004866020708,6.962445839617993e-18,-0.5256004866020709,0.13759223155793981,0.9808856995745286,0.13759223155793981,700.0,109.28571428571416,[1.50376698]
1.7071154958522372e-17,0.5462862277096538,-7.206878915678483e-18,0.5462862277096538,-5.534830914714819e-18,-0.03743423857880637,-7.206878915678483e-18,-0.03743423857880637,1.9654076052055955e-18,0.5475673153167734,1.0551953240956597e-18,-0.5475673153167733,0.030948475378127286,0.9990417327336926,0.030948475378127307,700.0,96.42857142857144,[1.52760282]
1.4242964887199467e-17,0.6635368084446979,-4.922641987989836e-18,0.6635368084446979,-9.398359945378496e-19,-0.01974241455062089,-4.922641987989836e-18,-0.01974241455062089,3.0517538298388373e-18,0.6638304445363019,2.773591939833792e-18,-0.663830444536302,0.058238589883658244,0.9966024951286878,0.058238589883658265,700.0,96.42857142857144,[1.57799795]
1.0544395523013565e-17,0.6864445989504054,-3.0313882295674755e-18,0.6864445989504054,-1.3891340334970526e-19,-0.012505284834248906,-3.0313882295674755e-18,-0.012505284834248906,1.6159535749039934e-18,0.6865584968354619,1.5082716127187057e-18,-0.6865584968354619,0.06635912957077594,0.9955867274352435,0.06635912957077597,700.0,96.42857142857144,[1.59181493]
6.743811628242723e-18,0.6958818248072123,-1.228074523607465e-18,0.6958818248072123,1.606186226230967e-19,-0.008938284176975387,-1.228074523607465e-18,-0.008938284176975387,-3.972055127030635e-19,0.6959392265284693,-4.275071009698174e-19,-0.6959392265284694,0.07013969964960712,0.9950682615108,0.07013969964960713,700.0,96.42857142857144,[1.58507713]
2.9063288607071146e-18,0.7008641278844407,5.350845266967712e-19,0.7008641278844407,2.8433837248142795e-19,-0.006750002394049318,5.350845266967712e-19,-0.006750002394049318,-2.611137878588991e-18,0.7008966316708463,-2.6000475600240622e-18,-0.7008966316708463,0.07240017804939239,0.994744403571507,0.07240017804939239,700.0,96.42857142857144,[1.58507713]
-9.59370691883902e-19,0.7037534668093203,2.2866278932492315e-18,0.7037534668093203,3.2340776717353255e-19,-0.005223105693549785,2.2866278932492315e-18,-0.005223105693549785,-4.9292552969871974e-18,0.7037728489215986,-4.895058815570164e-18,-0.7037728489215985,0.0739538085529135,0.9945157959535071,0.07395380855291349,700.0,96.42857142857144,[1.58005632]
-4.818558678692901e-18,0.705422178597367,4.025182042642772e-18,0.705422178597367,3.255782891008717e-19,-0.004068232139626947,4.025182042642772e-18,-0.004068232139626947,-7.303806285496222e-18,0.7054339094272386,-7.25731424439449e-18,-0.7054339094272387,0.07511728502591201,0.9943413835201028,0.07511728502591201,700.0,96.42857142857144,[1.58005632]
-8.697281362847952e-18,0.7062419792555672,5.7640244644797866e-18,0.7062419792555672,3.0387306982748025e-19,-0.0031482990660996082,5.7640244644797866e-18,-0.0031482990660996082,-9.71742666869735e-18,0.7062489964947427,-9.666025995016284e-18,-0.7062489964947427,0.07603775067873406,0.9942014488741392,0.07603775067873404,700.0,96.42857142857144,[1.58005632]
-1.2569492481220988e-17,0.7063606241784708,7.498576714069795e-18,0.7063606241784708,2.344163681526276e-19,-0.0023921916765542034,7.498576714069795e-18,-0.0023921916765542034,-1.2174457490445262e-17,0.7063646749171537,-1.2123664099666507e-17,-0.7063646749171538,0.07679073877959962,0.9940856929235862,0.07679073877959962,700.0,96.42857142857144,[1.58005632]
-1.6459067775012734e-17,0.7057865994917012,9.229160978261387e-18,0.7057865994917012,1.606186226230967e-19,-0.001762883688673665,9.229160978261387e-18,-0.001762883688673665,-1.46662166630306e-17,0.7057888011161407,-1.4620121901874704e-17,-0.7057888011161406,0.07741552300967215,0.9939887693501763,0.07741552300967212,700.0,96.42857142857144,[1.58005632]
-2.0361666200368516e-17,0.7043918177434626,1.0955098968952268e-17,0.7043918177434626,4.341043854678289e-20,-0.0012456188210382656,1.0955098968952268e-17,-0.0012456188210382656,-1.7194874708380704e-17,0.7043929190942981,-1.71561401165928e-17,-0.7043929190942982,0.07792816098203648,0.9939086494501976,0.07792816098203646,700.0,96.42857142857144,[1.58005632]
-2.4244729928378245e-17,0.7018344152882592,1.2678018577587945e-17,0.7018344152882592,-1.1503766214897466e-19,-0.0008469580671329515,1.2678018577587945e-17,-0.0008469580671329515,-1.979298945540566e-17,0.7018349263330946,-1.9762397036462734e-17,-0.7018349263330944,0.07832282813418583,0.9938466024423115,0.07832282813418578,700.0,96.42857142857144,[1.57984097]
-2.8158180963370723e-17,0.697299125349359,1.439641061314081e-17,0.697299125349359,-3.5813611801095886e-19,-0.0006064138564981514,1.439641061314081e-17,-0.0006064138564981514,-2.2477925079524182e-17,0.6972993890365503,-2.2452889450015724e-17,-0.6972993890365504,0.07855973403830119,0.993809205217814,0.07855973403830116,700.0,96.42857142857144,[1.5797431]
-3.2110701393055305e-17,0.6885615898586825,1.6114192189401612e-17,0.6885615898586825,-7.4665954300466575e-19,-0.0006384148862481809,1.6114192189401612e-17,-0.0006384148862481809,-2.5388594984085978e-17,0.6885618858187575,-2.535871957470774e-17,-0.6885618858187577,0.07851931942528367,0.9938155930322187,0.07851931942528366,700.0,96.42857142857144,[1.59430917]
-3.613919009019676e-17,0.667057644976872,1.7804706583950217e-17,0.667057644976872,-1.6647903182691241e-18,-0.0012554052197337252,1.7804706583950217e-17,-0.0012554052197337252,-2.8885305809029337e-17,0.6670588263147085,-2.881831508221633e-17,-0.6670588263147085,0.07784829223155482,0.9939211672930911,0.07784829223155477,700.0,96.42857142857144,[1.56744652]
-4.095557824696232e-17,0.553915780229935,1.9494237460750495e-17,0.553915780229935,-6.379163944449747e-18,-0.00047154311094657527,1.9494237460750495e-17,-0.00047154311094657527,-3.499749555641637e-17,0.5539159809399286,-3.496430938101283e-17,-0.5539159809399284,0.07857264367027426,0.993807164058163,0.07857264367027422,700.0,96.42857142857144,[1.51434665]
1.4271181672254876e-17,0.514988545160434,-1.3925085168059626e-17,0.514988545160434,-1.1425627425513257e-17,-0.07812051045406793,-1.3925085168059626e-17,-0.07812051045406793,1.0511837694103477e-17,0.5208800397404997,6.355534185126609e-18,-0.5208800397404998,0.2821529311512948,0.9169402635316357,0.2821529311512949,700.0,122.14285714285735,[1.4910911]
1.448606334306145e-17,0.6422345237980779,-1.2485774772195415e-17,0.6422345237980779,-6.587534049474305e-18,-0.04805186029045721,-1.2485774772195415e-17,-0.04805186029045721,1.2596624005312727e-17,0.6440296304018297,1.0824077818796472e-17,-0.6440296304018299,0.3304833136619959,0.8840597031773214,0.330483313661996,700.0,122.14285714285735,[1.54262411]
1.357878517743369e-17,0.6709479303981697,-1.1772096988164768e-17,0.6709479303981697,-5.5228930441144535e-18,-0.03369450567567287,-1.1772096988164768e-17,-0.03369450567567287,1.2421896990161926e-17,0.6717934541347624,1.1264087808873858e-17,-0.6717934541347625,0.3457003451404908,0.8723431336002427,0.3457003451404908,700.0,122.14285714285735,[1.57877376]
1.2445772731362657e-17,0.6827952053787298,-1.1266246678676846e-17,0.6827952053787298,-4.983518345170676e-18,-0.027265076944700827,-1.1266246678676846e-17,-0.027265076944700827,1.1760973063287155e-17,0.683339357061323,1.085407761576419e-17,-0.6833393570613228,0.35201495225410107,0.8672778947829155,0.35201495225410095,700.0,122.14285714285735,[1.59699865]
1.1280202456381535e-17,0.6888207060768697,-1.0834461190658733e-17,0.6888207060768697,-4.610188573668343e-18,-0.023927416079913767,-1.0834461190658733e-17,-0.023927416079913767,1.093508946993461e-17,0.6892361615299203,1.0178925721921377e-17,-0.6892361615299204,0.3551914978863504,0.8646837570224742,0.3551914978863506,700.0,122.14285714285735,[1.58204712]
1.0060369133216935e-17,0.6920512300946458,-1.0441346603072627e-17,0.6920512300946458,-4.297633416131506e-18,-0.022130169714048943,-1.0441346603072627e-17,-0.022130169714048943,1.00223849994885e-17,0.6924049750594553,9.356121272084546e-18,-0.6924049750594553,0.35687527272706016,0.863296055494274,0.3568752727270602,700.0,122.14285714285735,[1.58097017]
8.807977981142249e-18,0.6936153722033567,-1.0066872220397674e-17,0.6936153722033567,-4.052364438342183e-18,-0.021262431901345396,-1.0066872220397674e-17,-0.021262431901345396,9.05975852471359e-18,0.6939411902799547,8.441577576429412e-18,-0.6939411902799546,0.35768187467274143,0.8626281661649975,0.3576818746727414,700.0,122.14285714285735,[1.58097017]
7.579462570268293e-18,0.6939844373835732,-9.71201732108156e-18,0.6939844373835732,-3.822289114044234e-18,-0.021062083456936553,-9.71201732108156e-18,-0.021062083456936553,8.061318438137583e-18,0.6943039757124699,7.475070309344994e-18,-0.6943039757124698,0.35786772315727683,0.8624739911698516,0.3578677231572769,700.0,122.14285714285735,[1.58097017]
6.2988546331381985e-18,0.6933252683658406,-9.370982541849676e-18,0.6933252683658406,-3.62802740154738e-18,-0.02143394714804204,-9.370982541849676e-18,-0.02143394714804204,7.046599437106533e-18,0.6936565013354306,6.46574165786959e-18,-0.6936565013354306,0.35752329421192736,0.8627596352355058,0.35752329421192736,700.0,122.14285714285735,[1.58097017]
5.026928783717459e-18,0.6916036565646553,-9.043666139486677e-18,0.6916036565646553,-3.4576414302512578e-18,-0.022394429602880822,-9.043666139486677e-18,-0.022394429602880822,5.990640519456039e-18,0.6919661323004475,5.4034385961168154e-18,-0.6919661323004473,0.3566296169993331,0.863499063437719,0.3566296169993331,700.0,122.14285714285735,[1.58097017]
3.7137630176772764e-18,0.6885734214155448,-8.733154324857999e-18,0.6885734214155448,-3.3078754172648568e-18,-0.024076782021601083,-8.733154324857999e-18,-0.024076782021601083,4.911891121568484e-18,0.6889942293752722,4.297676690657199e-18,-0.6889942293752722,0.3550514007111557,0.8647988238348225,0.3550514007111558,700.0,122.14285714285735,[1.59090409]
2.4114498612737897e-18,0.6836426616803675,-8.446060406961004e-18,0.6836426616803675,-3.2102019305345953e-18,-0.026801072414916575,-8.446060406961004e-18,-0.026801072414916575,3.791901807061486e-18,0.6841678056968238,3.1274038858370235e-18,-0.6841678056968238,0.35246075013078093,0.8669157048032377,0.3524607501307809,700.0,122.14285714285735,[1.59462005]
1.035338959340772e-18,0.6754519244102527,-8.204131998075476e-18,0.6754519244102527,-3.1971787989705604e-18,-0.03128926984189879,-8.204131998075476e-18,-0.03128926984189879,2.5948589641339474e-18,0.6761762496544467,1.8404377856395716e-18,-0.6761762496544469,0.34809522040593,0.8704363475068663,0.34809522040592994,700.0,122.14285714285735,[1.58001327]
-4.362749073951681e-19,0.6604173224373772,-8.049838412006266e-18,0.6604173224373772,-3.345859550993292e-18,-0.039360937836655646,-8.049838412006266e-18,-0.039360937836655646,1.2491353691836777e-18,0.6615892405433569,2.720347684226058e-19,-0.661589240543357,0.3399162688755955,0.8768773348122231,0.3399162688755955,700.0,122.14285714285735,[1.58277554]
-2.164010361557127e-18,0.6256658970342176,-8.132114758814465e-18,0.6256658970342176,-4.014380304613748e-18,-0.056732930657464015,-8.132114758814465e-18,-0.056732930657464015,-5.089873919610294e-19,0.6282327913541416,-1.9511660081461125e-18,-0.6282327913541413,0.3205982003455955,0.8913100402611489,0.32059820034559544,700.0,122.14285714285735,[1.53076267]
-5.3655302043823655e-18,0.4814270693163012,-9.10656040377184e-18,0.4814270693163012,-8.463950255658994e-18,-0.09509213500567601,-9.10656040377184e-18,-0.09509213500567601,-4.176084188200514e-18,0.4907285779434698,-7.857142385078094e-18,-0.49072857794346997,0.25305344979266164,0.933770797945655,0.2530534497926617,700.0,122.14285714285735,[1.48387281]
-6.266296804228111e-18,0.47465923767157053,-8.630605642392503e-18,0.47465923767157053,-8.243642280034071e-18,-0.09667701824104745,-8.630605642392503e-18,-0.09667701824104745,-4.695924189798239e-18,0.4844046219462984,-8.26925930926737e-18,-0.4844046219462986,0.3901513345514986,0.834004719588186,0.39015133455149886,700.0,135.00000000000023,[1.48343237]
-4.234688280238671e-18,0.6174314156301846,-6.553348329118713e-18,0.6174314156301846,-3.35020059484797e-18,-0.058740280196464885,-6.553348329118713e-18,-0.058740280196464885,-2.6762535364091653e-18,0.6202192947052301,-4.130646337898704e-18,-0.6202192947052301,0.4503980609787782,0.770897641281327,0.4503980609787782,700.0,135.00000000000023,[1.53533034]
-3.726786149241311e-18,0.6534374480699016,-5.385946676261399e-18,0.6534374480699016,-2.2475754557596843e-18,-0.04116876164897449,-5.385946676261399e-18,-0.04116876164897449,-2.535169611132121e-18,0.6547330490175487,-3.2592513739284597e-18,-0.6547330490175485,0.4675712394079251,0.7501694956188727,0.46757123940792494,700.0,135.00000000000023,[1.56705533]
-3.514075000362075e-18,0.6685864046007798,-4.456607190106541e-18,0.6685864046007798,-1.6506819257414197e-18,-0.03315753145996371,-4.456607190106541e-18,-0.03315753145996371,-2.7695859792847485e-18,0.6694080984791833,-3.219193135307963e-18,-0.6694080984791834,0.47461994752112957,0.7412636581069383,0.47461994752112957,700.0,135.00000000000023,[1.57807433]
-3.4077194259224574e-18,0.6763631414423117,-3.624551175023126e-18,0.6763631414423117,-1.230685932801295e-18,-0.028850130442675623,-3.624551175023126e-18,-0.028850130442675623,-3.1461715336780905e-18,0.6769781600083359,-3.4555108990833735e-18,-0.6769781600083359,0.4782377403369005,0.7365984845456242,0.4782377403369005,700.0,135.00000000000023,[1.57620571]
-3.338262724247605e-18,0.6805755063707566,-2.829919705983754e-18,0.6805755063707566,-8.768908586450144e-19,-0.026375812073461603,-2.829919705983754e-18,-0.026375812073461603,-3.587872745891606e-18,0.6810864139992414,-3.8141593185503e-18,-0.6810864139992412,0.48026188810310483,0.7339598338269483,0.48026188810310483,700.0,135.00000000000023,[1.58690759]
-3.32523959268357e-18,0.6826603434619056,-2.063386321581889e-18,0.6826603434619056,-5.773588326722125e-19,-0.024994847297676818,-2.063386321581889e-18,-0.024994847297676818,-4.0686433527972266e-18,0.6831177694416689,-4.218647302234751e-18,-0.6831177694416689,0.4813705085594243,0.7325058818729597,0.4813705085594243,700.0,135.00000000000023,[1.58690759]
-3.3339216803929265e-18,0.6832225096470278,-1.3148784434984735e-18,0.6832225096470278,-3.0821411368215854e-19,-0.024384106299006694,-1.3148784434984735e-18,-0.024384106299006694,-4.570033918012569e-18,0.6836575036729902,-4.666548954200544e-18,-0.6836575036729902,0.48184829377895777,0.7318773418849733,0.48184829377895777,700.0,135.00000000000023,[1.58690759]
-3.3491153338843005e-18,0.6824794834739577,-5.897036761339539e-19,0.6824794834739577,-6.185987492916562e-20,-0.024416782736823767,-5.897036761339539e-19,-0.024416782736823767,-5.097470746355981e-18,0.6829161183059728,-5.142465595383382e-18,-0.682916118305973,0.4818034624585467,0.7319363682219318,0.48180346245854677,700.0,135.00000000000023,[1.58690759]
-3.3816731627943877e-18,0.6803932858033009,1.3206269351654108e-19,0.6803932858033009,1.5085127395007055e-19,-0.025092842230861157,1.3206269351654108e-19,-0.025092842230861157,-5.637930706263428e-18,0.680855839438449,-5.627089070829645e-18,-0.6808558394384489,0.4812328877967146,0.7326867102695869,0.4812328877967146,700.0,135.00000000000023,[1.58690759]
-3.444618298687223e-18,0.6766583581634753,8.250696476297924e-19,0.6766583581634753,3.559655960836197e-19,-0.026539023512457405,8.250696476297924e-19,-0.026539023512457405,-6.205522190262615e-18,0.6771785978908994,-6.130412181058534e-18,-0.6771785978908996,0.4800205859103074,0.734275475693319,0.4800205859103075,700.0,135.00000000000023,[1.58690759]
-3.560741221799867e-18,0.6705359680745666,1.4974905578384364e-18,0.6705359680745666,4.94878999433325e-19,-0.02907839290865613,1.4974905578384364e-18,-0.02907839290865613,-6.799159937389871e-18,0.6711661771989459,-6.659912341322922e-18,-0.6711661771989459,0.4778679237405713,0.737078350597649,0.47786792374057147,700.0,135.00000000000023,[1.57620571]
-3.7311271930959896e-18,0.6603330087563053,2.126874087956559e-18,0.6603330087563053,5.534830914714819e-19,-0.033450626109852756,2.126874087956559e-18,-0.033450626109852756,-7.451401776555283e-18,0.6611797235550223,-7.217555531093987e-18,-0.6611797235550223,0.4740635263857169,0.7419754348369473,0.4740635263857169,700.0,135.00000000000023,[1.57807433]
-4.0284886971414524e-18,0.6416232643760287,2.6641800081883413e-18,0.6416232643760287,4.492980389592029e-19,-0.04152644386131523,2.6641800081883413e-18,-0.04152644386131523,-8.206743407269306e-18,0.6429656747667932,-7.788406314238273e-18,-0.6429656747667932,0.4666631859720766,0.751299502007543,0.4666631859720766,700.0,135.00000000000023,[1.53384847]
-4.7187146700353004e-18,0.5988921800631504,2.9527915957142182e-18,0.5988921800631504,-1.530217958774097e-19,-0.059162380277518946,2.9527915957142182e-18,-0.059162380277518946,-9.268128629738148e-18,0.6018073035290402,-8.793298642802877e-18,-0.6018073035290403,0.44842410238345387,0.7731957377037117,0.44842410238345404,700.0,135.00000000000023,[1.53379176]
-7.276674761404482e-18,0.4372354135398597,2.3426714477012305e-18,0.4372354135398597,-4.572204439939908e-18,-0.09716387109856091,2.3426714477012305e-18,-0.09716387109856091,-1.1832600286889347e-17,0.44790135599284575,-1.1323766836777985e-17,-0.4479013559928459,0.37962772147393625,0.8436620094427715,0.3796277214739362,700.0,135.00000000000023,[1.36304522]
-7.502409041847753e-18,0.430462030545704,2.4428885148150926e-18,0.430462030545704,-4.4647636045366205e-18,-0.09563808362856788,2.4428885148150926e-18,-0.09563808362856788,-1.1612834941746258e-17,0.4409582778241901,-9.474147538695094e-18,-0.4409582778241901,0.5028792094178635,0.7030113807546289,0.5028792094178632,700.0,147.8571428571427,[1.34302132]
-4.731737801599335e-18,0.5906383854814876,3.120498329006282e-18,0.5906383854814876,1.4325444720438354e-19,-0.0573438817458482,3.120498329006282e-18,-0.0573438817458482,-9.206811385290817e-18,0.593415556905833,-8.683468389443287e-18,-0.593415556905833,0.5595685086673325,0.6113641862389668,0.5595685086673328,700.0,147.8571428571427,[1.40888156]
-3.862443769700008e-18,0.634610477894905,2.9017843304217483e-18,0.634610477894905,9.76734867302615e-19,-0.04003602756571708,2.9017843304217483e-18,-0.04003602756571708,-8.272401695571315e-18,0.6358721114793784,-7.903600786485308e-18,-0.6358721114793783,0.5738498235782573,0.5842882507447894,0.5738498235782574,700.0,147.8571428571427,[1.33849265]
-3.4229130794138314e-18,0.6534208189290581,2.4492305085715367e-18,0.6534208189290581,1.2979721125488085e-18,-0.03202809947871626,2.4492305085715367e-18,-0.03202809947871626,-7.61310566014205e-18,0.6542052932880773,-7.358904917973255e-18,-0.6542052932880773,0.5795885847320836,0.5728474010559187,0.5795885847320836,700.0,147.8571428571427,[1.35943659]
-3.1255515753683686e-18,0.6631957303130767,1.8977822814069352e-18,0.6631957303130767,1.4374281463803485e-18,-0.027603305193273687,1.8977822814069352e-18,-0.027603305193273687,-7.044428915179194e-18,0.6637699293905142,-6.8694935307895974e-18,-0.6637699293905142,0.5825618247634015,0.5667834160035666,0.5825618247634015,700.0,147.8571428571427,[1.35943659]
-2.9139256874528017e-18,0.6685853031505407,1.3131996804452972e-18,0.6685853031505407,1.5155669357645577e-18,-0.024942052411585716,1.3131996804452972e-18,-0.024942052411585716,-6.526759435508809e-18,0.6690503819350249,-6.4287465938358736e-18,-0.6690503819350248,0.584283446080384,0.563227937226894,0.584283446080384,700.0,147.8571428571427,[1.35943659]
-2.7543923257933745e-18,0.6713599632375534,7.017907850379519e-19,0.6713599632375534,1.5204506101010708e-18,-0.02332232188940276,7.017907850379519e-19,-0.02332232188940276,-6.0275393922208046e-18,0.6717649372635057,-5.96648032000094e-18,-0.6717649372635057,0.5853024562337941,0.5611078946632059,0.5853024562337941,700.0,147.8571428571427,[1.35943659]
-2.580750571606243e-18,0.6722713325785306,7.111850752547166e-20,0.6722713325785306,1.5204506101010708e-18,-0.02242399038124608,7.111850752547166e-20,-0.02242399038124608,-5.552195090133532e-18,0.672645211052254,-5.541341306175911e-18,-0.6726452110522543,0.5858501270026663,0.559963621480824,0.5858501270026663,700.0,147.8571428571427,[1.35943659]
-2.4657129094572683e-18,0.671596205243631,-5.697620059265255e-19,0.671596205243631,1.492233825045662e-18,-0.022113751821175403,-5.697620059265255e-19,-0.022113751821175403,-5.085532875755616e-18,0.671960178074009,-5.122340882665369e-18,-0.671960178074009,0.5860195183828256,0.5596090136414196,0.5860195183828255,700.0,147.8571428571427,[1.35995135]
-2.3636983788723285e-18,0.6693003132554037,-1.2260735737056993e-18,0.6693003132554037,1.4423118207168616e-18,-0.022375147544149477,-1.2260735737056993e-18,-0.022375147544149477,-4.6373200977600825e-18,0.6696742167288539,-4.717700764883361e-18,-0.6696742167288539,0.5858204266166469,0.560025763262173,0.5858204266166469,700.0,147.8571428571427,[1.35943659]
-2.30943533068885e-18,0.665027405427799,-1.8978501102171646e-18,0.665027405427799,1.3343283548317392e-18,-0.023303307305903073,-1.8978501102171646e-18,-0.023303307305903073,-4.202130451328584e-18,0.6654355672049878,-4.340582962551724e-18,-0.6654355672049875,0.5851826732964144,0.5613577092615045,0.5851826732964144,700.0,147.8571428571427,[1.35943659]
-2.3029237649068324e-18,0.6579051422058377,-2.5964868555794518e-18,0.6579051422058377,1.197585473409373e-18,-0.0251603095811814,-2.5964868555794518e-18,-0.0251603095811814,-3.785390241279468e-18,0.6583860701132008,-3.983016709732316e-18,-0.6583860701132007,0.5839104104733968,0.5640011215251072,0.5839104104733968,700.0,147.8571428571427,[1.35943659]
-2.379977293327372e-18,0.645932112133331,-3.3212037784749237e-18,0.645932112133331,9.854169550119717e-19,-0.028557031099501976,-3.3212037784749237e-18,-0.028557031099501976,-3.4028357515859444e-18,0.6465630653774184,-3.6833522522291736e-18,-0.6465630653774183,0.581524210977008,0.5689105238041718,0.5815242109770079,700.0,147.8571428571427,[1.33064639]
-2.6219904882256867e-18,0.6239009867425601,-4.132843321679305e-18,0.6239009867425601,6.012345738729431e-19,-0.03504482195098053,-4.132843321679305e-18,-0.03504482195098053,-3.090280594049107e-18,0.6248844539624236,-3.556936598253736e-18,-0.6248844539624236,0.576683852128664,0.5786808009499628,0.5766838521286641,700.0,147.8571428571427,[1.33064639]
-3.340433246174944e-18,0.5738566123565261,-5.139321122267489e-18,0.5738566123565261,-2.821678505540888e-19,-0.04945992463790848,-5.139321122267489e-18,-0.04945992463790848,-2.979041345272976e-18,0.5759841106232841,-3.840508136573814e-18,-0.5759841106232845,0.5642082254419022,0.6027753783022323,0.5642082254419022,700.0,147.8571428571427,[1.36551195]
-6.328156679157277e-18,0.3966517415943075,-6.883471148504951e-18,0.3966517415943075,-4.968324691679302e-18,-0.0795861608696784,-6.883471148504951e-18,-0.0795861608696784,-3.9975587596768696e-18,0.40455724083468286,-5.99536108827475e-18,-0.40455724083468286,0.5130163862916519,0.6882066366960647,0.5130163862916519,700.0,147.8571428571427,[1.31093127]
-6.128468661842075e-18,0.3912115137569776,-6.558367661075685e-18,0.3912115137569776,-5.03723876287232e-18,-0.07526009020991187,-6.558367661075685e-18,-0.07526009020991187,-3.511904478434736e-18,0.398384901413733,-6.156954361735419e-18,-0.39838490141373334,0.6112892812682875,0.502643839326616,0.6112892812682874,700.0,160.7142857142859,[1.2297471]
-2.253001760578032e-18,0.5672109655338692,-4.553144544265461e-18,0.5672109655338692,-4.661195838960813e-19,-0.044200109243671105,-4.553144544265461e-18,-0.044200109243671105,-2.0061048913432044e-18,0.5689305134012559,-2.780004193237849e-18,-0.5689305134012557,0.6472651800232956,0.4026109455278406,0.6472651800232957,700.0,160.7142857142859,[0.86765596]
-6.7611758036614355e-19,0.6182324507123464,-3.26276925846234e-18,0.6182324507123464,2.8108258959041923e-19,-0.030591565727082812,-3.26276925846234e-18,-0.030591565727082812,-1.5920778337032628e-18,0.6189888585487048,-1.9089257455903358e-18,-0.6189888585487048,0.6550686025769167,0.3765239060615565,0.6550686025769166,700.0,160.7142857142859,[0.8733114]
4.1999599294012453e-19,0.6403260503156567,-2.15488738658128e-18,0.6403260503156567,5.3503365508909915e-19,-0.024181146938142044,-2.15488738658128e-18,-0.024181146938142044,-1.3679714447054959e-18,0.640782473683615,-1.5221279789974997e-18,-0.6407824736836149,0.6581377285697599,0.3656630422480162,0.6581377285697599,700.0,160.7142857142859,[0.8733114]
1.3185920708585304e-18,0.6519374055190159,-1.1130368614584904e-18,0.6519374055190159,6.164282273643171e-19,-0.02052396954220822,-1.1130368614584904e-18,-0.02052396954220822,-1.197585473409373e-18,0.6522603882197929,-1.2701467932977958e-18,-0.6522603882197932,0.6597471806950238,0.3598156682663155,0.6597471806950237,700.0,160.7142857142859,[0.86620503]
2.123855705901353e-18,0.6584532938661096,-1.0364242203044417e-19,0.6584532938661096,6.305366198920215e-19,-0.01821194670401142,-1.0364242203044417e-19,-0.01821194670401142,-1.0559589176504939e-18,0.6587051048882796,-1.0592014256735819e-18,-0.6587051048882795,0.6607141496148214,0.35624938596091216,0.6607141496148214,700.0,160.7142857142859,[0.86620503]
2.8857089023973928e-18,0.6619370562533283,8.894731029425585e-19,0.6619370562533283,5.936377471272561e-19,-0.016683729168798372,8.894731029425585e-19,-0.016683729168798372,-9.230144496009712e-19,0.6621472746000694,-8.760244279259926e-19,-0.6621472746000694,0.6613299767521037,0.35395666923809144,0.6613299767521037,700.0,160.7142857142859,[0.86620503]
3.605236921310319e-18,0.663271299148187,1.869701153971985e-18,0.663271299148187,5.184834253931382e-19,-0.01568555673766066,1.869701153971985e-18,-0.01568555673766066,-8.101473093793358e-19,0.6634567453601585,-7.198614671370803e-19,-0.6634567453601585,0.6617182948859508,0.35250219350588385,0.6617182948859508,700.0,160.7142857142859,[0.86620503]
4.306315503840863e-18,0.6627891420741335,2.8373469607038675e-18,0.6627891420741335,4.208099386628767e-19,-0.015103975544353436,2.8373469607038675e-18,-0.015103975544353436,-7.051483111443046e-19,0.6629612182689197,-5.736276855036898e-19,-0.6629612182689197,0.6619323632018855,0.3516974453872732,0.6619323632018855,700.0,160.7142857142859,[0.86679924]
4.9542162991515976e-18,0.660466856269848,3.798006399982127e-18,0.660466856269848,3.065862222366542e-19,-0.01490930862104394,3.798006399982127e-18,-0.01490930862104394,-6.069321939322083e-19,0.6606351154113242,-4.3335170665031447e-19,-0.6606351154113242,0.6619856924046197,0.3514966373994955,0.6619856924046198,700.0,160.7142857142859,[0.86679924]
5.563047699770228e-18,0.6559163071446434,4.748016716054379e-18,0.6559163071446434,1.5356442635924448e-19,-0.015146178683074454,4.748016716054379e-18,-0.015146178683074454,-5.157702729839642e-19,0.6560911588392012,-2.924788600706042e-19,-0.6560911588392011,0.6618569889698923,0.3519810396930718,0.6618569889698923,700.0,160.7142857142859,[0.86679924]
6.118701313169049e-18,0.6481713203096526,5.68510564377794e-18,0.6481713203096526,-4.395306902861768e-20,-0.015963709810223815,5.68510564377794e-18,-0.015963709810223815,-4.40344636008929e-19,0.648367874360585,-1.567674098482902e-19,-0.6483678743605849,0.6614738323550049,0.35341864441362725,0.6614738323550048,700.0,160.7142857142859,[0.86620503]
6.597301398147331e-18,0.6350086788891512,6.597776199818936e-18,0.6350086788891512,-3.1879540807793687e-19,-0.017722927652685832,6.597776199818936e-18,-0.017722927652685832,-3.849963268617808e-19,0.6352559519037404,-1.3589446348640543e-20,-0.6352559519037402,0.6606509329310342,0.3564837859352217,0.660650932931034,700.0,160.7142857142859,[0.86620503]
6.863190334246376e-18,0.6106559535961181,7.460473879923459e-18,0.6106559535961181,-7.626671422187919e-19,-0.021348486038947553,7.460473879923459e-18,-0.021348486038947553,-3.714305648159111e-19,0.6110290103739261,1.5695228392290274e-19,-0.6110290103739261,0.6588591684103969,0.36305535721583826,0.658859168410397,700.0,160.7142857142859,[0.86947169]
6.551720437673209e-18,0.5554018660670692,8.201741032514891e-18,0.5554018660670692,-1.719867312175355e-18,-0.029698397082213356,8.201741032514891e-18,-0.029698397082213356,-4.764295630509422e-19,0.5561953142737143,4.2048067973421625e-19,-0.5561953142737142,0.6540040257148938,0.3802071391983921,0.6540040257148938,700.0,160.7142857142859,[0.87802267]
3.7414371722508505e-18,0.36758756630478867,8.535153549197253e-18,0.36758756630478867,-6.451876429015608e-18,-0.04599312967888483,8.535153549197253e-18,-0.04599312967888483,-1.4615752028219965e-18,0.370453758085319,7.635616597555354e-19,-0.3704537580853191,0.6332673161635688,0.44491011739224573,0.6332673161635685,700.0,160.7142857142859,[1.17117327]
3.0560948736935156e-18,0.36454646443394634,9.298498979518338e-18,0.36454646443394634,-6.489860562744043e-18,-0.03973127211033283,9.298498979518338e-18,-0.03973127211033283,-1.6756429279058198e-18,0.3667051931931094,3.4474577292469e-19,-0.36670519319310946,0.6899463091731123,0.21897073073084738,0.6899463091731121,700.0,173.57142857142813,[0.47601292]
4.787628741228318e-18,0.5516472866329527,9.938192488791322e-18,0.5516472866329527,-1.8351762895652468e-18,-0.0220619688693918,9.938192488791322e-18,-0.0220619688693918,-1.4070408393976005e-18,0.5520882713116563,-6.034984479593682e-19,-0.5520882713116564,0.6989356450957905,0.15158472228117967,0.6989356450957906,700.0,173.57142857142813,[0.34843947]
3.986163519558339e-18,0.6073993761851972,1.0187683810017422e-17,0.6073993761851972,-9.547583327883062e-19,-0.014852449582728576,1.0187683810017422e-17,-0.014852449582728576,-1.9868415092380695e-18,0.6075809390104122,-1.485884481410563e-18,-0.6075809390104121,0.7005153181716034,0.13622253122693803,0.7005153181716033,700.0,173.57142857142813,[0.3411854]
2.610595248107156e-18,0.6317427479649849,1.0348370261450748e-17,0.6317427479649849,-5.940447199886321e-19,-0.011313265784058195,1.0348370261450748e-17,-0.011313265784058195,-2.6852069393594393e-18,0.631844038975641,-2.312995947336598e-18,-0.6318440389756409,0.7011304323241393,0.12973909872482886,0.7011304323241393,700.0,173.57142857142813,[0.33988849]
1.0261142411495806e-18,0.6446608881399466,1.0472496984170455e-17,0.6446608881399466,-3.803839677661851e-19,-0.009151774075191497,1.0472496984170455e-17,-0.009151774075191497,-3.415044937427227e-18,0.6447258453529748,-3.1171465686133845e-18,-0.6447258453529748,0.7014660312657687,0.12605877185068434,0.7014660312657687,700.0,173.57142857142813,[0.33988849]
-6.685207536204565e-19,0.6520258298060294,1.0580548278865807e-17,0.6520258298060294,-2.6548196323766913e-19,-0.007650252182139869,1.0580548278865807e-17,-0.007650252182139869,-4.163332371877397e-18,0.6520707086602587,-3.914335761747795e-18,-0.6520707086602585,0.7016834298919636,0.12361524351834446,0.7016834298919636,700.0,173.57142857142813,[0.33988849]
-2.3919151639277374e-18,0.65609517665375,1.068229149420983e-17,0.65609517665375,-1.9073461436492733e-19,-0.00651917556482369,1.068229149420983e-17,-0.00651917556482369,-4.916774795904997e-18,0.6561275641812041,-4.704161412173623e-18,-0.6561275641812041,0.7018393292391595,0.12183231043632334,0.7018393292391596,700.0,173.57142857142813,[0.33988849]
-4.188564689282714e-18,0.6578408191502915,1.0777472272164163e-17,0.6578408191502915,-1.4963035536594228e-19,-0.005621382491422568,1.0777472272164163e-17,-0.005621382491422568,-5.680798514328376e-18,0.6578648366354911,-5.496514644498642e-18,-0.6578648366354912,0.7019584831614564,0.12045154974235463,0.7019584831614565,700.0,173.57142857142813,[0.35109104]
-5.9895552584923696e-18,0.6576380725382839,1.0867955905010113e-17,0.6576380725382839,-1.2683987512888126e-19,-0.004885720018051958,1.0867955905010113e-17,-0.004885720018051958,-6.4507911680519386e-18,0.6576562207658072,-6.289352803746001e-18,-0.6576562207658072,0.7020530928208647,0.11934366225869168,0.7020530928208647,700.0,173.57142857142813,[0.35109104]
-7.866514095158895e-18,0.655478496873203,1.0957082961651477e-17,0.655478496873203,-1.3023131564034868e-19,-0.004275151482253952,1.0957082961651477e-17,-0.004275151482253952,-7.224717892768802e-18,0.6554924383876216,-7.081829978021175e-18,-0.6554924383876216,0.7021293416199141,0.11844313096491521,0.702129341619914,700.0,173.57142857142813,[0.33988849]
-9.757581324353125e-18,0.6509671996686643,1.1039308436852004e-17,0.6509671996686643,-1.759479337349294e-19,-0.0037749383694223415,1.1039308436852004e-17,-0.0037749383694223415,-8.00434223754493e-18,0.6509781449512384,-7.87639460502819e-18,-0.6509781449512384,0.7021897264122682,0.11772500262105594,0.7021897264122681,700.0,173.57142857142813,[0.33988849]
-1.1709965797994685e-17,0.6431025224878366,1.1120296036265846e-17,0.6431025224878366,-2.4554029303024074e-19,-0.003391701795160199,1.1120296036265846e-17,-0.003391701795160199,-8.793191300512251e-18,0.6431114662881433,-8.675989267177573e-18,-0.6431114662881433,0.7022333315771792,0.11720365200807692,0.7022333315771792,700.0,173.57142857142813,[0.33988849]
-1.3775217411857883e-17,0.6295698589183185,1.1202911527125192e-17,0.6295698589183185,-4.133487695376484e-19,-0.0031651017000436875,1.1202911527125192e-17,-0.0031651017000436875,-9.59777664745278e-18,0.6295778149896989,-9.485250785554753e-18,-0.6295778149896988,0.7022537438048813,0.11695879028126285,0.7022537438048811,700.0,173.57142857142813,[0.33988849]
-1.60482965002638e-17,0.6043595929799837,1.127755713278259e-17,0.6043595929799837,-7.477448039683353e-19,-0.003209951541555132,1.127755713278259e-17,-0.003209951541555132,-1.0427458654178168e-17,0.6043681174713229,-1.0307804074583441e-17,-0.6043681174713228,0.702230234969618,0.11724075310671685,0.7022302349696179,700.0,173.57142857142813,[0.3411854]
-1.8922067532060828e-17,0.5470365867912846,1.132678389180654e-17,0.5470365867912846,-1.5797329902415214e-18,-0.0038399685482492837,1.132678389180654e-17,-0.0038399685482492837,-1.1357798615283909e-17,0.5470500641136152,-1.1199171031526305e-17,-0.5470500641136153,0.702087598595276,0.11893699087095086,0.702087598595276,700.0,173.57142857142813,[0.35179708]
-2.4391240158473638e-17,0.3556591048712069,1.1366904633057199e-17,0.3556591048712069,-6.21339033224922e-18,-0.0030744239934326926,1.1366904633057199e-17,-0.0030744239934326926,-1.3052840582915324e-17,0.35567239274461515,-1.2857203710375493e-17,-0.35567239274461515,0.701950039929892,0.12054991864304954,0.701950039929892,700.0,173.57142857142813,[0.27921354]
-2.4799569596054317e-17,0.35561470519658156,1.1567847483361643e-17,0.35561470519658156,-6.2216654470972e-18,0.0038870451982943198,1.1567847483361643e-17,0.0038870451982943198,-1.3262702921764927e-17,0.3556359482285575,-1.3516907093237482e-17,-0.35563594822855743,0.7017533455901634,0.1228189069566481,0.7017533455901632,700.0,173.57142857142813,[0.27921354]
-2.014162953998451e-17,0.5469036616197623,1.1310759335389856e-17,0.5469036616197623,-1.5905855998782171e-18,0.00467258931142105,1.1310759335389856e-17,0.00467258931142105,-1.1994982458578407e-17,0.5469236218924693,-1.2188821579507394e-17,-0.5469236218924692,0.7019586097316987,0.12045007450010987,0.7019586097316987,700.0,173.57142857142813,[0.35179708]
-1.8088587111962596e-17,0.6041385687154449,1.106805089518669e-17,0.6041385687154449,-7.703317977747083e-19,0.004061932282953787,1.106805089518669e-17,0.004061932282953787,-1.1494677154326734e-17,0.6041522237842193,-1.1643787348231419e-17,-0.6041522237842194,0.7021124666234129,0.11864302939479661,0.7021124666234126,700.0,173.57142857142813,[0.3411854]
-1.6636779257813626e-17,0.6292612337990159,1.0842028342299945e-17,0.6292612337990159,-4.601506485958987e-19,0.004035913456219854,1.0842028342299945e-17,0.004035913456219854,-1.1093944543491744e-17,0.6292741763013048,-1.1233202907102037e-17,-0.6292741763013048,0.7021384201192047,0.11833544686616272,0.7021384201192048,700.0,173.57142857142813,[0.33988849]
-1.5406907270735083e-17,0.6427068645801225,1.0620753806129253e-17,0.6427068645801225,-3.185919216472488e-19,0.004280832263863625,1.0620753806129253e-17,0.004280832263863625,-1.07134249181051e-17,0.6427211209407108,-1.0855149799087264e-17,-0.6427211209407107,0.7021177403360565,0.11858059457930174,0.7021177403360565,700.0,173.57142857142813,[0.33988849]
-1.4250561713945154e-17,0.6504851447862114,1.0406770867058217e-17,0.6504851447862114,-2.357729443572146e-19,0.004681872020667571,1.0406770867058217e-17,0.004681872020667571,-1.0347691973348455e-17,0.6505019934736221,-1.049761600026234e-17,-0.6505019934736221,0.702072624516351,0.1191136424153248,0.702072624516351,700.0,173.57142857142813,[0.33988849]
-1.3174796783707692e-17,0.6549107464367013,1.0195763917035993e-17,0.6549107464367013,-2.1433904032474056e-19,0.005199366058886838,1.0195763917035993e-17,0.005199366058886838,-1.0001968527609466e-17,0.6549313851127399,-1.0163983238839644e-17,-0.6549313851127397,0.70200997833053,0.11984982540136734,0.70200997833053,700.0,173.57142857142813,[0.33988849]
-1.2131860997621231e-17,0.6569853913929848,9.989072575064612e-18,0.6569853913929848,-2.144068691349699e-19,0.005826686862304403,9.989072575064612e-18,0.005826686862304403,-9.655498964957955e-18,0.6570112288108819,-9.83288329081672e-18,-0.657011228810882,0.7019308850287886,0.12077278371140986,0.7019308850287886,700.0,173.57142857142813,[0.35109104]
-1.112663803002229e-17,0.6571040333572232,9.778523469511436e-18,0.6571040333572232,-2.5157705714065273e-19,0.006578568093950406,9.778523469511436e-18,0.006578568093950406,-9.311335581854242e-18,0.6571369630545048,-9.507186844902156e-18,-0.6571369630545048,0.7018328555727305,0.12190687296971572,0.7018328555727303,700.0,173.57142857142813,[0.35109104]
-1.0163740240006462e-17,0.6552751712796002,9.576139256989618e-18,0.6552751712796002,-3.0400872744793894e-19,0.007492043632101699,9.576139256989618e-18,0.007492043632101699,-8.974836854306446e-18,0.6553179997629354,-9.194004407687539e-18,-0.6553179997629355,0.7017095843871847,0.12331795634995228,0.7017095843871848,700.0,173.57142857142813,[0.33988849]
-9.23665606179173e-18,0.6511235467432949,9.376586897294875e-18,0.6511235467432949,-4.0398839372599834e-19,0.00863826605165788,9.376586897294875e-18,0.00863826605165788,-8.648919421154427e-18,0.6511808448994392,-8.897606027329881e-18,-0.651180844899439,0.7015485702298347,0.12513675406110705,0.7015485702298346,700.0,173.57142857142813,[0.33988849]
-8.369261236578824e-18,0.6436773240258679,9.187734532413812e-18,0.6436773240258679,-5.405956175279057e-19,0.010154399606730593,9.187734532413812e-18,0.010154399606730593,-8.32591862684227e-18,0.6437574149448496,-8.615214280517007e-18,-0.6437574149448495,0.7013244104303593,0.12762500800790436,0.7013244104303593,700.0,173.57142857142813,[0.33988849]
-7.615004866828472e-18,0.6306789523717845,9.012142699932587e-18,0.6306789523717845,-7.354677893168233e-19,0.012329975378722035,9.012142699932587e-18,0.012329975378722035,-8.022859502737543e-18,0.6307994683396713,-8.374822471951547e-18,-0.6307994683396712,0.7009788773675935,0.13136676508514894,0.7009788773675937,700.0,173.57142857142813,[0.33988849]
-7.055010209574972e-18,0.6062564506704888,8.876434207866219e-18,0.6062564506704888,-1.1284679157856672e-18,0.015882729835630698,8.876434207866219e-18,0.015882729835630698,-7.758598458084002e-18,0.6064644631687918,-8.221441697141059e-18,-0.6064644631687915,0.7003462258236005,0.137950454690359,0.7003462258236004,700.0,173.57142857142813,[0.3411854]
-7.054467579093137e-18,0.550426387453208,8.827826386735612e-18,0.550426387453208,-2.0130573443917126e-18,0.023105344074392388,8.827826386735612e-18,0.023105344074392388,-7.601778248833749e-18,0.550911122532106,-8.340975204555654e-18,-0.5509111225321063,0.6987219419285007,0.15354248837155762,0.6987219419285008,700.0,173.57142857142813,[0.3453049]
-9.602524664168834e-18,0.3632488217617903,9.164325114283409e-18,0.3632488217617903,-6.705590093678485e-18,0.04078739982047945,9.164325114283409e-18,0.04078739982047945,-8.299533219663054e-18,0.36553155608708326,-1.0295304888152375e-17,-0.3655315560870832,0.6894383629810699,0.22214744495484356,0.6894383629810698,700.0,173.57142857142813,[0.47601292]
-9.275454141242917e-18,0.3662153750978803,9.510175739041577e-18,0.3662153750978803,-6.6899555529206206e-18,0.04707832103561527,9.510175739041577e-18,0.04707832103561527,-8.76205787661698e-18,0.36922902008051006,-1.118438367583175e-17,-0.3692290200805099,0.6322010718909808,0.44793259470571006,0.6322010718909807,700.0,160.7142857142859,[1.16823194]
-6.306044487022509e-18,0.5539587751428934,9.295361897045231e-18,0.5539587751428934,-1.9599134715770182e-18,0.0308338735669267,9.295361897045231e-18,0.0308338735669267,-8.718240465208821e-18,0.5548162329248814,-9.744535848633887e-18,-0.5548162329248814,0.6534156972596268,0.3822248724892604,0.6534156972596269,700.0,160.7142857142859,[0.87802267]
-5.881707450227706e-18,0.609143500151414,9.493523766130272e-18,0.609143500151414,-1.0404939489182025e-18,0.022533106368407656,9.493523766130272e-18,0.022533106368407656,-9.536255916574761e-18,0.6095601239084835,-1.0236051187148785e-17,-0.6095601239084836,0.6583369538595971,0.36494507856077907,0.6583369538595972,700.0,160.7142857142859,[0.87076861]
-5.980737513162554e-18,0.6334284908629271,9.813883476144123e-18,0.6334284908629271,-6.226345635003024e-19,0.018955909455738003,9.813883476144123e-18,0.018955909455738003,-1.0488335011359008e-17,0.6337120635905392,-1.1067941765528576e-17,-0.6337120635905392,0.6601418033919156,0.35836517524578043,0.6601418033919156,700.0,160.7142857142859,[0.86620503]
-6.313505656147738e-18,0.64652504940771,1.0185903303748902e-17,0.64652504940771,-3.794682788280889e-19,0.01724435562084084,1.0185903303748902e-17,0.01724435562084084,-1.1472361475761278e-17,0.646754982441125,-1.200940651041226e-17,-0.6467549824411248,0.660962102226602,0.3553282972694155,0.6609621022266021,700.0,160.7142857142859,[0.86620503]
-6.733094676226486e-18,0.6542056107737084,1.0574460643147723e-17,0.6542056107737084,-2.1113412904140385e-19,0.016473814658412397,1.0574460643147723e-17,0.016473814658412397,-1.2489047512288981e-17,0.654412994780208,-1.3017921407613111e-17,-0.654412994780208,0.6613357299833205,0.3539351699038355,0.6613357299833205,700.0,160.7142857142859,[0.86620503]
-7.206404114006878e-18,0.6586933905438193,1.0979725066366161e-17,0.6586933905438193,-9.596080927197046e-20,0.016283270142614097,1.0979725066366161e-17,0.016283270142614097,-1.3508582358846315e-17,0.6588946255909587,-1.405035480656844e-17,-0.6588946255909586,0.6614509228094432,0.3535043895471057,0.6614509228094431,700.0,160.7142857142859,[0.86620503]
-7.729499898495611e-18,0.6609545576799362,1.1394998478394067e-17,0.6609545576799362,-1.9331210915364257e-21,0.0165236036041555,1.1394998478394067e-17,0.0165236036041555,-1.4543616088541053e-17,0.6611610672097588,-1.5106520707920752e-17,-0.6611610672097589,0.6613811885613506,0.3537652425470177,0.6613811885613506,700.0,160.7142857142859,[0.86620503]
-8.261006455452784e-18,0.6613772383848889,1.1817381197594137e-17,0.6613772383848889,5.361867448629981e-20,0.017150197657513414,1.1817381197594137e-17,0.017150197657513414,-1.5577700214892582e-17,0.6615995622227347,-1.6186158643497873e-17,-0.6615995622227346,0.6611480558278214,0.35463572373660224,0.6611480558278214,700.0,160.7142857142859,[0.86620503]
-8.852473680652701e-18,0.6599851508319615,1.2251570369074752e-17,0.6599851508319615,1.0752562141607436e-19,0.018192735661130097,1.2251570369074752e-17,0.018192735661130097,-1.6630878151323673e-17,0.6602358479736787,-1.7300055393607225e-17,-0.6602358479736788,0.6607376330602339,0.35616226711418986,0.6607376330602338,700.0,160.7142857142859,[0.86620503]
-9.46774881824312e-18,0.6564451634243419,1.2699732275462615e-17,0.6564451634243419,1.1101880514288578e-19,0.019764679810981917,1.2699732275462615e-17,0.019764679810981917,-1.768351345727293e-17,0.6567426399673174,-1.8434176836721108e-17,-0.6567426399673175,0.6600955206676409,0.35853564284326367,0.6600955206676409,700.0,160.7142857142859,[0.86620503]
-1.014000015642619e-17,0.6498746571097781,1.3162782605695819e-17,0.6498746571097781,8.193720275705271e-20,0.02211980182683146,1.3162782605695819e-17,0.02211980182683146,-1.8764433377087823e-17,0.6502509942986708,-1.965797198174474e-17,-0.6502509942986708,0.6590955318097645,0.36219630022517857,0.6590955318097644,700.0,160.7142857142859,[0.8733114]
-1.0903616901988193e-17,0.6382102797612357,1.3659064813640763e-17,0.6382102797612357,-4.592010452526878e-20,0.025819468737362513,1.3659064813640763e-17,0.025819468737362513,-1.9865091480679457e-17,0.6387323431287898,-2.0945325263003447e-17,-0.6387323431287899,0.6574402994624499,0.368163693600345,0.6574402994624499,700.0,160.7142857142859,[0.8733114]
-1.1842571121993061e-17,0.6160652491418757,1.4225609190382033e-17,0.6160652491418757,-3.158278976304029e-19,0.032271801333100966,1.4225609190382033e-17,0.032271801333100966,-2.1031017856914282e-17,0.6169099288887516,-2.2485547216019898e-17,-0.6169099288887515,0.6542953741106292,0.3792032790402314,0.6542953741106291,700.0,160.7142857142859,[0.8733114]
-1.3304485468866206e-17,0.5649939471579124,1.4973506609173384e-17,0.5649939471579124,-1.1132912194968505e-18,0.04592177635722234,1.4973506609173384e-17,0.04592177635722234,-2.2362887417375207e-17,0.5668570982786407,-2.4815648317446288e-17,-0.5668570982786408,0.6463130361386304,0.40565862327150204,0.6463130361386306,700.0,160.7142857142859,[0.87141993]
-1.7024013935412975e-17,0.38894643866741024,1.6432754435944386e-17,0.38894643866741024,-5.705216886010942e-18,0.07702305591513157,1.6432754435944386e-17,0.07702305591513157,-2.4806454220292596e-17,0.3964995375716939,-3.095735806888725e-17,-0.3964995375716938,0.6093447758024612,0.5073439547333715,0.6093447758024608,700.0,160.7142857142859,[1.2306573]
-1.6782882515047642e-17,0.3943421982061226,1.6408105022376977e-17,0.3943421982061226,-5.677915789893629e-18,0.08140229501444117,1.6408105022376977e-17,0.08140229501444117,-2.517512076109166e-17,0.4026563086798154,-3.092905148046688e-17,-0.4026563086798154,0.5103073595946646,0.6922230836132549,0.5103073595946649,700.0,147.85714285714295,[1.31093127]
-1.3090553401402841e-17,0.571510318086503,1.4515592191664734e-17,0.571510318086503,-1.043037529301803e-18,0.05135020141820122,1.4515592191664734e-17,0.05135020141820122,-2.2972566678121704e-17,0.5738125886254372,-2.5562700435023682e-17,-0.5738125886254374,0.5626559384268611,0.605670364064461,0.5626559384268611,700.0,147.85714285714295,[1.36234662]
-1.1621652687076074e-17,0.6215187926859974,1.3352779581749502e-17,0.6215187926859974,-2.1157501630789461e-19,0.03700802015233313,1.3352779581749502e-17,0.03700802015233313,-2.189585214454103e-17,0.6226196296435371,-2.341512826920558e-17,-0.6226196296435372,0.5753045956423193,0.5814200241354396,0.5753045956423194,700.0,147.85714285714295,[1.33064639]
-1.0662621139243319e-17,0.6435151035512309,1.2390167944526829e-17,0.6435151035512309,1.109848907377711e-19,0.030592475877177328,1.2390167944526829e-17,0.030592475877177328,-2.1027575544795142e-17,0.6442418707898818,-2.2181965687092303e-17,-0.6442418707898818,0.5801846012990031,0.5716394465316701,0.580184601299003,700.0,147.85714285714295,[1.33064639]
-9.852609487484442e-18,0.655454442146334,1.1514909216627957e-17,0.655454442146334,2.751051756889579e-19,0.0272674596177664,1.1514909216627957e-17,0.0272674596177664,-2.0228280845052502e-17,0.6560213716666314,-2.1172069993538983e-17,-0.6560213716666313,0.582570150578705,0.566766300435559,0.582570150578705,700.0,147.85714285714295,[1.35943659]
-9.151666562574357e-18,0.6625441312826099,1.0662033996104771e-17,0.6625441312826099,3.6117993587000087e-19,0.025481658654780723,1.0662033996104771e-17,0.025481658654780723,-1.9460916557725328e-17,0.6630339665694565,-2.0266439144522692e-17,-0.6630339665694565,0.5838238814046033,0.5641802469099109,0.5838238814046032,700.0,147.85714285714295,[1.35943659]
-8.477007301628144e-18,0.6667855673451262,9.839798320952373e-18,0.6667855673451262,3.9299164786756525e-19,0.024624207317247737,9.839798320952373e-18,0.024624207317247737,-1.8724600908280638e-17,0.6672400950225973,-1.9437611419232127e-17,-0.6672400950225971,0.5844329414839826,0.5629176439025158,0.5844329414839825,700.0,147.85714285714295,[1.35943659]
-7.838568625344403e-18,0.6690510735303916,9.032718145585596e-18,0.6690510735303916,3.9746834934270224e-19,0.024433028024009925,9.032718145585596e-18,0.024433028024009925,-1.7985572106426774e-17,0.6694970588812109,-1.8627973349199106e-17,-0.6694970588812109,0.584596186673386,0.562578525233475,0.584596186673386,700.0,147.85714285714295,[1.35943659]
-7.231399030576392e-18,0.6696968861601018,8.23390672611584e-18,0.6696968861601018,3.8793416220483947e-19,0.024812986834302803,8.23390672611584e-18,0.024812986834302803,-1.7263280063497e-17,0.6701564023779641,-1.7862044158657677e-17,-0.670156402377964,0.5843847021163121,0.5630177971120083,0.5843847021163121,700.0,147.85714285714295,[1.35943659]
-6.6581099265179416e-18,0.6687572612003981,7.455158856746893e-18,0.6687572612003981,3.3512095484001313e-19,0.025780535299456977,7.455158856746893e-18,0.025780535299456977,-1.6560387060292823e-17,0.6692539954371468,-1.7098834166836876e-17,-0.6692539954371467,0.5837881891155664,0.5642541098639295,0.5837881891155663,700.0,147.85714285714295,[1.35943659]
-6.0985222421258176e-18,0.6659553965359275,6.687904791236343e-18,0.6659553965359275,2.605431779928447e-19,0.02746897090983352,6.687904791236343e-18,0.02746897090983352,-1.5878139451202202e-17,0.6665216684686025,-1.6397056320659595e-17,-0.6665216684686026,0.5827114949982851,0.5664756192403408,0.5827114949982851,700.0,147.85714285714295,[1.35943659]
-5.613173190529716e-18,0.6605396676739133,5.953466092149717e-18,0.6605396676739133,1.359755680066466e-19,0.030198408870738897,5.953466092149717e-18,0.030198408870738897,-1.5216808551466056e-17,0.6612296094921097,-1.5732059374902278e-17,-0.6612296094921097,0.5809184572882573,0.5701469038446694,0.5809184572882572,700.0,147.85714285714295,[1.35943659]
-5.170725861403677e-18,0.6507396555351814,5.255629514783104e-18,0.6507396555351814,-6.122821913390482e-20,0.0346908654597818,5.255629514783104e-18,0.0346908654597818,-1.4593597443078804e-17,0.6516636827631224,-1.5121909256103135e-17,-0.6516636827631224,0.5778485285622939,0.5763524582031241,0.5778485285622939,700.0,147.85714285714295,[1.33064639]
-4.880045495165805e-18,0.6319052962285855,4.6511063034391975e-18,0.6319052962285855,-4.2780478471777825e-19,0.04276594923646763,4.6511063034391975e-18,0.04276594923646763,-1.4079327882521164e-17,0.633350795227915,-1.4658765586954614e-17,-0.633350795227915,0.5719554429080871,0.5879914477742239,0.5719554429080871,700.0,147.85714285714295,[1.33936623]
-5.0123116751130344e-18,0.5879103641428031,4.273911349578952e-18,0.5879103641428031,-1.310959210057409e-18,0.0601405487673698,4.273911349578952e-18,0.0601405487673698,-1.3828395199077692e-17,0.5909784106653675,-1.4592765957768075e-17,-0.5909784106653674,0.5573320503086663,0.6154364072733077,0.5573320503086662,700.0,147.85714285714295,[1.40888156]
-7.053585804560156e-18,0.4277127324154389,4.800319087692165e-18,0.4277127324154389,-5.981668039652888e-18,0.09850153696276981,4.800319087692165e-18,0.09850153696276981,-1.504975467047245e-17,0.438908571634582,-1.5339522767353786e-17,-0.4389085716345819,0.49902292008258686,0.7084858858611769,0.499022920082587,700.0,147.85714285714295,[1.34302132]
-6.440430317289406e-18,0.43446723995104475,4.0850409676701715e-18,0.43446723995104475,-6.013863408358312e-18,0.10010301517988439,4.0850409676701715e-18,0.10010301517988439,-1.4359172596324898e-17,0.44585019483990673,-1.6463615839124616e-17,-0.44585019483990695,0.3749737340489646,0.8478144829777046,0.3749737340489645,700.0,134.9999999999996,[1.3552982]
-3.777946029356797e-18,0.596116427083647,1.992984255864465e-18,0.596116427083647,-1.4160832676613005e-18,0.06219756587482572,1.992984255864465e-18,0.06219756587482572,-1.1152832668672737e-17,0.5993524270741937,-1.1407621188209729e-17,-0.5993524270741932,0.44541311346247636,0.7766687303550506,0.44541311346247636,700.0,134.9999999999996,[1.53379176]
-3.008122947658809e-18,0.6388402097866435,8.051979258829131e-19,0.6388402097866435,-6.015186070157785e-19,0.044656400782004224,8.051979258829131e-19,0.044656400782004224,-9.44673460497394e-18,0.6403991003827575,-9.525988927706954e-18,-0.6403991003827575,0.4639168048873732,0.7546935777427697,0.46391680488737325,700.0,134.9999999999996,[1.53639792]
-2.60891648505398e-18,0.6575434492369023,-1.3978193006818886e-19,0.6575434492369023,-3.147935082744053e-19,0.036674655294931365,-1.3978193006818886e-19,0.036674655294931365,-8.051436628347295e-18,0.6585654242179473,-8.00415166524332e-18,-0.6585654242179473,0.47137973776808406,0.7453873393366597,0.47137973776808395,700.0,134.9999999999996,[1.57152496]
-2.3779424290204916e-18,0.6677408441753283,-9.946845961221363e-19,0.6677408441753283,-1.8271597720562657e-19,0.03239588792863374,-9.946845961221363e-19,0.03239588792863374,-6.7624984654609085e-18,0.6685262362350971,-6.65119934297816e-18,-0.668526236235097,0.4751832626829483,0.7405415138477899,0.47518326268294836,700.0,134.9999999999996,[1.57807433]
-2.1691483939320003e-18,0.6738586705325657,-1.803901379011138e-18,0.6738586705325657,-1.3447061627968294e-19,0.02994935780800255,-1.803901379011138e-18,0.02994935780800255,-5.516847801402763e-18,0.6745238853332244,-5.338702622455141e-18,-0.6745238853332244,0.47730653185576816,0.7378054955715885,0.47730653185576816,700.0,134.9999999999996,[1.57807433]
-2.006528821407138e-18,0.6775900755857177,-2.5849326416869462e-18,0.6775900755857177,-1.2638203065983316e-19,0.02859533740797948,-2.5849326416869462e-18,0.02859533740797948,-4.3060696244037815e-18,0.6781931906571569,-4.078820397007349e-18,-0.6781931906571568,0.47847335178112665,0.736292403376993,0.47847335178112665,700.0,134.9999999999996,[1.58690759]
-1.8774845099458028e-18,0.6796738274935794,-3.3502164922253676e-18,0.6796738274935794,-1.5329523076864676e-19,0.028010695967991966,-3.3502164922253676e-18,0.028010695967991966,-3.119455461049006e-18,0.680250770575369,-2.846940386970883e-18,-0.680250770575369,0.4789874261916628,0.7356236069489429,0.4789874261916627,700.0,134.9999999999996,[1.58690759]
-1.7707219626448086e-18,0.6804155201728297,-4.101154019487701e-18,0.6804155201728297,-2.0476140035532461e-19,0.02806862405732515,-4.101154019487701e-18,0.02806862405732515,-1.9569883541358776e-18,0.6809942200551587,-1.6272295916733747e-18,-0.6809942200551589,0.4789665439911231,0.735650799954978,0.47896654399112315,700.0,134.9999999999996,[1.58690759]
-1.680780960280693e-18,0.6798531698975606,-4.8350039856980385e-18,0.6798531698975606,-2.7372952263149394e-19,0.028769082001732803,-4.8350039856980385e-18,0.028769082001732803,-8.098505583345824e-19,0.6804616026632097,-3.9064416330144744e-19,-0.6804616026632097,0.4784135396821742,0.736370131182373,0.47841353968217415,700.0,134.9999999999996,[1.58690759]
-1.6141391542303583e-18,0.6777693383615087,-5.551522101157038e-18,0.6777693383615087,-3.882796652069452e-19,0.03023880080284032,-5.551522101157038e-18,0.03023880080284032,3.138015119248011e-19,0.6784435577828057,7.857795137482052e-19,-0.6784435577828056,0.4772176919733988,0.7379204218173967,0.4772176919733988,700.0,134.9999999999996,[1.58877621]
-1.5627164374752336e-18,0.6735592142296708,-6.241601818178829e-18,0.6735592142296708,-5.420401592207589e-19,0.03280083622361803,-6.241601818178829e-18,0.03280083622361803,1.3983799481914406e-18,0.6743574051870862,1.9814261107957935e-18,-0.6743574051870862,0.4750881157954235,0.7406635973638156,0.4750881157954236,700.0,134.9999999999996,[1.57807433]
-1.5953844882019435e-18,0.6657860100535575,-6.89194868995846e-18,0.6657860100535575,-7.682460618601558e-19,0.03719484977641049,-6.89194868995846e-18,0.03719484977641049,2.408740948165255e-18,0.6668241657535557,3.1383602413659693e-18,-0.6668241657535555,0.4713320186640147,0.7454476885497798,0.4713320186640147,700.0,134.9999999999996,[1.57152496]
-1.7240981342134105e-18,0.6506419641794634,-7.444907432932113e-18,0.6506419641794634,-1.1660641535056031e-18,0.045291542337461896,-7.444907432932113e-18,0.045291542337461896,3.2896845782214734e-18,0.6522164436432252,4.324117090502945e-18,-0.6522164436432252,0.46407172629730165,0.7545030587763607,0.46407172629730176,700.0,134.9999999999996,[1.53639792]
-2.14043137140115e-18,0.6146424164230057,-7.753976295605678e-18,0.6146424164230057,-2.0716556073914904e-18,0.06294741411430081,-7.753976295605678e-18,0.06294741411430081,3.7915965774154536e-18,0.6178573273903842,5.2352220527927116e-18,-0.6178573273903845,0.44645825002907114,0.7754676408219485,0.4464582500290712,700.0,134.9999999999996,[1.53533034]
-4.066354130451986e-18,0.4718789682669739,-7.16091853779714e-18,0.4718789682669739,-6.7770233692764276e-18,0.10096781574103457,-7.16091853779714e-18,0.10096781574103457,2.4108415216320452e-18,0.4825601107719319,5.2463361729982925e-18,-0.48256011077193167,0.38431600980508274,0.8394059859299308,0.38431600980508274,700.0,134.9999999999996,[1.48419923]
-3.955479461530838e-18,0.4786556115397434,-6.965453393831296e-18,0.4786556115397434,-6.883248055308806e-18,0.09947341417003405,-6.965453393831296e-18,0.09947341417003405,2.081452101256412e-18,0.4888825570473227,4.746691486199358e-18,-0.4888825570473226,0.24651063307076257,0.9372646454263083,0.24651063307076254,700.0,122.14285714285755,[1.49136989]
-2.397112546511561e-18,0.6229174199409291,-7.033088785968975e-18,0.6229174199409291,-2.3805591373401207e-18,0.0612228742164386,-7.033088785968975e-18,0.0612228742164386,3.405888048046265e-18,0.6259188065501673,4.865457706165515e-18,-0.6259188065501673,0.3158366144270553,0.8947035631842042,0.31583661442705524,700.0,122.14285714285755,[1.53582395]
-2.2968022147836338e-18,0.6576922235160618,-6.1993060507439014e-18,0.6576922235160618,-1.6966322352837437e-18,0.04395732637859206,-6.1993060507439014e-18,0.04395732637859206,2.815241127520059e-18,0.6591595462525411,3.67896183416709e-18,-0.659159546252541,0.3354389474148307,0.8803189337475714,0.3354389474148306,700.0,122.14285714285755,[1.58277554]
-2.469426536817325e-18,0.6727513950434867,-5.136117535765602e-18,0.6727513950434867,-1.5100298792170073e-18,0.035990356878131395,-5.136117535765602e-18,0.035990356878131395,1.8151752691488677e-18,0.673713399986354,2.350394879404268e-18,-0.6737133999863539,0.34368192241332374,0.8739367668273058,0.34368192241332374,700.0,122.14285714285755,[1.58277554]
-2.7608869343728346e-18,0.6809681177504618,-3.974594998026176e-18,0.6809681177504618,-1.485133526387357e-18,0.03160513166714318,-3.974594998026176e-18,0.03160513166714318,6.618099407083904e-19,0.6817011528084019,1.0389218251643101e-18,-0.681701152808402,0.34804080449534375,0.8704798658283074,0.3480408044953437,700.0,122.14285714285755,[1.59699865]
-3.09847940148558e-18,0.6859263712680268,-2.7824231115332326e-18,0.6859263712680268,-1.5478757057620842e-18,0.02898200419747249,-2.7824231115332326e-18,0.02898200419747249,-5.627735188225829e-19,0.686538377199866,-3.3968073061689434e-19,-0.6865383771998658,0.35059316186325395,0.8684289664154764,0.35059316186325384,700.0,122.14285714285755,[1.59699865]
-3.450188739727308e-18,0.6889856654176871,-1.558243975300736e-18,0.6889856654176871,-1.6456220554720843e-18,0.02739889675280972,-1.558243975300736e-18,0.02739889675280972,-1.8215501174852666e-18,0.6895302362437228,-1.7020995379195132e-18,-0.6895302362437229,0.3521157011915808,0.8671960942882084,0.35211570119158075,700.0,122.14285714285755,[1.59251439]
-3.817079013558492e-18,0.6907379450199694,-3.1562441119971483e-19,0.6907379450199694,-1.7823058516417895e-18,0.026535625403563495,-3.1562441119971483e-19,0.026535625403563495,-3.1221082034240694e-18,0.6912474579381604,-3.1006965053232443e-18,-0.6912474579381602,0.35294234382615236,0.8665237468581022,0.3529423438261524,700.0,122.14285714285755,[1.58712763]
-4.187237788182603e-18,0.6914294279562314,9.405618422941906e-19,0.6914294279562314,-1.9416489746850265e-18,0.026258821905245033,9.405618422941906e-19,0.026258821905245033,-4.4500733679961674e-18,0.6919278716540713,-4.518470609152491e-18,-0.6919278716540713,0.3532107540233148,0.8663049846818167,0.3532107540233148,700.0,122.14285714285755,[1.58712763]
-4.593214413908449e-18,0.6910943569086676,2.2091949474214715e-18,0.6910943569086676,-2.1229744612809514e-18,0.026551964268667027,2.2091949474214715e-18,0.026551964268667027,-5.800832192280806e-18,0.69160423434037,-5.965477515436565e-18,-0.69160423434037,0.3529400006058096,0.8665256556760119,0.35294000060580966,700.0,122.14285714285755,[1.58712763]
-4.99106853960933e-18,0.6895659222590341,3.494252163050693e-18,0.6895659222590341,-2.340797411862355e-18,0.027510117977336126,3.494252163050693e-18,0.027510117977336126,-7.179808861446014e-18,0.6901144598775475,-7.44420061119705e-18,-0.6901144598775475,0.3520374380442213,0.8672596407250382,0.35203743804422133,700.0,122.14285714285755,[1.59251439]
-5.424736277111308e-18,0.6863728545339028,4.8005921251489675e-18,0.6863728545339028,-2.6080060952416828e-18,0.029395296328452027,4.8005921251489675e-18,0.029395296328452027,-8.61413489958353e-18,0.6870020224768308,-9.01600677718614e-18,-0.6870020224768307,0.3502408624726522,0.8687132303060808,0.35024086247265224,700.0,122.14285714285755,[1.59699865]
-5.88391188656016e-18,0.6803866049801036,6.145172036273632e-18,0.6803866049801036,-2.948883490437332e-18,0.032818309646110974,6.145172036273632e-18,0.032818309646110974,-1.0130672635194495e-17,0.6811776373930517,-1.0713782293408782e-17,-0.6811776373930518,0.3469208004750922,0.8713735802716551,0.3469208004750922,700.0,122.14285714285755,[1.59575914]
-6.4174490685235746e-18,0.6685804582710027,7.556633141456608e-18,0.6685804582710027,-3.4537777051529395e-18,0.03933043877258462,7.556633141456608e-18,0.03933043877258462,-1.1823840831943322e-17,0.6697363007900257,-1.2651312959847571e-17,-0.6697363007900259,0.3403939828587301,0.8765066302471083,0.3403939828587302,700.0,122.14285714285755,[1.58277554]
-7.154472681175033e-18,0.6399102868878546,9.187988757974028e-18,0.6399102868878546,-4.473365278011975e-18,0.053767846242643524,9.187988757974028e-18,0.053767846242643524,-1.399587936908619e-17,0.6421652097042232,-1.5507771364690588e-17,-0.6421652097042232,0.32475188125049365,0.8882974902860699,0.3247518812504936,700.0,122.14285714285755,[1.53076267]
-9.015296739608252e-18,0.5127105319357925,1.1538460253895343e-17,0.5127105319357925,-9.287574964161499e-18,0.08391422638470757,1.1538460253895343e-17,0.08391422638470757,-1.8420381275625892e-17,0.5195321808585366,-2.1494607887269233e-17,-0.5195321808585365,0.27455853457222607,0.9215395933909208,0.27455853457222595,700.0,122.14285714285755,[1.49192924]
-9.106611275379512e-18,0.5181673192011453,1.1735145521576446e-17,0.5181673192011453,-9.280813942032485e-18,0.07961850457771737,1.1735145521576446e-17,0.07961850457771737,-1.9142542960061005e-17,0.524248487798767,-2.2387413996858526e-17,-0.5242484877987668,0.12947035974158025,0.9830945284644663,0.12947035974158025,700.0,109.28571428571402,[1.50466141]
-7.93792511442848e-18,0.6466169797654069,1.0159073564871425e-17,0.6466169797654069,-4.437612341201279e-18,0.04859906177737364,1.0159073564871425e-17,0.04859906177737364,-1.567915515779313e-17,0.6484407354003736,-1.7158553791406313e-17,-0.6484407354003737,0.1828637360432937,0.9659822503962363,0.1828637360432937,700.0,109.28571428571402,[1.54801137]
-7.89303939925921e-18,0.6743526689828772,9.292105716719787e-18,0.6743526689828772,-3.3998806940840384e-18,0.03502876370839866,9.292105716719787e-18,0.03502876370839866,-1.4483690394528584e-17,0.6752618280720957,-1.5422017702271748e-17,-0.6752618280720958,0.19860582631127005,0.9597455139308728,0.19860582631127008,700.0,109.28571428571402,[1.58213006]
-7.977295499465978e-18,0.6861381447618435,8.604337743327883e-18,0.6861381447618435,-2.880363674203772e-18,0.028654292687629545,8.604337743327883e-18,0.028654292687629545,-1.3804541714205318e-17,0.6867362100447689,-1.452308086488254e-17,-0.6867362100447687,0.2054905961602723,0.9568423223182551,0.20549059616027227,700.0,109.28571428571402,[1.612352]
-8.146753063922087e-18,0.6925272284161706,7.995637761029073e-18,0.6925272284161706,-2.5165846496074245e-18,0.02503071454696142,7.995637761029073e-18,0.02503071454696142,-1.3306631084902289e-17,0.6929794360358134,-1.3886462443905545e-17,-0.6929794360358135,0.20928244044474834,0.9551972153660104,0.20928244044474836,700.0,109.28571428571402,[1.60503778]
-8.360702088588008e-18,0.696367173547412,7.409470324019048e-18,0.696367173547412,-2.239628886711252e-18,0.022749883035649718,7.409470324019048e-18,0.022749883035649718,-1.2896626593656495e-17,0.6967386867201699,-1.3370428348240546e-17,-0.6967386867201698,0.2116252591388252,0.9541642937088192,0.21162525913882527,700.0,109.28571428571402,[1.60503778]
-8.561102308410618e-18,0.698724538537412,6.849608807301254e-18,0.698724538537412,-1.9906223030176308e-18,0.021250389355270242,6.849608807301254e-18,0.021250389355270242,-1.254305726225926e-17,0.6990476091097586,-1.2954067455073887e-17,-0.6990476091097588,0.213145499357558,0.9534872795204109,0.21314549935755797,700.0,109.28571428571402,[1.60359407]
-8.795686128938499e-18,0.7000602509907566,6.300859424906169e-18,0.7000602509907566,-1.7901844594018472e-18,0.020278415802100776,6.300859424906169e-18,0.020278415802100776,-1.2221503659202854e-17,0.700353888519714,-1.258138848220788e-17,-0.700353888519714,0.21411963380786128,0.953050662260918,0.21411963380786128,700.0,109.28571428571402,[1.60303121]
-9.022143210140777e-18,0.7005641745065276,5.754837303842697e-18,0.7005641745065276,-1.5997889890880668e-18,0.019720453892371925,5.754837303842697e-18,0.019720453892371925,-1.1937933659962306e-17,0.7008416789145279,-1.2258979835821946e-17,-0.7008416789145281,0.21466988724730476,0.9528030641315438,0.21466988724730485,700.0,109.28571428571402,[1.60303121]
-9.267588118906632e-18,0.7002599879361776,5.223726260387359e-18,0.7002599879361776,-1.4557921343592197e-18,0.01954677538252297,5.223726260387359e-18,0.01954677538252297,-1.168203993494565e-17,0.7005327452248258,-1.1970172486773712e-17,-0.7005327452248258,0.21482861766387337,0.9527315099571643,0.21482861766387346,700.0,109.28571428571402,[1.60303121]
-9.501652625106195e-18,0.6990127449820319,4.7021005858734595e-18,0.6990127449820319,-1.328349748626973e-18,0.01980195532385833,4.7021005858734595e-18,0.01980195532385833,-1.147253899647555e-17,0.6992931681934001,-1.1735744055528954e-17,-0.6992931681934001,0.2145493335071834,0.9528573696956152,0.2145493335071834,700.0,109.28571428571402,[1.60303121]
-9.791063320802587e-18,0.6964449956887235,4.195115203639356e-18,0.6964449956887235,-1.256259646386224e-18,0.02063507382729175,4.195115203639356e-18,0.02063507382729175,-1.1314591663167814e-17,0.6967506284831928,-1.1560222300287547e-17,-0.6967506284831924,0.21367351979045066,0.9532508871649267,0.21367351979045066,700.0,109.28571428571402,[1.60359407]
-1.0047384155358654e-17,0.6916499863947979,3.7122913179647026e-18,0.6916499863947979,-1.2612277755401613e-18,0.02240711595279232,3.7122913179647026e-18,0.02240711595279232,-1.1251060973874171e-17,0.6920128485261284,-1.1493416038317922e-17,-0.6920128485261282,0.21180909173018408,0.9540827098951478,0.21180909173018406,700.0,109.28571428571402,[1.60503778]
-1.0375879083299388e-17,0.6821660974548541,3.273825884442304e-18,0.6821660974548541,-1.4235630499658984e-18,0.026042696670700246,3.273825884442304e-18,0.026042696670700246,-1.1399426957824432e-17,0.6826630256331946,-1.1638148738893976e-17,-0.6826630256331947,0.2079111269241153,0.9557959649435065,0.20791112692411537,700.0,109.28571428571402,[1.60963493]
-1.0837326957890923e-17,0.6587053262210775,2.9528382942603234e-18,0.6587053262210775,-2.0986887002215102e-18,0.03439978302033993,2.9528382942603234e-18,0.03439978302033993,-1.2095578943099489e-17,0.6596029501630983,-1.241303713760753e-17,-0.6596029501630982,0.19841695827686667,0.9598236407467322,0.1984169582768667,700.0,109.28571428571402,[1.58213006]
-1.2146916873841827e-17,0.5421137220276548,3.050488531076141e-18,0.5421137220276548,-6.576844984107586e-18,0.05069875580589114,3.050488531076141e-18,0.05069875580589114,-1.5307368491723515e-17,0.5444792479525212,-1.5903700579590047e-17,-0.544479247952521,0.17038104942186877,0.9705362414643799,0.1703810494218688,700.0,109.28571428571402,[1.51789534]
-1.1497737929388333e-17,0.5451675767370499,2.3262743627408655e-18,0.5451675767370499,-6.440492515778473e-18,0.04445156418781021,2.3262743627408655e-18,0.04445156418781021,-1.467354005488505e-17,0.5469768078118945,-1.5017791996845725e-17,-0.5469768078118945,0.021805331321931836,0.999524414435126,0.021805331321931843,700.0,96.42857142857196,[1.53445894]
-9.114428545758444e-18,0.6625096187496591,1.3499745536663621e-18,0.6625096187496591,-1.704822232923575e-18,0.026807587809305356,1.3499745536663621e-18,0.026807587809305356,-9.923865772280692e-18,0.6630517639671674,-1.0028666217923533e-17,-0.6630517639671674,0.050697107206630745,0.9974264918487773,0.05069710720663076,700.0,96.42857142857196,[1.57799795]
-7.585225899487468e-18,0.6855076292972384,7.61103303956385e-19,0.6855076292972384,-7.797751049051154e-19,0.019620725562267724,7.61103303956385e-19,0.019620725562267724,-7.69932296680709e-18,0.6857883658216359,-7.73941062732316e-18,-0.6857883658216358,0.059034981404087035,0.9965087766503806,0.05903498140408703,700.0,96.42857142857196,[1.5938592]
-6.177029850665649e-18,0.6950354531280786,2.708451422199344e-19,0.6950354531280786,-3.5747597941452753e-19,0.016101558062895857,2.708451422199344e-19,0.016101558062895857,-6.04915452635561e-18,0.6952219367058307,-6.0614489065854365e-18,-0.6952219367058308,0.06287576301820157,0.9960387928438119,0.06287576301820158,700.0,96.42857142857196,[1.58436921]
-4.813325262053643e-18,0.7001090907228946,-1.9756505504190972e-19,0.7001090907228946,-1.0909085069900354e-19,0.013957426986412174,-1.9756505504190972e-19,0.013957426986412174,-4.605186198913929e-18,0.7002482050536931,-4.597588317952322e-18,-0.7002482050536931,0.06514959992612936,0.9957464834278505,0.06514959992612934,700.0,96.42857142857196,[1.58507713]
-3.4572280984389227e-18,0.7030905676813286,-6.438468978352988e-19,0.7030905676813286,7.39061126521239e-20,0.012470588256634966,-6.438468978352988e-19,0.012470588256634966,-3.2664871251230363e-18,0.7032011532512727,-3.2436309073337268e-18,-0.7032011532512726,0.0666973870622848,0.9955415195350356,0.0666973870622848,700.0,96.42857142857196,[1.58507713]
-2.111985664111217e-18,0.7048522104018541,-1.0912408284167157e-18,0.7048522104018541,2.0942184901754774e-19,0.011351496936376276,-1.0912408284167157e-18,0.011351496936376276,-1.9815068792960472e-18,0.7049436112137456,-1.9463946730334536e-18,-0.7049436112137455,0.06784584029200662,0.9953862988358556,0.0678458402920066,700.0,96.42857142857196,[1.58507713]
-7.759615890237443e-19,0.7057656964197679,-1.5224755385470778e-18,0.7057656964197679,3.11293170727765e-19,0.010462974280302127,-1.5224755385470778e-18,0.010462974280302127,-7.369547240160698e-19,0.7058432489396426,-6.920703994316884e-19,-0.7058432489396428,0.06874634430507398,0.995262719230142,0.06874634430507398,700.0,96.42857142857196,[1.58507713]
5.426855927430975e-19,0.705978730479227,-1.955881962908084e-18,0.705978730479227,3.76264427369912e-19,0.009733854360664372,-1.955881962908084e-18,0.009733854360664372,4.636448921478699e-19,0.706045831238862,5.178014221637182e-19,-0.706045831238862,0.06947613143950308,0.9951613609462546,0.06947613143950307,700.0,96.42857142857196,[1.58507713]
1.8830443527342896e-18,0.705499742222139,-2.3823618999369976e-18,0.705499742222139,4.401491645060122e-19,0.009127091799287586,-2.3823618999369976e-18,0.009127091799287586,1.6468798029805168e-18,0.7055587786146642,1.7084037534906978e-18,-0.7055587786146642,0.07007461424936026,0.995077432602914,0.07007461424936026,700.0,96.42857142857196,[1.58507713]
3.1832463374193883e-18,0.7042005853623728,-2.8083255696349274e-18,0.7042005853623728,4.508541272501286e-19,0.00862794367720616,-2.8083255696349274e-18,0.00862794367720616,2.7723261572354982e-18,0.7042534386403847,2.841423294596589e-18,-0.7042534386403846,0.07055646861635949,0.9950093313495997,0.07055646861635947,700.0,96.42857142857196,[1.58507713]
4.5105671282943076e-18,0.7017393383667577,-3.22845652468525e-18,0.7017393383667577,4.3279854839276904e-19,0.008243030863954075,-3.22845652468525e-18,0.008243030863954075,3.839167889539743e-18,0.7017877503698957,3.91491501397118e-18,-0.7017877503698957,0.07091209515535132,0.994958767749376,0.07091209515535132,700.0,96.42857142857196,[1.58507713]
5.812392765124271e-18,0.6973006834720835,-3.6484359578572516e-18,0.6973006834720835,3.292767477133284e-19,0.008012016651047085,-3.6484359578572516e-18,0.008012016651047085,4.800195618061045e-18,0.6973467111713164,4.883853925824005e-18,-0.6973467111713165,0.071092544779016,0.9949330128976963,0.071092544779016,700.0,96.42857142857196,[1.58507713]
7.081107344310714e-18,0.6886602357761002,-4.058648075475764e-18,0.6886602357761002,5.455337403820052e-20,0.008049719547120172,-4.058648075475764e-18,0.008049719547120172,5.5612656037639675e-18,0.6887072805800597,5.656388823523875e-18,-0.6887072805800599,0.07095262359274616,0.9949529890455189,0.07095262359274619,700.0,96.42857142857196,[1.59964319]
8.259202633030748e-18,0.6672539015814161,-4.446494371550946e-18,0.6672539015814161,-7.348568001121792e-19,0.008669855331040146,-4.446494371550946e-18,0.008669855331040146,5.718658118600531e-18,0.6673102243837444,5.834507578994632e-18,-0.6673102243837445,0.0700350215876689,0.9950830073428196,0.07003502158766889,700.0,96.42857142857196,[1.57595368]
8.664594235268366e-18,0.55421066619762,-4.8291859761245234e-18,0.55421066619762,-5.313728798849818e-18,0.0078916502667225,-4.8291859761245234e-18,0.0078916502667225,3.270068804250694e-18,0.5542668496952908,3.4089610784772706e-18,-0.5542668496952908,0.0691583343394921,0.9952056318082079,0.0691583343394921,700.0,96.42857142857196,[1.52316702]
9.131133509927741e-18,0.5542516691380318,-5.141484357896854e-18,0.5542516691380318,-5.3103617343170266e-18,0.0009301984443490687,-5.141484357896854e-18,0.0009301984443490687,3.655852051293651e-18,0.5542524497117176,3.673125537176487e-18,-0.5542524497117175,0.0803499997976095,0.993522901127623,0.08034999979760951,700.0,83.57142857142804,[1.51501953]
9.684875198738222e-18,0.6673882502857538,-4.7626204443661605e-18,0.6673882502857538,-7.377770821010281e-19,0.0001575949108043008,-4.7626204443661605e-18,0.0001575949108043008,6.8743815580216386e-18,0.6673882688927308,6.876630971633449e-18,-0.6673882688927307,0.07933676211248199,0.993685743258408,0.07933676211248197,700.0,83.57142857142804,[1.55381726]
9.45723535265757e-18,0.6888860681092925,-4.4016645290393195e-18,0.6888860681092925,4.0464257080590556e-20,0.0007787454958433186,-4.4016645290393195e-18,0.0007787454958433186,7.478246088028708e-18,0.6888865082723191,7.488200504362505e-18,-0.6888865082723192,0.07996510605894654,0.993585005737286,0.07996510605894655,700.0,83.57142857142804,[1.57948757]
9.141142498737209e-18,0.6976172088552578,-4.059277181066734e-18,0.6976172088552578,3.0415630810144577e-19,0.0008128611387578696,-4.059277181066734e-18,0.0008128611387578696,7.489287346543854e-18,0.6976176824265791,7.49874944144995e-18,-0.6976176824265792,0.07998952373412738,0.9935810747923769,0.0799895237341274,700.0,83.57142857142804,[1.56604706]
8.791949185424926e-18,0.7021459851707843,-3.7180434196610905e-18,0.7021459851707843,4.0492388814676893e-19,0.0005736480608576024,-3.7180434196610905e-18,0.0005736480608576024,7.29222928536278e-18,0.7021462195038505,7.298305473591738e-18,-0.7021462195038504,0.07974488222252907,0.9936204041376314,0.07974488222252907,700.0,83.57142857142804,[1.56437381]
8.431909621426906e-18,0.7046968053146834,-3.384237972800721e-18,0.7046968053146834,4.2619643379865832e-19,0.00017592100771379168,-3.384237972800721e-18,0.00017592100771379168,6.990172225946674e-18,0.7046968272732053,6.99186200568872e-18,-0.7046968272732052,0.0793462505307144,0.9936842280389854,0.07934625053071438,700.0,83.57142857142804,[1.56437381]
8.057753186299903e-18,0.7060849600653328,-3.054214379545072e-18,0.7060849600653328,4.047368952451308e-19,-0.0003406546997408895,-3.054214379545072e-18,-0.0003406546997408895,6.623002158273295e-18,0.7060850422407251,6.620055440817279e-18,-0.7060850422407252,0.07883182851195165,0.9937661121345024,0.07883182851195165,700.0,83.57142857142804,[1.56229556]
7.671122609041659e-18,0.7066523275215439,-2.7202743348894036e-18,0.7066523275215439,3.3918909371603427e-19,-0.0009694504114641873,-2.7202743348894036e-18,-0.0009694504114641873,6.2230002968860105e-18,0.706652992511682,6.2155391433607246e-18,-0.706652992511682,0.07820679245696682,0.9938648777510882,0.07820679245696685,700.0,83.57142857142804,[1.56404011]
7.29642778273346e-18,0.7065270050187157,-2.4000362398126433e-18,0.7065270050187157,2.6536577990452237e-19,-0.0017251956161706552,-2.4000362398126433e-18,-0.0017251956161706552,5.7835236576829845e-18,0.7065291113044321,5.771814242076045e-18,-0.7065291113044322,0.077454854655192,0.9939826411867996,0.07745485465519202,700.0,83.57142857142804,[1.56411432]
6.916306651606915e-18,0.7057005132807813,-2.0721850562978998e-18,0.7057005132807813,1.6224068503022198e-19,-0.0026449168188866054,-2.0721850562978998e-18,-0.0026449168188866054,5.312846295687039e-18,0.7057054697462231,5.2973283767868926e-18,-0.705705469746223,0.07653677915924507,0.9941248628174721,0.07653677915924507,700.0,83.57142857142804,[1.56411432]
6.515563442520327e-18,0.7040251007135054,-1.757611892298131e-18,0.7040251007135054,2.2080927292552446e-20,-0.0037997560530393243,-1.757611892298131e-18,-0.0037997560530393243,4.789261931799622e-18,0.7040353546383336,4.770335380395347e-18,-0.7040353546383337,0.07537735064175292,0.9943020215309131,0.07537735064175294,700.0,83.57142857142804,[1.56619257]
6.114820233433738e-18,0.7011290504632383,-1.448228095954415e-18,0.7011290504632383,-1.6162492661235867e-19,-0.00532686408391133,-1.448228095954415e-18,-0.00532686408391133,4.214806490152773e-18,0.7011492857333955,4.19289092954058e-18,-0.7011492857333955,0.0738302090618466,0.9945341625403162,0.0738302090618466,700.0,83.57142857142804,[1.56619257]
5.690203402796739e-18,0.69614001501454,-1.1600244417564653e-18,0.69614001501454,-4.307948164499587e-19,-0.007515756177177154,-1.1600244417564653e-18,-0.007515756177177154,3.5395574365051134e-18,0.6961805851180849,3.514519590017353e-18,-0.6961805851180849,0.07158051367971542,0.9948630358610657,0.07158051367971544,700.0,83.57142857142804,[1.57288662]
5.247137135777358e-18,0.6866959988875558,-8.969177454192007e-19,0.6866959988875558,-8.597700455786281e-19,-0.011084152606956136,-8.969177454192007e-19,-0.011084152606956136,2.6514626361829184e-18,0.6867854492686872,2.6234011949214235e-18,-0.6867854492686872,0.06782016352665748,0.9953897984400054,0.06782016352665748,700.0,83.57142857142804,[1.57849888]
4.674380063949143e-18,0.6637812245505377,-7.317054762384866e-19,0.6637812245505377,-1.7973255613288058e-18,-0.018324726142734768,-7.317054762384866e-19,-0.018324726142734768,1.2007967436436688e-18,0.6640341178388485,1.1652911370388026e-18,-0.6640341178388484,0.059750022508369714,0.996423539274589,0.05975002250836972,700.0,83.57142857142804,[1.5646819]
3.2464352330989853e-18,0.5465229035466369,-9.546440041491892e-19,0.5465229035466369,-6.5261049934726114e-18,-0.03602709514183656,-9.546440041491892e-19,-0.03602709514183656,-2.7858553553133536e-18,0.5477090794257526,-2.8678915250407927e-18,-0.5477090794257526,0.032779912523463434,0.9989248994143194,0.03277991252346342,700.0,83.57142857142804,[1.5282757]
3.0772617017857116e-18,0.5435372246234316,-1.0101614216484033e-18,0.5435372246234316,-6.571815385094378e-18,-0.04232375319339827,-1.0101614216484033e-18,-0.04232375319339827,-2.9056246068884052e-18,0.5451825516611095,-3.0232578815890808e-18,-0.5451825516611095,0.18102393562680955,0.9666750588798498,0.18102393562680955,700.0,70.71428571428592,[1.50005193]
4.453376843019369e-18,0.660203001098462,-3.4085758971297476e-19,0.660203001098462,-1.9012194268784205e-18,-0.02607034094645478,-3.4085758971297476e-19,-0.02607034094645478,5.684080792848381e-19,0.6607175382389062,5.546957151731363e-19,-0.6607175382389061,0.20702563908257385,0.9561803017866994,0.20702563908257385,700.0,70.71428571428592,[1.5299107]
4.928174275324167e-18,0.683734889501221,-8.709020516230849e-20,0.683734889501221,-1.0439587823219883e-18,-0.017762780215121877,-8.709020516230849e-20,-0.017762780215121877,1.5212433593206263e-18,0.6839655806268453,1.5191983054305413e-18,-0.6839655806268453,0.21613054356356504,0.9521424138635123,0.21613054356356504,700.0,70.71428571428592,[1.54358903]
5.269493087698887e-18,0.6932878453657926,4.151513996563803e-20,0.6932878453657926,-6.895800094589294e-19,-0.01418090557837755,4.151513996563803e-20,-0.01418090557837755,1.9214110833454246e-18,0.6934328623702268,1.9257321117020315e-18,-0.6934328623702267,0.21984466002540745,0.9504402405815034,0.21984466002540745,700.0,70.71428571428592,[1.53742217]
5.601040312099941e-18,0.6981500888718681,1.2682854824748554e-19,0.6981500888718681,-5.061301033301181e-19,-0.012466779567793714,1.2682854824748554e-19,-0.012466779567793714,2.115105789381767e-18,0.6982613888685165,2.121209826796128e-18,-0.6982613888685164,0.22158908962882176,0.9496296913612906,0.2215890896288218,700.0,70.71428571428592,[1.53742217]
5.900580816674022e-18,0.700783278226137,1.9148728894562663e-19,0.700783278226137,-3.818255949398487e-19,-0.011695769876624768,1.9148728894562663e-19,-0.011695769876624768,2.2187259550838547e-18,0.7008808701016017,2.225945948051391e-18,-0.7008808701016017,0.22237254014681823,0.9492633495386325,0.2223725401468183,700.0,70.71428571428592,[1.53574893]
6.178958732456546e-18,0.7020941611273254,2.3581401258215813e-19,0.7020941611273254,-3.2019437728891717e-19,-0.011506857966305168,2.3581401258215813e-19,-0.011506857966305168,2.2672680670545518e-18,0.7021884496838011,2.275962890298184e-18,-0.7021884496838011,0.22257399879980713,0.9491689154816054,0.22257399879980716,700.0,70.71428571428592,[1.53574893]
6.4502697340733005e-18,0.7024601683549618,2.748327343838082e-19,0.7024601683549618,-2.9329098056283204e-19,-0.01175092137002144,2.748327343838082e-19,-0.01175092137002144,2.2652120062444746e-18,0.7025584475887583,2.275545981963409e-18,-0.7025584475887585,0.22234658998757476,0.9492755068165378,0.22234658998757478,700.0,70.71428571428592,[1.53574893]
6.717799279519768e-18,0.7020162238540563,3.056264180762799e-19,0.7020162238540563,-2.727637569545956e-19,-0.01238333627160314,3.056264180762799e-19,-0.01238333627160314,2.235750986451421e-18,0.7021254343573693,2.247959514311323e-18,-0.7021254343573692,0.221734888373018,0.9495616244122392,0.22173488837301797,700.0,70.71428571428592,[1.53574893]
6.993455564291839e-18,0.7007386276056565,3.2512640614834766e-19,0.7007386276056565,-2.9279630716947972e-19,-0.013433777017528542,3.2512640614834766e-19,-0.013433777017528542,2.1797031926987828e-18,0.7008673844484529,2.1947707858611292e-18,-0.7008673844484529,0.2207068603208001,0.9500405063020577,0.2207068603208001,700.0,70.71428571428592,[1.53574893]
7.222458345528036e-18,0.6984374990811901,3.295166656338857e-19,0.6984374990811901,-3.464719472581206e-19,-0.01501569424885843,3.295166656338857e-19,-0.01501569424885843,2.082821395362917e-18,0.6985988914939406,2.0971422527819923e-18,-0.6985988914939406,0.21914294047721286,0.9507642942801343,0.2191429404772129,700.0,70.71428571428592,[1.53742217]
7.469902084545338e-18,0.6946519021149761,3.1459220773310943e-19,0.6946519021149761,-4.441003914190892e-19,-0.01738284581329805,3.1459220773310943e-19,-0.01738284581329805,1.928151571361966e-18,0.6948693607006452,1.947519861683662e-18,-0.6948693607006453,0.21677314697323075,0.9518502011885296,0.21677314697323075,700.0,70.71428571428592,[1.53742217]
7.65901728606604e-18,0.6883152874331021,2.702465397218459e-19,0.6883152874331021,-6.160678868099737e-19,-0.021096583174516393,2.702465397218459e-19,-0.021096583174516393,1.6909997944718082e-18,0.6886385123820433,1.7162842777238702e-18,-0.6886385123820433,0.2129862041921488,0.9535584689192588,0.2129862041921488,700.0,70.71428571428592,[1.55198015]
7.801729102788589e-18,0.6765804571382262,1.567825854570791e-19,0.6765804571382262,-9.405826413629524e-19,-0.0275650118142069,1.567825854570791e-19,-0.0275650118142069,1.2651472076984433e-18,0.6771417465034104,1.2813112539152547e-18,-0.6771417465034105,0.206179462065989,0.9565459000196274,0.206179462065989,700.0,70.71428571428592,[1.54698522]
7.770273492044728e-18,0.6488938164228941,-1.384291294907338e-19,0.6488938164228941,-1.7927371807774513e-18,-0.04123310166646972,-1.384291294907338e-19,-0.04123310166646972,3.3451791432406783e-19,0.6502025481839534,3.863379839634536e-19,-0.6502025481839532,0.19074712891343534,0.9629283803183716,0.19074712891343532,700.0,70.71428571428592,[1.50693573]
6.645408981802496e-18,0.5204925668425964,-1.1415537095122772e-18,0.5204925668425964,-6.436995953858965e-18,-0.0723545536163868,-1.1415537095122772e-18,-0.0723545536163868,-2.8789609956047325e-18,0.52549756761323,-2.4763551818298847e-18,-0.5254975676132301,0.13942183762730764,0.9803688603710592,0.13942183762730764,700.0,70.71428571428592,[1.46189709]
6.1331827641530145e-18,0.5150665119770655,-1.2816941254407798e-18,0.5150665119770655,-6.525045698225358e-18,-0.07673899736646246,-1.2816941254407798e-18,-0.07673899736646246,-2.7712467253102077e-18,0.5207517503350618,-3.5017455822275926e-18,-0.5207517503350618,0.2838671342163752,0.9158814880886963,0.28386713421637527,700.0,57.857142857142705,[1.44498811]
6.726040479962634e-18,0.6422977081581034,-1.5425106058467165e-19,0.6422977081581034,-2.0398613825090633e-18,-0.04667707833454911,-1.5425106058467165e-19,-0.04667707833454911,1.6902197631541705e-19,0.643991533754134,1.8442745374187241e-19,-0.6439915337541338,0.33181792129488696,0.8830593039060742,0.3318179212948869,700.0,57.857142857142705,[1.48634992]
6.170700574811123e-18,0.6709957049896706,2.499164435933385e-19,0.6709957049896706,-1.3402019058675368e-18,-0.032327030633442735,2.499164435933385e-19,-0.032327030633442735,8.554739118150978e-19,0.6717739746552858,8.997589588021471e-19,-0.671773974655286,0.34695589800251525,0.8713456315851571,0.34695589800251525,700.0,57.857142857142705,[1.51147713]
5.416206804224967e-18,0.6828269320005875,4.408132112077204e-19,0.6828269320005875,-1.1548215282100886e-18,-0.025905521663715812,4.408132112077204e-19,-0.025905521663715812,1.062237321897348e-18,0.6833181653651574,1.1021379321104728e-18,-0.6833181653651574,0.35323458090329307,0.8662855543688526,0.35323458090329307,700.0,57.857142857142705,[1.52197659]
4.6174971279705554e-18,0.6888357359896066,5.541135549634379e-19,0.6888357359896066,-1.163702863049494e-18,-0.022576430906882505,5.541135549634379e-19,-0.022576430906882505,1.089663477383521e-18,0.6892056053231402,1.1281230652093333e-18,-0.6892056053231401,0.35638907292403366,0.8636976655061048,0.3563890729240337,700.0,57.857142857142705,[1.5236474]
3.779980893663678e-18,0.6920489044188811,6.282597180142641e-19,0.6920489044188811,-1.2193850171219897e-18,-0.020788442814275738,6.282597180142641e-19,-0.020788442814275738,1.039701199698647e-18,0.6923610658189965,1.0823476861096655e-18,-0.6923610658189964,0.3580569103135728,0.862316935907788,0.3580569103135727,700.0,57.857142857142705,[1.50965228]
2.8990711780125744e-18,0.693595022354317,6.900781272840512e-19,0.693595022354317,-1.331431852669914e-18,-0.019930689444089256,6.900781272840512e-19,-0.019930689444089256,9.332290444914472e-19,0.6938813208441359,9.775867912849862e-19,-0.6938813208441359,0.3588508141410039,0.8616566522581238,0.3588508141410038,700.0,57.857142857142705,[1.50965228]
2.03141351616003e-18,0.6939453855754075,7.314796672403696e-19,0.6939453855754075,-1.4749501963390961e-18,-0.019741089640783985,7.314796672403696e-19,-0.019741089640783985,7.974590825658084e-19,0.6942261222264734,8.388029408522736e-19,-0.6942261222264736,0.3590259640502584,0.8615107162859702,0.3590259640502584,700.0,57.857142857142705,[1.50965228]
1.1334278975336882e-18,0.6932668281740247,7.563982763983764e-19,0.6932668281740247,-1.6465507272683884e-18,-0.020124504048897814,7.563982763983764e-19,-0.020124504048897814,6.3767984146929975e-19,0.6935588588646868,6.830905929457707e-19,-0.693558858864687,0.35867232375371805,0.8618052728698149,0.35867232375371805,700.0,57.857142857142705,[1.50965228]
2.2400464578242266e-19,0.6915251335722417,7.74008463732316e-19,0.6915251335722417,-1.827986435680936e-18,-0.021097376822485196,7.74008463732316e-19,-0.021097376822485196,4.5042569292926585e-19,0.6918468831113549,5.039015328221836e-19,-0.6918468831113548,0.35777085845870527,0.8625543609972894,0.35777085845870527,700.0,57.857142857142705,[1.50965228]
-7.108798456086845e-19,0.6884741139496277,7.676913758671279e-19,0.6884741139496277,-2.050796658508226e-18,-0.022792996117964873,7.676913758671279e-19,-0.022792996117964873,2.27154446157448e-19,0.6888513092466026,2.772668150897934e-19,-0.6888513092466026,0.3561866502790993,0.8638646539394406,0.3561866502790993,700.0,57.857142857142705,[1.5236474]
-1.6588383401714988e-18,0.6835218616476786,7.382956677995492e-19,0.6835218616476786,-2.321220586466199e-18,-0.02553146609693051,7.382956677995492e-19,-0.02553146609693051,-3.5525339357621156e-20,0.6839985315125809,1.4167999971201175e-20,-0.6839985315125809,0.3535928599040606,0.8659931748286095,0.3535928599040606,700.0,57.857142857142705,[1.51596877]
-2.6656044132031576e-18,0.6753089182506044,6.647428743600848e-19,0.6753089182506044,-2.6655111485890923e-18,-0.03003479090928868,6.647428743600848e-19,-0.03003479090928868,-3.6990017728511145e-19,0.6759764964359085,-3.188091218205104e-19,-0.6759764964359086,0.34922961029024036,0.8695270890507402,0.34922961029024047,700.0,57.857142857142705,[1.51271665]
-3.761717986509426e-18,0.66025139219559,5.086245343219314e-19,0.66025139219559,-3.177983245675655e-18,-0.03812256785052603,5.086245343219314e-19,-0.03812256785052603,-8.545158298706083e-19,0.6613510649237161,-7.697055749439185e-19,-0.661351064923716,0.34106539923593565,0.875984467264154,0.3410653992359356,700.0,57.857142857142705,[1.51147713]
-5.104660600240292e-18,0.6254763215790086,1.109848907377711e-19,0.6254763215790086,-4.212565489852305e-18,-0.055511683323408466,1.109848907377711e-19,-0.055511683323408466,-1.7494915450430226e-18,0.6279348499975181,-1.7742723966312363e-18,-0.6279348499975184,0.32180117724766116,0.8904425891903638,0.32180117724766116,700.0,57.857142857142705,[1.47783536]
-7.951774909617186e-18,0.48121312570357083,-1.176806806281966e-18,0.48121312570357083,-9.030229676110307e-18,-0.09388905425720412,-1.176806806281966e-18,-0.09388905425720412,-4.5588040106189725e-18,0.4902868822013422,-5.16781205537695e-18,-0.4902868822013423,0.2545864300783695,0.932937028550107,0.2545864300783695,700.0,57.857142857142705,[1.44105863]
-8.282576017105717e-18,0.47441801981982784,-1.1793808566389119e-18,0.47441801981982784,-9.01671054637147e-18,-0.0954922949722916,-1.1793808566389119e-18,-0.0954922949722916,-3.90210242718098e-18,0.48393309034291276,-4.70362854806006e-18,-0.48393309034291254,0.3915063181348379,0.8327338144455325,0.39150631813483777,700.0,45.00000000000011,[1.44818826]
-5.4849597819936905e-18,0.6171597967648373,2.6934396612010264e-19,0.6171597967648373,-4.186180082673089e-18,-0.05757397611252402,2.6934396612010264e-19,-0.05757397611252402,-3.8292754814978565e-19,0.619839477177939,-4.626698279729285e-19,-0.6198394771779392,0.4513957574951863,0.769729653989434,0.4513957574951864,700.0,45.00000000000011,[1.49698347]
-4.209167690389879e-18,0.6531344158721913,8.022622101901741e-19,0.6531344158721913,-3.1170708544393804e-18,-0.040021783122818115,8.022622101901741e-19,-0.040021783122818115,1.2459474151028984e-18,0.6543594641487493,1.3194656244716252e-18,-0.6543594641487493,0.4684830481874094,0.7490308852925004,0.4684830481874093,700.0,45.00000000000011,[1.47420332]
-3.2280069932197992e-18,0.6682509553645289,1.0937623511891773e-18,0.6682509553645289,-2.57115279495879e-18,-0.03203079615658032,1.0937623511891773e-18,-0.03203079615658032,2.5034681209511793e-18,0.6690181695948401,2.6022557274607656e-18,-0.66901816959484,0.4754879524372595,0.7401502645909444,0.47548795243725944,700.0,45.00000000000011,[1.48154777]
-2.33388761677653e-18,0.6759942827962305,1.2986965030455547e-18,0.6759942827962305,-2.2020326489913162e-18,-0.027744564790573994,1.2986965030455547e-18,-0.027744564790573994,3.620617104029824e-18,0.6765633978043809,3.711080110572461e-18,-0.6765633978043808,0.47907536833162256,0.735509063789047,0.4790753683316227,700.0,45.00000000000011,[1.47967915]
-1.5070544200807745e-18,0.680172260144043,1.4558129334279814e-18,0.680172260144043,-1.8981256647587213e-18,-0.02529234850833577,1.4558129334279814e-18,-0.02529234850833577,4.674676814993896e-18,0.6806423483464155,4.776747225817952e-18,-0.6806423483464155,0.4810749090375455,0.7328941695695462,0.4810749090375454,700.0,45.00000000000011,[1.4923274]
-7.236994907420314e-19,0.6822217487125404,1.587121561343301e-18,0.6822217487125404,-1.6560955126578495e-18,-0.023934421274744534,1.587121561343301e-18,-0.023934421274744534,5.691905482003432e-18,0.6826414658795296,5.7914821505428046e-18,-0.6826414658795295,0.48216183775889054,0.7314642331774933,0.4821618377588905,700.0,45.00000000000011,[1.4923274]
4.2189519962654624e-20,0.68274762583744,1.7009822876522806e-18,0.68274762583744,-1.4335619041972757e-18,-0.023347653078491373,1.7009822876522806e-18,-0.023347653078491373,6.68142608003428e-18,0.6831467144698383,6.792675808659283e-18,-0.6831467144698383,0.48261958872969213,0.7308602227161947,0.48261958872969224,700.0,45.00000000000011,[1.4923274]
7.931222780117694e-19,0.681967393816246,1.8019571297554235e-18,0.681967393816246,-1.23816829842972e-18,-0.02340523394245435,1.8019571297554235e-18,-0.02340523394245435,7.654108175925691e-18,0.6823689113701064,7.767411149991031e-18,-0.6823689113701059,0.48255580588474123,0.7309444496087617,0.48255580588474123,700.0,45.00000000000011,[1.4923274]
1.5222480735721485e-18,0.6798431007595692,1.8861448712393827e-18,0.6798431007595692,-1.0710084349201305e-18,-0.02410712218998596,1.8861448712393827e-18,-0.02410712218998596,8.606704465387937e-18,0.6802703837377226,8.729845992247644e-18,-0.6802703837377228,0.481967166471854,0.7317207806849444,0.481967166471854,700.0,45.00000000000011,[1.4923274]
2.2251919483839993e-18,0.6760692191057756,1.9504158484071697e-18,0.6760692191057756,-9.222852898910058e-19,-0.025580045385286902,1.9504158484071697e-18,-0.025580045385286902,9.528964319475106e-18,0.6765529748247411,9.66419455105762e-18,-0.676552974824741,0.4807377972796549,0.7333364442964847,0.48073779727965477,700.0,45.00000000000011,[1.47967915]
2.8959171383369097e-18,0.6699070510917806,1.984971977656123e-18,0.6699070510917806,-8.386608454794981e-19,-0.028147054619642557,1.984971977656123e-18,-0.028147054619642557,1.0425135517427813e-17,0.670498108711909,1.0584284051797367e-17,-0.6704981087119088,0.4785695799388753,0.7361673140762617,0.47856957993887517,700.0,45.00000000000011,[1.47967915]
3.49481161825694e-18,0.6596635286176139,1.982145953867427e-18,0.6596635286176139,-8.234417561842881e-19,-0.03254780609288976,1.982145953867427e-18,-0.03254780609288976,1.1272512365021782e-17,0.6604659950896049,1.145248962961244e-17,-0.660465995089605,0.4747524680961378,0.7410939131265696,0.4747524680961378,700.0,45.00000000000011,[1.48154777]
3.956759730323917e-18,0.6409124786103868,1.8885655119044426e-18,0.6409124786103868,-9.829242462360431e-19,-0.040652996641785316,1.8885655119044426e-18,-0.040652996641785316,1.2009048458099718e-17,0.6422004915713365,1.22382267655057e-17,-0.6422004915713365,0.4673458599353333,0.7504503277383572,0.4673458599353333,700.0,45.00000000000011,[1.47001592]
4.050058258794385e-18,0.5981393931748773,1.5418564287668093e-18,0.5981393931748773,-1.6259244100077076e-18,-0.058319131906364445,1.5418564287668093e-18,-0.058319131906364445,1.2442915442731745e-17,0.6009757522678617,1.255532608376981e-17,-0.6009757522678618,0.44911983489469276,0.7723876926831033,0.44911983489469276,700.0,45.00000000000011,[1.49828039]
2.252798274147344e-18,0.43643998131253525,3.006633893309243e-19,0.43643998131253525,-6.092273512983439e-18,-0.09635161446802674,3.006633893309243e-19,-0.09635161446802674,1.137364512107374e-17,0.44694909206606653,1.1206602980763344e-17,-0.44694909206606676,0.3804553727499647,0.8429160211381502,0.3804553727499647,700.0,45.00000000000011,[1.30766513]
2.4205389218445223e-18,0.42962108216396255,1.7156767634933728e-19,0.42962108216396255,-6.027700485645099e-18,-0.09485496521491225,1.7156767634933728e-19,-0.09485496521491225,1.2164503612544105e-17,0.43996788367522494,1.0883066764044726e-17,-0.43996788367522516,0.5035364486898404,0.7020698609694389,0.5035364486898404,700.0,32.14285714285738,[1.26318854]
5.18605517251551e-18,0.5897489839124846,1.0131462204938571e-18,0.5897489839124846,-1.4511889162556276e-18,-0.05658784410070805,1.0131462204938571e-18,-0.05658784410070805,1.4221310539533748e-17,0.5924576340345142,1.431286131615798e-17,-0.5924576340345142,0.5600545198429941,0.6104734798554863,0.560054519842994,700.0,32.14285714285738,[1.34426632]
6.046938431946398e-18,0.6336719896868052,9.610695916151151e-19,0.6336719896868052,-6.75286677440834e-19,-0.039307529437136335,9.610695916151151e-19,-0.039307529437136335,1.480241691397113e-17,0.6348899687222076,1.4897547953997506e-17,-0.6348899687222076,0.5742841825827291,0.5834341053371612,0.5742841825827288,700.0,32.14285714285738,[1.27547556]
6.4758878278367974e-18,0.6524326777475002,6.720796465071777e-19,0.6524326777475002,-3.899308728059659e-19,-0.03132755954644736,6.720796465071777e-19,-0.03132755954644736,1.5112682849162728e-17,0.6531843652292286,1.515167248914822e-17,-0.6531843652292284,0.5799922066965998,0.5720297897333824,0.5799922066965996,700.0,32.14285714285738,[1.27547556]
6.7715536116265265e-18,0.6621574407715505,2.9500339306483313e-19,0.6621574407715505,-2.7875945284006405e-19,-0.026931098988223927,2.9500339306483313e-19,-0.026931098988223927,1.5329395897845496e-17,0.6627048818756681,1.5351603523033255e-17,-0.662704881875668,0.5829416213268581,0.5660018836096109,0.5829416213268581,700.0,32.14285714285738,[1.30170573]
6.990098038185486e-18,0.6674964445778983,-1.2134150219966472e-19,0.6674964445778983,-2.468459976271557e-19,-0.024298509275038446,-1.2134150219966472e-19,-0.024298509275038446,1.5504529885857673e-17,0.667938560855057,1.5484978035383406e-17,-0.6679385608550569,0.5846424545562173,0.5624823558663529,0.5846424545562172,700.0,32.14285714285738,[1.30170573]
7.156346452057619e-18,0.6702201933796536,-5.6879544538075725e-19,0.6702201933796536,-2.811504184006486e-19,-0.022707721992372455,-5.6879544538075725e-19,-0.022707721992372455,1.5649005251646185e-17,0.6706047630698301,1.5603065359853172e-17,-0.6706047630698301,0.5856422381632316,0.5603983741574575,0.5856422381632315,700.0,32.14285714285738,[1.30170573]
7.319406911848972e-18,0.6710803912052391,-1.027524868437319e-18,0.6710803912052391,-3.1001157715323627e-19,-0.021838561829103258,-1.027524868437319e-18,-0.021838561829103258,1.5774471593367922e-17,0.6714356367090895,1.5702154893820455e-17,-0.6714356367090895,0.5861715634115665,0.5592904401965759,0.5861715634115665,700.0,32.14285714285738,[1.30170573]
7.425219855806755e-18,0.6703539176152199,-1.5065880970104478e-18,0.6703539176152199,-3.78518675484878e-19,-0.021557667871980903,-1.5065880970104478e-18,-0.021557667871980903,1.5893104182459052e-17,0.6707004606425672,1.5787087071019637e-17,-0.6707004606425673,0.5863231289999958,0.55897260827281,0.5863231289999958,700.0,32.14285714285738,[1.30170573]
7.539443572232978e-18,0.6680065934378653,-1.9888869717965483e-18,0.6680065934378653,-4.665604711625721e-19,-0.021848523964636372,-1.9888869717965483e-18,-0.021848523964636372,1.599169335812741e-17,0.6683637982984227,1.5852784959659326e-17,-0.6683637982984227,0.5861065071331877,0.559426782154974,0.5861065071331879,700.0,32.14285714285738,[1.30170573]
7.578648624545541e-18,0.663682259423436,-2.4997587328917618e-18,0.663682259423436,-6.09984490392529e-19,-0.022806199892885376,-2.4997587328917618e-18,-0.022806199892885376,1.6076682857344783e-17,0.6640739900244185,1.5900028829967703e-17,-0.6640739900244185,0.5854513378653328,0.5607971665258159,0.5854513378653329,700.0,32.14285714285738,[1.30170573]
7.589636891802695e-18,0.6565086708568758,-3.0250313982587938e-18,0.6565086708568758,-7.853897936456237e-19,-0.02469271187753525,-3.0250313982587938e-18,-0.02469271187753525,1.6143663807446264e-17,0.6569728799045881,1.589783406011986e-17,-0.6569728799045881,0.5841615423917866,0.5634807758751821,0.5841615423917869,700.0,32.14285714285738,[1.30170573]
7.525063864464356e-18,0.6444845137710543,-3.586713297166748e-18,0.6444845137710543,-1.0363224770890975e-18,-0.02811887233174595,-3.586713297166748e-18,-0.02811887233174595,1.6172185822147705e-17,0.6450976356117897,1.5846383405201787e-17,-0.6450976356117897,0.5817572102050738,0.5684338983108057,0.5817572102050738,700.0,32.14285714285738,[1.27547556]
7.28006620191595e-18,0.6224025595510178,-4.228416234942776e-18,0.6224025595510178,-1.447263323863604e-18,-0.03463596521554925,-4.228416234942776e-18,-0.03463596521554925,1.6134981719736908e-17,0.6233655398095654,1.5618104528254557e-17,-0.6233655398095652,0.5768965710406083,0.5782565975785976,0.5768965710406084,700.0,32.14285714285738,[1.27547556]
6.542360061861559e-18,0.5723077564034019,-5.07047911918534e-18,0.5723077564034019,-2.3780441722358356e-18,-0.04908016536508903,-5.07047911918534e-18,-0.04908016536508903,1.5897479140718845e-17,0.5744084180021738,1.4939576766745713e-17,-0.5744084180021738,0.5643902346374993,0.602434499420192,0.5643902346374993,700.0,32.14285714285738,[1.29342707]
3.55517925936106e-18,0.3950529605076966,-6.6477172810006136e-18,0.3950529605076966,-7.102422547925287e-18,-0.0792352255892491,-6.6477172810006136e-18,-0.0792352255892491,1.4525946683476308e-17,0.4029206653673583,1.1319365892063978e-17,-0.40292066536735854,0.5130520851937733,0.6881534100450584,0.5130520851937733,700.0,32.14285714285738,[1.2311574]
3.0015605102691196e-18,0.389561481049144,-6.20243385974686e-18,0.389561481049144,-7.154650731801885e-18,-0.07493389175201759,-6.20243385974686e-18,-0.07493389175201759,1.410004958404623e-17,0.3967029564426077,1.0840262329628394e-17,-0.3967029564426078,0.6112969971826244,0.5026250714707865,0.6112969971826245,700.0,19.285714285714306,[1.18902125]
5.35467759474567e-18,0.5655083061852181,-4.1319530685450445e-18,0.5655083061852181,-2.5331347468252405e-18,-0.043894544582817614,-4.1319530685450445e-18,-0.043894544582817614,1.4127588080999346e-17,0.5672092871318376,1.3493688297204029e-17,-0.5672092871318373,0.6473516605367929,0.4023327667497551,0.6473516605367929,700.0,19.285714285714306,[0.86661668]
5.435529536539053e-18,0.6164777672605738,-2.77377864761705e-18,0.6164777672605738,-1.6976194624201287e-18,-0.030306243641018565,-2.77377864761705e-18,-0.030306243641018565,1.304497244092872e-17,0.6172222500284734,1.2760963012188962e-17,-0.6172222500284734,0.655154086754222,0.3762263218044187,0.655154086754222,700.0,19.285714285714306,[0.8717319]
4.97999124703875e-18,0.6385200371613177,-1.5936166998353411e-18,0.6385200371613177,-1.382012008422971e-18,-0.023915630030029,-1.5936166998353411e-18,-0.023915630030029,1.1791156883839215e-17,0.6389677575717133,1.1655664681304822e-17,-0.6389677575717133,0.6582174852635849,0.36537581226261323,0.6582174852635849,700.0,19.285714285714306,[0.8717319]
4.3632917044335155e-18,0.6500808489280723,-4.864088767559351e-19,0.6500808489280723,-1.2350948054662026e-18,-0.020277774455995195,-4.864088767559351e-19,-0.020277774455995195,1.048450268358105e-17,0.6503970312662347,1.0445929960560847e-17,-0.6503970312662347,0.6598205617583872,0.35954645396901513,0.659820561758387,700.0,19.285714285714306,[0.86462554]
3.64050790262958e-18,0.6565470716582451,5.938412335579441e-19,0.6565470716582451,-1.1612292311264424e-18,-0.017984544542391616,5.938412335579441e-19,-0.017984544542391616,9.140746124127431e-18,0.656793347366898,9.17232295948807e-18,-0.6567933473668979,0.660781096832382,0.35600096086666544,0.6607810968323817,700.0,19.285714285714306,[0.86337859]
2.8895073157702363e-18,0.6599821371574583,1.6530262589949715e-18,0.6599821371574583,-1.1242625295514476e-18,-0.016474546121223337,1.6530262589949715e-18,-0.016474546121223337,7.783898604299549e-18,0.6601877248456128,7.864173876206143e-18,-0.6601877248456128,0.6613905621153182,0.3537301919395161,0.6613905621153182,700.0,19.285714285714306,[0.86337859]
2.0929257684367702e-18,0.6612687418123504,2.700574404177026e-18,0.6612687418123504,-1.1275183124424563e-18,-0.01549397492400118,2.700574404177026e-18,-0.01549397492400118,6.412671376703045e-18,0.6614502340743665,6.535927592374958e-18,-0.6614502340743664,0.6617726123427766,0.3522981962855247,0.6617726123427767,700.0,19.285714285714306,[0.8639728]
1.2613445550249604e-18,0.6607400937273544,3.7335732695648855e-18,0.6607400937273544,-1.1564133856001586e-18,-0.01492933407754785,3.7335732695648855e-18,-0.01492933407754785,5.0367639612007144e-18,0.660908735359756,5.2026487094603195e-18,-0.660908735359756,0.661980482273393,0.35151626161270505,0.661980482273393,700.0,19.285714285714306,[0.8639728]
4.048023394487505e-19,0.6583725510170856,4.7584623528296985e-18,0.6583725510170856,-1.2031474358481796e-18,-0.014750904892135252,4.7584623528296985e-18,-0.014750904892135252,3.656583330653936e-18,0.6585377780567201,3.8697020394188796e-18,-0.6585377780567202,0.662027613948985,0.3513386923440501,0.662027613948985,700.0,19.285714285714306,[0.8639728]
-5.133284358157077e-19,0.6537780638987353,5.775572319421333e-18,0.6537780638987353,-1.2958015906214693e-18,-0.015003269868344566,5.775572319421333e-18,-0.015003269868344566,2.2612090466157833e-18,0.6539501930131385,2.5241867025343317e-18,-0.6539501930131384,0.6618925707325677,0.35184719640501017,0.6618925707325677,700.0,19.285714285714306,[0.8639728]
-1.4721564972177748e-18,0.6459905403474118,6.781579557638552e-18,0.6459905403474118,-1.4320018415620007e-18,-0.015835514600068098,6.781579557638552e-18,-0.015835514600068098,8.566778731966687e-19,0.6461846034539899,1.1888472103709654e-18,-0.64618460345399,0.6615026255244959,0.35331084451003925,0.6615026255244959,700.0,19.285714285714306,[0.86337859]
-2.540053285468634e-18,0.6327868430427582,7.763948455490842e-18,0.6327868430427582,-1.636709190834174e-18,-0.01760862819789443,7.763948455490842e-18,-0.01760862819789443,-5.671845111378102e-19,0.6330317942370921,-1.3484039614824316e-19,-0.6330317942370922,0.6606717437961326,0.35640664121022514,0.6606717437961327,700.0,19.285714285714306,[0.86337859]
-3.780506566942955e-18,0.6083946190698286,8.694695389457959e-18,0.6083946190698286,-2.0119381690229284e-18,-0.021247230110317223,8.694695389457959e-18,-0.021247230110317223,-2.0394766659760438e-18,0.6087655191454936,-1.4397176258621603e-18,-0.6087655191454936,0.6588685240221078,0.3630213989641083,0.6588685240221078,700.0,19.285714285714306,[0.86918911]
-5.601031833498663e-18,0.5531026628979071,9.50493596345136e-18,0.5531026628979071,-2.8843523261928058e-18,-0.02960930043486801,9.50493596345136e-18,-0.02960930043486801,-3.631418842058848e-18,0.5538946347248709,-2.6293174127072417e-18,-0.5538946347248709,0.6539876198403465,0.3802635746309616,0.6539876198403466,700.0,19.285714285714306,[0.87321942]
-9.939905166249613e-18,0.36525219346783255,9.90387958941655e-18,0.36525219346783255,-7.56521852012013e-18,-0.04591527861265545,9.90387958941655e-18,-0.04591527861265545,-6.0955038600706116e-18,0.36812684993510153,-3.7208440193524216e-18,-0.3681268499351016,0.6330854417824846,0.44542748770832785,0.6330854417824848,700.0,19.285714285714306,[1.12923895]
-9.95889723311383e-18,0.3621744928298865,9.970987718537212e-18,0.3621744928298865,-7.520315847748301e-18,-0.0396606734143164,9.970987718537212e-18,-0.0396606734143164,-5.96242373440063e-18,0.36433958372960606,-3.921445781600164e-18,-0.3643395837296062,0.6898668277897616,0.21947099997626826,0.6898668277897614,700.0,6.428571428571418,[0.44607082]
-5.414909578229331e-18,0.5492381015157237,9.149089067785641e-18,0.5492381015157237,-2.7214275240219113e-18,-0.021994892858240793,9.149089067785641e-18,-0.021994892858240793,-3.5260128709624404e-18,0.5496783309067604,-2.7911979323510763e-18,-0.5496783309067604,0.6989299402213569,0.1516373216735908,0.698929940221357,700.0,6.428571428571418,[0.33707965]
-3.370820553157692e-18,0.6049545284355177,7.941091872006063e-18,0.6049545284355177,-1.732754786118931e-18,-0.014788303052875458,7.941091872006063e-18,-0.014788303052875458,-1.9335280643978018e-18,0.6051352537919296,-1.5459095331437739e-18,-0.6051352537919295,0.7005160125682036,0.13621538925939444,0.7005160125682036,700.0,6.428571428571418,[0.33638902]
-1.9393613420775257e-18,0.6292638400686329,6.635802726553765e-18,0.6292638400686329,-1.2692126970115648e-18,-0.011251446880810837,6.635802726553765e-18,-0.011251446880810837,-4.51061588025166e-19,0.6293644218374864,-2.1398083160103717e-19,-0.6293644218374863,0.701132971832602,0.1297116479672042,0.701132971832602,700.0,6.428571428571418,[0.3350921]
-6.701486450659609e-19,0.64214957122052,5.30341597141484e-18,0.64214957122052,-9.44177038392528e-19,-0.009091673851727303,5.30341597141484e-18,-0.009091673851727303,9.916572055530717e-19,0.6422139288057555,1.1418484890941938e-18,-0.6422139288057556,0.7014694238380343,0.1260210095209203,0.7014694238380345,700.0,6.428571428571418,[0.3350921]
4.6937536678709e-19,0.649483800469409,3.951460604524749e-18,0.649483800469409,-6.986367453622872e-19,-0.007591256203262868,3.951460604524749e-18,-0.007591256203262868,2.420674579464981e-18,0.6495281627788979,2.5128921818027797e-18,-0.6495281627788979,0.7016873544482671,0.12357068104847437,0.7016873544482671,700.0,6.428571428571418,[0.3350921]
1.5725431363572105e-18,0.6535241736717639,2.5941128472214246e-18,0.6535241736717639,-5.119718596111207e-19,-0.006460665548094806,2.5941128472214246e-18,-0.006460665548094806,3.83721145229469e-18,0.6535561075934383,3.888434522343976e-18,-0.6535561075934382,0.7018436732389436,0.12178225104231835,0.7018436732389435,700.0,6.428571428571418,[0.3350921]
2.6100526176253214e-18,0.6552426199883251,1.2266162041875341e-18,0.6552426199883251,-3.5053929126527186e-19,-0.005562737978540982,1.2266162041875341e-18,-0.005562737978540982,5.2426244002467864e-18,0.6552662322315889,5.2633058763412835e-18,-0.6552662322315889,0.7019632187167103,0.12039634187861238,0.7019632187167102,700.0,6.428571428571418,[0.3350921]
3.644306316002424e-18,0.6550144897397868,-1.4174525617678055e-19,0.6550144897397868,-2.1813745369758403e-19,-0.0048263200686460865,-1.4174525617678055e-19,-0.0048263200686460865,6.65047918536714e-18,0.655032270300081,6.648139842969448e-18,-0.655032270300081,0.7020582328879619,0.11928317261233931,0.7020582328879617,700.0,6.428571428571418,[0.3350921]
4.5993359640316474e-18,0.6528313743155979,-1.513362499432104e-18,0.6528313743155979,-1.1476634690805727e-19,-0.004214376381784084,-1.513362499432104e-18,-0.004214376381784084,8.047481360850796e-18,0.6528449772029186,8.027784281584746e-18,-0.6528449772029188,0.7021349217473091,0.11837695436950864,0.7021349217473092,700.0,6.428571428571418,[0.3350921]
5.541342480496836e-18,0.648298408712405,-2.8891173001114175e-18,0.648298408712405,-3.065862222366542e-20,-0.0037121713423099757,-2.8891173001114175e-18,-0.0037121713423099757,9.440413807720692e-18,0.6483090366137982,9.407198314952326e-18,-0.6483090366137982,0.7021957966722294,0.11765256593762292,0.7021957966722292,700.0,6.428571428571418,[0.3350921]
6.408465990468825e-18,0.6404139580281619,-4.26449904233447e-18,0.6404139580281619,1.3565762045869654e-21,-0.0033263307143902754,-4.26449904233447e-18,-0.0033263307143902754,1.0829276525976827e-17,0.6404225965043067,1.078486610006501e-17,-0.6404225965043068,0.7022399538296856,0.11712426943448266,0.7022399538296857,700.0,6.428571428571418,[0.3350921]
7.18008653563789e-18,0.6268634353651653,-5.6473080392776355e-18,0.6268634353651653,-4.5309645233204644e-20,-0.0030965207837370667,-5.6473080392776355e-18,-0.0030965207837370667,1.2194263503032232e-17,0.6268710832689455,1.2138338566436246e-17,-0.6268710832689457,0.7022609937505946,0.11687169594411814,0.7022609937505948,700.0,6.428571428571418,[0.3350921]
7.728143322291024e-18,0.6016372401872547,-7.0375103765358e-18,0.6016372401872547,-2.544936959805147e-19,-0.0031375630270173557,-7.0375103765358e-18,-0.0031375630270173557,1.3541072358946173e-17,0.6016454213919401,1.3467552810243479e-17,-0.60164542139194,0.702238213764762,0.11714513330460265,0.7022382137647619,700.0,6.428571428571418,[0.33638902]
7.723802278436346e-18,0.5443002459426681,-8.44341508336206e-18,0.5443002459426681,-9.82161172120963e-19,-0.0037631843344132793,-8.44341508336206e-18,-0.0037631843344132793,1.4781254325179575e-17,0.5443132547436115,1.4664193815188948e-17,-0.5443132547436116,0.7020964904810085,0.11883196585305453,0.7020964904810085,700.0,6.428571428571418,[0.32630208]
5.067083439373233e-18,0.35291072436165366,-9.863360353905793e-18,0.35291072436165366,-5.4952188895408794e-18,-0.0029926672415778507,-9.863360353905793e-18,-0.0029926672415778507,1.5257683888230517e-17,0.3529234129760817,1.5089627324866277e-17,-0.35292341297608165,0.7019640384210658,0.12038678302528563,0.7019640384210656,700.0,6.428571428571418,[0.27424814]
5.368785987273374e-18,0.3528533114316594,-9.672269638287162e-18,0.3528533114316594,-5.513668325923262e-18,0.003975297296160385,-9.672269638287162e-18,0.003975297296160385,1.5659773075270094e-17,0.35287570386310313,1.5876267065489373e-17,-0.3528757038631032,0.7017241597021697,0.12315196864268163,0.7017241597021697,700.0,6.428571428571418,[0.27424814]
8.647359358519152e-18,0.5441281354428862,-8.496762442607442e-18,0.5441281354428862,-1.0092926962127022e-18,0.004768479792239792,-8.496762442607442e-18,0.004768479792239792,1.5976126646179774e-17,0.5441490293844886,1.6124459436701645e-17,-0.5441490293844885,0.701939872886269,0.12066826303886424,0.701939872886269,700.0,6.428571428571418,[0.32630208]
9.271384412629156e-18,0.6013506827869551,-7.302958425368355e-18,0.6013506827869551,-3.130977880186716e-19,0.004165508118085801,-7.302958425368355e-18,0.004165508118085801,1.5532797542520754e-17,0.6013651096848064,1.5633678150349307e-17,-0.6013651096848064,0.7020953882338825,0.11884498997192926,0.7020953882338825,700.0,6.428571428571418,[0.33638902]
9.333244287558322e-18,0.6264627767299995,-6.093129851712584e-18,0.6264627767299995,-1.2860342419484432e-19,0.004147205745071401,-6.093129851712584e-18,0.004147205745071401,1.4990167060685968e-17,0.6264765039039797,1.5070552200684654e-17,-0.6264765039039796,0.7021211433848462,0.11854028861072301,0.702121143384846,700.0,6.428571428571418,[0.3350921]
9.172625664935225e-18,0.6398996380664158,-4.876365782210863e-18,0.6398996380664158,-1.1503766214897466e-19,0.004399855962283342,-4.876365782210863e-18,0.004399855962283342,1.4423118207168616e-17,0.6399147642694448,1.4489947689047677e-17,-0.6399147642694447,0.7020996785767749,0.1187942872564921,0.7020996785767749,700.0,6.428571428571418,[0.3350921]
8.919759860400215e-18,0.6476709606781186,-3.6546502095623994e-18,0.6476709606781186,-1.6387440551410542e-19,0.004808625735378545,-3.6546502095623994e-18,0.004808625735378545,1.3830023090523196e-17,0.6476888112258697,1.388399713786979e-17,-0.6476888112258697,0.7020534897613172,0.11933899206844392,0.7020534897613172,700.0,6.428571428571418,[0.3350921]
8.592011049372004e-18,0.6520914237727776,-2.4326124500653463e-18,0.6520914237727776,-2.707726104355583e-19,0.005333831908436199,-2.4326124500653463e-18,0.005333831908436199,1.3238013234841445e-17,0.6521132376518942,1.3277487443291299e-17,-0.6521132376518944,0.7019895751104901,0.12008860425697057,0.7019895751104901,700.0,6.428571428571418,[0.3350921]
8.241471758106732e-18,0.6541627533986144,-1.203723980735129e-18,0.6541627533986144,-3.977481431848983e-19,0.0059688304056312435,-1.203723980735129e-18,0.0059688304056312435,1.2635150769522997e-17,0.6541899837741845,1.2656850787138889e-17,-0.6541899837741842,0.7019090393503924,0.12102644734279577,0.7019090393503924,700.0,6.428571428571418,[0.3350921]
7.84101046251266e-18,0.6542799044255599,2.7063695281509962e-20,0.6542799044255599,-5.507699390623079e-19,0.006728338326791509,2.7063695281509962e-20,0.006728338326791509,1.2029575151795374e-17,0.6543144992064286,1.2028537043800717e-17,-0.6543144992064285,0.7018093747823252,0.12217693290995593,0.7018093747823252,700.0,6.428571428571418,[0.3350921]
7.41124712089951e-18,0.6524513739429582,1.2578174568930343e-18,0.6524513739429582,-7.374348248134744e-19,0.007649373051459549,1.2578174568930343e-18,0.007649373051459549,1.141911585973124e-17,0.6524962132212986,1.1388924970421084e-17,-0.6524962132212986,0.7016842164378512,0.12360631377076857,0.7016842164378512,700.0,6.428571428571418,[0.3350921]
6.943499645557924e-18,0.6483018986579318,2.4964054460860484e-18,0.6483018986579318,-9.544870175473888e-19,0.008803070787742538,2.4964054460860484e-18,0.008803070787742538,1.0799974479957749e-17,0.6483616628539763,1.0731618419885152e-17,-0.6483616628539765,0.7015209380410787,0.1254461915720443,0.7015209380410788,700.0,6.428571428571418,[0.3350921]
6.411721773359834e-18,0.6408596349751352,3.743675522988419e-18,0.6408596349751352,-1.2187480622009297e-18,0.010326579622052117,3.743675522988419e-18,0.010326579622052117,1.0171608381993066e-17,0.6409428289536859,1.0050033646622323e-17,-0.640942828953686,0.7012938726467096,0.1279601827771477,0.7012938726467096,700.0,6.428571428571418,[0.3350921]
5.764906239012768e-18,0.6278670213000572,5.007902802448127e-18,0.6278670213000572,-1.558434743829506e-18,0.01250941473345254,5.007902802448127e-18,0.01250941473345254,9.524792847646001e-18,0.6279916256552949,9.324371141762354e-18,-0.6279916256552949,0.7009441615474025,0.13173672527134242,0.7009441615474026,700.0,6.428571428571418,[0.3350921]
4.937937384696554e-18,0.6034520627704599,6.308893297052142e-18,0.6034520627704599,-2.0565695261538395e-18,0.016069297017701364,6.308893297052142e-18,0.016069297017701364,8.848675267279858e-18,0.603665979137939,8.511964649979427e-18,-0.6036659791379388,0.7003041562766507,0.138376939564716,0.7003041562766505,700.0,6.428571428571418,[0.33638902]
3.507563434580058e-18,0.5476313113028417,7.694601975632612e-18,0.5476313113028417,-3.0788853539305766e-18,0.023298892393335855,7.694601975632612e-18,0.023298892393335855,8.054806872355566e-18,0.5481267111772842,7.394359237903242e-18,-0.5481267111772842,0.698660306404991,0.1541024091575727,0.698660306404991,700.0,6.428571428571418,[0.33879043]
-4.1891073197645496e-19,0.3604648065414898,9.466324413228303e-18,0.3604648065414898,-7.88984720587779e-18,0.04098776786259898,9.466324413228303e-18,0.04098776786259898,6.4052102075778165e-18,0.3627876429391608,4.263069084514979e-18,-0.3627876429391608,0.6892169600709916,0.2235172563830435,0.6892169600709913,700.0,6.428571428571418,[0.44037804]
-9.268128629738148e-19,0.3634411095254504,9.850371136746873e-18,0.3634411095254504,-7.990776475499061e-18,0.047283891024222216,9.850371136746873e-18,0.047283891024222216,5.750255216003229e-18,0.36650403332498405,3.133373055451442e-18,-0.3665040333249837,0.6317184370644916,0.4492923686705483,0.6317184370644915,700.0,19.28571428571425,[1.12923895]
1.7125418006705853e-18,0.5511930071708673,8.281999472218768e-18,0.5511930071708673,-3.3697352921940224e-18,0.031042641299042703,8.281999472218768e-18,0.031042641299042703,6.361257138549199e-18,0.5520664604310652,5.404260105867165e-18,-0.5520664604310653,0.6532382585975709,0.38283097446369946,0.6532382585975711,700.0,19.28571428571425,[0.87167283]
1.8731604232936818e-18,0.6063880344444902,7.12762095092549e-18,0.6063880344444902,-2.5481927426961558e-18,0.022744373049224054,7.12762095092549e-18,0.022744373049224054,6.0964534634138224e-18,0.6068144319500439,5.553868643747446e-18,-0.6068144319500439,0.6582037672225982,0.36542523397811394,0.6582037672225982,700.0,19.28571428571425,[0.86918911]
1.4477381255352095e-18,0.6306851223999633,6.090043640847149e-18,0.6306851223999633,-2.2519164996143625e-18,0.01916896557712469,6.090043640847149e-18,0.01916896557712469,5.706302146974611e-18,0.6309763647379782,5.331812942482645e-18,-0.6309763647379779,0.6600232493929644,0.3588016450930873,0.6600232493929642,700.0,19.28571428571425,[0.86337859]
8.443330297349274e-19,0.6437955597489939,5.101472646159513e-18,0.6437955597489939,-2.110832574337318e-18,0.017458482817447704,5.101472646159513e-18,0.017458482817447704,5.283050371143478e-18,0.6440322362854267,5.0039187677136495e-18,-0.6440322362854264,0.6608501373574148,0.3557445599153584,0.6608501373574147,700.0,19.28571428571425,[0.86337859]
1.2371974985833124e-19,0.6514917643495491,4.136675649457263e-18,0.6514917643495491,-2.0511432213354917e-18,0.01668828760414388,4.136675649457263e-18,0.01668828760414388,4.83429496266611e-18,0.6517054687191502,4.61919911028632e-18,-0.6517054687191504,0.6612270960554663,0.3543408738546975,0.6612270960554664,700.0,19.28571428571425,[0.86337859]
-6.576681439837608e-19,0.6559969309892911,3.1835452081144614e-18,0.6559969309892911,-2.032693784953109e-18,0.016497358476097786,3.1835452081144614e-18,0.016497358476097786,4.369260639733698e-18,0.6562043403575272,4.206096234051238e-18,-0.6562043403575272,0.6613439513725587,0.3539044446822632,0.661343951372559,700.0,19.28571428571425,[0.86337859]
-1.4585907351719052e-18,0.6582772042201274,2.242725695828286e-18,0.6582772042201274,-2.0413758726624655e-18,0.01673657387372749,2.242725695828286e-18,0.01673657387372749,3.9015131643921125e-18,0.6584899319662363,3.785398675971663e-18,-0.6584899319662364,0.661274831364078,0.35416266715849704,0.661274831364078,700.0,19.28571428571425,[0.86337859]
-2.30943533068885e-18,0.6587206823044907,1.3124535635327743e-18,0.6587206823044907,-2.0815305283182397e-18,0.017361315273525073,1.3124535635327743e-18,0.017361315273525073,3.4250836013411706e-18,0.6589494309609198,3.3482206937876904e-18,-0.6589494309609197,0.6610414752322515,0.3550328661483853,0.6610414752322513,700.0,19.28571428571425,[0.86337859]
-3.1841556674065255e-18,0.6573510520333871,3.8916779869088574e-19,0.6573510520333871,-2.1455609251747445e-18,0.018401266846311225,3.8916779869088574e-19,0.018401266846311225,2.933460384798854e-18,0.6576085554727449,2.9064153712141046e-18,-0.6576085554727451,0.6606299448269489,0.3565615683102781,0.6606299448269489,700.0,19.28571428571425,[0.86337859]
-4.102286442670983e-18,0.6538351470981505,-5.174320788345833e-19,0.6538351470981505,-2.2443196728686755e-18,0.019969893537977304,-5.174320788345833e-19,0.019969893537977304,2.4374961244018594e-18,0.6541400432849056,2.4641349851786557e-18,-0.6541400432849056,0.6599855178061488,0.3589404303952098,0.6599855178061488,700.0,19.28571428571425,[0.86462554]
-5.0659981784095635e-18,0.6472903105226624,-1.4106696807448706e-18,0.6472903105226624,-2.38540359814572e-18,0.022320971734064818,-1.4106696807448706e-18,0.022320971734064818,1.9252529495498213e-18,0.6476750511449995,2.012750400847864e-18,-0.6476750511449993,0.6589811997805625,0.36261212979096685,0.6589811997805625,700.0,19.28571428571425,[0.8717319]
-6.112189747387031e-18,0.6356531491851671,-2.2677206123978007e-18,0.6356531491851671,-2.603541051843304e-18,0.026015875013012238,-2.2677206123978007e-18,0.026015875013012238,1.388048772533383e-18,0.6361853124850598,1.5692610921717744e-18,-0.6361853124850597,0.657317623187832,0.3686015253541396,0.657317623187832,700.0,19.28571428571425,[0.8717319]
-7.364580899461718e-18,0.6135368369301137,-3.0595541430152124e-18,0.6135368369301137,-2.988808693946002e-18,0.032462732559041765,-3.0595541430152124e-18,0.032462732559041765,7.803026328784226e-19,0.6143950514737312,1.0761462189264257e-18,-0.6143950514737311,0.6541543464036773,0.3796895865866692,0.6541543464036773,700.0,19.28571428571425,[0.8678922]
-9.103168963260373e-18,0.5624957089752918,-3.665706305629783e-18,0.5624957089752918,-3.885234249937069e-18,0.0461065313051626,-3.665706305629783e-18,0.0461065313051626,6.5115657820174346e-21,0.5643821709131235,5.584564320513735e-19,-0.5643821709131234,0.6461164314162826,0.40628452358879763,0.6461164314162826,700.0,19.28571428571425,[0.87262341]
-1.3138169226183844e-17,0.38647978089143076,-3.5600290192924586e-18,0.38647978089143076,-8.578987917807969e-18,0.07720094528671555,-3.5600290192924586e-18,0.07720094528671555,-1.875330945221021e-18,0.3941149667178991,-1.1167794753930056e-18,-0.39411496671789925,0.6087489313179708,0.5087725201290425,0.6087489313179706,700.0,19.28571428571425,[1.18880201]
-1.3531033695032229e-17,0.3919059981404788,-3.930577809575388e-18,0.3919059981404788,-8.497593345532751e-18,0.08156936411296653,-3.930577809575388e-18,0.08156936411296653,-3.0875674416399332e-18,0.40030472460399297,-2.3535643571225724e-18,-0.4003047246039929,0.5095043868186329,0.693405047302901,0.5095043868186329,700.0,32.142857142857125,[1.2311574]
-1.078532345694821e-17,0.5691035781566659,-5.165977844687623e-18,0.5691035781566659,-3.62911266251105e-18,0.05150222192191832,-5.165977844687623e-18,0.05150222192191832,-3.1407452288597426e-18,0.5714292270558226,-2.356117823381974e-18,-0.5714292270558226,0.5623809226035861,0.6061809925946859,0.5623809226035861,700.0,32.142857142857125,[1.29342707]
-1.0288273935587545e-17,0.6191429943228519,-5.666283148939296e-18,0.6191429943228519,-2.565556918114869e-18,0.03714397501374494,-5.666283148939296e-18,0.03714397501374494,-4.326935462150585e-18,0.6202561747366072,-3.6303686294509825e-18,-0.6202561747366074,0.5751209800128155,0.5817832213962499,0.5751209800128155,700.0,32.142857142857125,[1.27547556]
-1.0270909760168832e-17,0.6411716663658554,-5.965950832532556e-18,0.6411716663658554,-2.0055622608613696e-18,0.030711381752963025,-5.965950832532556e-18,0.030711381752963025,-5.706302146974611e-18,0.6419067648183371,-5.135046374626026e-18,-0.641906764818337,0.5800396996401241,0.5719334696298073,0.5800396996401239,700.0,32.142857142857125,[1.27547556]
-1.0448892558210642e-17,0.6531447206378467,-6.183511741343191e-18,0.6531447206378467,-1.6061862262309672e-18,0.027368369662793122,-6.183511741343191e-18,0.027368369662793122,-7.168148665037525e-18,0.6537178701512528,-6.654699766610976e-18,-0.6537178701512527,0.5824494591190167,0.5670143341609014,0.5824494591190166,700.0,32.142857142857125,[1.28611303]
-1.0700673101781983e-17,0.6602694118500654,-6.370922744006881e-18,0.6602694118500654,-1.3023131564034868e-18,0.025563665099215156,-6.370922744006881e-18,0.025563665099215156,-8.656041446228509e-18,0.6607641010210343,-8.160868574867088e-18,-0.6607641010210344,0.5837216066660543,0.5643918601666761,0.5837216066660543,700.0,32.142857142857125,[1.30170573]
-1.0989352518118089e-17,0.6645470656210203,-6.5350006359516745e-18,0.6645470656210203,-1.0288273935587545e-18,0.024686443815236766,-6.5350006359516745e-18,0.024686443815236766,-1.0169980490547562e-17,0.6650054307550816,-9.6792116918384e-18,-0.6650054307550815,0.5843462537259,0.5630976038956416,0.5843462537258999,700.0,32.142857142857125,[1.30170573]
-1.1327953938782996e-17,0.6668499320230223,-6.679170772094154e-18,0.6668499320230223,-7.94411025406127e-19,0.024474671768637025,-6.679170772094154e-18,0.024474671768637025,-1.1685004795830285e-17,0.6672989145782359,-1.1192071677764086e-17,-0.6672989145782361,0.584523480240354,0.5627295994484465,0.5845234802403543,700.0,32.142857142857125,[1.30170573]
-1.1681749012939276e-17,0.6675341722168906,-6.81438750528636e-18,0.6675341722168906,-5.838703984542299e-19,0.024833260431922573,-6.81438750528636e-18,0.024833260431922573,-1.3227160625204749e-17,0.6679959295541917,-1.2713130451177693e-17,-0.6679959295541917,0.584324897278054,0.5631419260204157,0.5843248972780541,700.0,32.142857142857125,[1.30170573]
-1.2057249306368948e-17,0.6666339652967807,-6.92989996910694e-18,0.6666339652967807,-4.102286442670984e-19,0.02577870839928253,-6.92989996910694e-18,0.02577870839928253,-1.4776913281324897e-17,0.667132209905986,-1.4249063903374226e-17,-0.6671322099059862,0.5837403597718812,0.5643530674558165,0.5837403597718812,700.0,32.142857142857125,[1.30170573]
-1.24870126479821e-17,0.6638724308671536,-7.033983278403874e-18,0.6638724308671536,-2.4526897778932334e-19,0.02744436159060343,-7.033983278403874e-18,0.02744436159060343,-1.6348371156718437e-17,0.6644394610862447,-1.5757620152576592e-17,-0.6644394610862446,0.5826745644254973,0.5665515898337184,0.5826745644254971,700.0,32.142857142857125,[1.30170573]
-1.2949333818505338e-17,0.658497865066712,-7.111240293255102e-18,0.658497865066712,-1.367428814223661e-19,0.03015038478212665,-7.111240293255102e-18,0.03015038478212665,-1.793936372945803e-17,0.65918774563847,-1.728574838934667e-17,-0.6591877456384699,0.5808907658474015,0.5702033289156063,0.5808907658474014,700.0,32.142857142857125,[1.30170573]
-1.3468088559139394e-17,0.648739768656756,-7.148783539717046e-18,0.648739768656756,-1.0201453058493981e-19,0.03461884472366312,-7.148783539717046e-18,0.03461884472366312,-1.9582448828453763e-17,0.6496627985707832,-1.8797152925828833e-17,-0.6496627985707837,0.5778268578141191,0.5763959097506882,0.5778268578141192,700.0,32.142857142857125,[1.27547556]
-1.4151802966251223e-17,0.6299479970819931,-7.091976911149967e-18,0.6299479970819931,-2.4526897778932334e-19,0.04266940111295151,-7.091976911149967e-18,0.04266940111295151,-2.131344006550673e-17,0.6313914449998137,-2.0319745644357154e-17,-0.6313914449998137,0.5719318441818522,0.58803735529428,0.5719318441818521,700.0,32.142857142857125,[1.27547556]
-1.5254428105339508e-17,0.5859962438563013,-6.8011269728865224e-18,0.5859962438563013,-8.942550340637276e-19,0.06001899408928105,-6.8011269728865224e-18,0.06001899408928105,-2.332008758733177e-17,0.5890618621716932,-2.2015511001946126e-17,-0.5890618621716932,0.557277476467148,0.6155352373705462,0.5572774764671482,700.0,32.142857142857125,[1.34482777]
-1.8249748365067528e-17,0.4258423012926085,-5.6209395893009764e-18,0.4258423012926085,-5.3286313316176e-18,0.09835454834940405,-5.6209395893009764e-18,0.09835454834940405,-2.6796178453965413e-17,0.4370529518847801,-2.3879091940454007e-17,-0.43705295188478077,0.49870584550617003,0.7089322670861808,0.4987058455061701,700.0,32.142857142857125,[1.26318854]
-1.7715799970942098e-17,0.43263873871778447,-5.127858053338729e-18,0.43263873871778447,-5.25266306416073e-18,0.09992663191431504,-5.127858053338729e-18,0.09992663191431504,-2.754283799697008e-17,0.4440288391591861,-2.4364576888032612e-17,-0.44402883915918634,0.3746514611905544,0.8480993840674365,0.3746514611905543,700.0,45.0,[1.29447575]
-1.425815854069084e-17,0.5943281482002616,-5.4732423550265705e-18,0.5943281482002616,-6.576681439837608e-19,0.06198783983403936,-5.4732423550265705e-18,0.06198783983403936,-2.4964257947291175e-17,0.59755203960027,-2.3729617222446973e-17,-0.59755203960027,0.4454342660451206,0.7766444677364861,0.44543426604512054,700.0,45.0,[1.49828039]
-1.2684530143369963e-17,0.6370925918064513,-4.919725349149974e-18,0.6370925918064513,1.410839252770444e-19,0.044413027878183076,-4.919725349149974e-18,0.044413027878183076,-2.3884423288439947e-17,0.6386387770719608,-2.3182787272663207e-17,-0.6386387770719608,0.46401783387284495,0.7545693471748676,0.464017833872845,700.0,45.0,[1.49618445]
-1.1497254649115449e-17,0.6558368433776056,-4.112426849800271e-18,0.6558368433776056,4.449569951045246e-19,0.036397406544126376,-4.112426849800271e-18,0.036397406544126376,-2.3107376438452534e-17,0.6568460522334287,-2.2608805308825528e-17,-0.6568460522334286,0.4715255840597971,0.7452028228302241,0.471525584059797,700.0,45.0,[1.4749984]
-1.0440210470501286e-17,0.6660755157068174,-3.2174596132291355e-18,0.6660755157068174,5.686767449628559e-19,0.032084608116918746,-3.2174596132291355e-18,0.032084608116918746,-2.2438855684832077e-17,0.6668478197475939,-2.2107307216435318e-17,-0.6668478197475938,0.4753640102099072,0.7403094728519356,0.4753640102099072,700.0,45.0,[1.48154777]
-9.459134559343992e-18,0.6722348004480044,-2.2802350278851154e-18,0.6722348004480044,6.142577054369779e-19,0.02960396383494681,-2.2802350278851154e-18,0.02960396383494681,-2.181917167457675e-17,0.6728863363214541,-2.1608903981361815e-17,-0.6728863363214542,0.4775181200187554,0.7375316197340337,0.4775181200187555,700.0,45.0,[1.48154777]
-8.504104911314769e-18,0.6760077625425785,-1.315454988385423e-18,0.6760077625425785,6.229397931463345e-19,0.028215816333041505,-1.315454988385423e-18,0.028215816333041505,-2.123530127612252e-17,0.6765963547856012,-2.110316833259782e-17,-0.6765963547856013,0.47871374241648723,0.7359798269267999,0.47871374241648734,700.0,45.0,[1.47967915]
-7.570780482558936e-18,0.678133089977739,-3.3063153546295814e-19,0.678133089977739,5.882114423089082e-19,0.02759710279207092,-3.3063153546295814e-19,0.02759710279207092,-2.0673136096941683e-17,0.6786943994208828,-2.0616867618898887e-17,-0.6786943994208827,0.4792554555782093,0.7352743818446598,0.4792554555782092,700.0,45.0,[1.4923274]
-6.67652544849521e-18,0.678916298871327,6.638236085120742e-19,0.678916298871327,5.361189160527687e-19,0.027621079266839536,6.638236085120742e-19,0.027621079266839536,-2.0133761397997905e-17,0.679477935545376,-2.0165622190032344e-17,-0.679477935545376,0.47926149292966524,0.7352665114022648,0.47926149292966524,700.0,45.0,[1.4923274]
-5.782270414431481e-18,0.6783953302456149,1.6754224842725745e-18,0.6783953302456149,4.558096047412204e-19,0.02828776890633812,1.6754224842725745e-18,0.02828776890633812,-1.9606324569654493e-17,0.678984846641481,-1.9725002084193983e-17,-0.6789848466414812,0.47873495598241833,0.7359522293199635,0.47873495598241833,700.0,45.0,[1.4923274]
-4.9314258189145366e-18,0.6763526732401153,2.7087604937115805e-18,0.6763526732401153,3.4728350837426314e-19,0.029723962696148944,2.7087604937115805e-18,0.029723962696148944,-1.9111445570221168e-17,0.6770055040820658,-1.932285051055268e-17,-0.6770055040820661,0.47756532749369107,0.7374704848003664,0.4775653274936911,700.0,45.0,[1.48154777]
-4.080581223397592e-18,0.6721834467904308,3.766754275668955e-18,0.6721834467904308,1.844943638238273e-19,0.03225277339571208,3.766754275668955e-18,0.03225277339571208,-1.865346544355261e-17,0.6729567798386307,-1.8985400475926518e-17,-0.6729567798386306,0.4754619409200165,0.7401836836036999,0.4754619409200165,700.0,45.0,[1.48154777]
-3.3035343734101785e-18,0.6644507966396274,4.8670732352094424e-18,0.6644507966396274,-4.341043854678289e-20,0.03661391640816203,4.8670732352094424e-18,0.03661391640816203,-1.8258430452776885e-17,0.6654588191840118,-1.8732981904714748e-17,-0.6654588191840118,0.4717323312367559,0.7449410817855808,0.471732331236756,700.0,45.0,[1.4749984]
-2.6306725759350433e-18,0.6493468973323409,6.0575197263421765e-18,0.6493468973323409,-4.471275170318638e-19,0.044678143301869436,6.0575197263421765e-18,0.044678143301869436,-1.8000138343423526e-17,0.6508821164881085,-1.875025230376526e-17,-0.6508821164881086,0.4644994375425571,0.7539764883902523,0.46449943754255707,700.0,45.0,[1.49618445]
-2.2703659359967453e-18,0.6133870279463749,7.494354370633018e-18,0.6133870279463749,-1.3544056826596262e-18,0.06230200171270458,7.494354370633018e-18,0.06230200171270458,-1.811951704942718e-17,0.6165429307601354,-1.951421333832833e-17,-0.6165429307601353,0.4469153717764944,0.7749408370577434,0.4469153717764944,700.0,45.0,[1.49698347]
-3.386014206649066e-18,0.47066273232991185,9.835126611647827e-18,0.47066273232991185,-6.06443826498557e-18,0.10029088639870594,9.835126611647827e-18,0.10029088639870594,-2.0127249832215888e-17,0.48122933150307484,-2.2246751737219665e-17,-0.481229331503075,0.384818444850799,0.8389454863131603,0.3848184448507992,700.0,45.0,[1.44895512]
-2.5785800496789038e-18,0.4774757049159423,1.0114191294133923e-17,0.4774757049159423,-6.201181146407937e-18,0.09876331227490735,1.0114191294133923e-17,0.09876331227490735,-1.8994237386144855e-17,0.4875830602435721,-2.1342548719895197e-17,-0.4875830602435723,0.2471292151404344,0.9369387931173231,0.24712921514043454,700.0,57.8571428571429,[1.44837606]
-4.254222977584724e-19,0.6217711309252982,8.473242802660415e-18,0.6217711309252982,-1.771145892708742e-18,0.0604781422933988,8.473242802660415e-18,0.0604781422933988,-1.4123586181195814e-17,0.6247054865673783,-1.5478706184508018e-17,-0.6247054865673787,0.3164734939613061,0.8942533507009333,0.3164734939613061,700.0,57.8571428571429,[1.48289664]
2.6480367513537564e-19,0.6565790906148085,7.726023671971357e-18,0.6565790906148085,-1.139524011853051e-18,0.04317879324158015,7.726023671971357e-18,0.04317879324158015,-1.1160823750377882e-17,0.6579973483368816,-1.2098818385879616e-17,-0.6579973483368817,0.33610340110695897,0.8798119159960665,0.336103401106959,700.0,57.8571428571429,[1.51147713]
6.945670167485263e-19,0.6716709133019135,7.223793725229427e-18,0.6716709133019135,-1.020145305849398e-18,0.035178887578793616,7.223793725229427e-18,0.035178887578793616,-8.612631007681726e-18,0.6725915327352168,-9.34738492045074e-18,-0.6725915327352165,0.3443731755111011,0.8733923700014793,0.344373175511101,700.0,57.8571428571429,[1.51147713]
1.0114632181400414e-18,0.679919741976368,6.800881093449441e-18,0.679919741976368,-1.06572626632352e-18,0.03076162256529512,6.800881093449441e-18,0.03076162256529512,-6.207692712189954e-18,0.6806152605929877,-6.7958823814015286e-18,-0.6806152605929877,0.348758628065831,0.8699050745335832,0.3487586280658311,700.0,57.8571428571429,[1.52974196]
1.2849489809847736e-18,0.6849095191842205,6.423740190672347e-18,0.6849095191842205,-1.185104972327173e-18,0.02810737815746782,6.423740190672347e-18,0.02810737815746782,-3.88306372800973e-18,0.6854860131148173,-4.401930945560759e-18,-0.6854860131148169,0.35133725920675946,0.8678273218712145,0.35133725920675946,700.0,57.8571428571429,[1.52974196]
1.545411612265471e-18,0.6879997207314782,6.07086928405544e-18,0.6879997207314782,-1.3478941168776088e-18,0.0264940984911467,6.07086928405544e-18,0.0264940984911467,-1.5975041385216106e-18,0.6885096607756864,-2.0492678053943165e-18,-0.6885096607756863,0.35288572616425906,0.8665698636226901,0.35288572616425895,700.0,57.8571428571429,[1.52980486]
1.7668048488540637e-18,0.6897822603928309,5.733980540848825e-18,0.6897822603928309,-1.5627757876841843e-18,0.025601617010979048,5.733980540848825e-18,0.025601617010979048,6.533271001290825e-19,0.6902572053562493,2.208286585314864e-19,-0.6902572053562495,0.35373796581712263,0.8658746462849739,0.35373796581712263,700.0,57.8571428571429,[1.51229341]
1.9925391292973348e-18,0.6905033278746056,5.415140620114175e-18,0.6905033278746056,-1.784169024272777e-18,0.02529657856035727,5.415140620114175e-18,0.02529657856035727,2.8737710317970275e-18,0.6909665423830342,2.4720604885954265e-18,-0.690966542383034,0.35403173204675537,0.865634487187259,0.3540317320467554,700.0,57.8571428571429,[1.51214378]
2.1965681904672144e-18,0.6901971404434826,5.1061920475962516e-18,0.6901971404434826,-2.0337790459167785e-18,0.025562470159684162,5.1061920475962516e-18,0.025562470159684162,5.070339222264242e-18,0.6906703501360292,4.685724989807322e-18,-0.6906703501360291,0.3537862848228265,0.8658351629164316,0.35378628482282654,700.0,57.8571428571429,[1.51229341]
2.4049382954917722e-18,0.6886968657226917,4.810639665098625e-18,0.6886968657226917,-2.30943533068885e-18,0.026494362441866003,4.810639665098625e-18,0.026494362441866003,7.238690627676047e-18,0.6892063000999482,6.8667487659940365e-18,-0.6892063000999482,0.3529093421273612,0.8665506289181643,0.3529093421273613,700.0,57.8571428571429,[1.52980486]
2.5698979619695472e-18,0.6855312140274618,4.541940072675701e-18,0.6855312140274618,-2.6393546636444e-18,0.02835427022153682,4.541940072675701e-18,0.02835427022153682,9.357120028759052e-18,0.6861173442245586,8.962845127659531e-18,-0.6861173442245586,0.35113941159028306,0.8679874580061971,0.3511394115902831,700.0,57.8571428571429,[1.52974196]
2.6957882337552176e-18,0.679571618824194,4.31556565783589e-18,0.679571618824194,-3.047412785984159e-18,0.031753001943578406,4.31556565783589e-18,0.031753001943578406,1.1390899074675831e-17,0.680313044299288,1.0983897491964724e-17,-0.6803130442992879,0.34784856518226287,0.870633534503055,0.3478485651822628,700.0,57.8571428571429,[1.52974196]
2.773927023139427e-18,0.6677913493409436,4.147748702727204e-18,0.6677913493409436,-3.616089530947015e-18,0.038241833410365474,4.147748702727204e-18,0.038241833410365474,1.325103636640548e-17,0.6688854341942159,1.2769002846461457e-17,-0.6688854341942162,0.34135758427855917,0.8757568151667521,0.3413575842785592,700.0,57.8571428571429,[1.51147713]
2.6350136197897216e-18,0.6391462648397994,4.200612781699702e-18,0.6391462648397994,-4.701350494616587e-18,0.0526569191955913,4.200612781699702e-18,0.0526569191955913,1.4627147268338496e-17,0.6413117019030902,1.3913555533760623e-17,-0.6413117019030901,0.3257730534156267,0.8875493424799086,0.3257730534156268,700.0,57.8571428571429,[1.47783536]
1.3761109019330177e-18,0.5119707953409339,4.976845685964364e-18,0.5119707953409339,-9.580683787274984e-18,0.0827819429817031,4.976845685964364e-18,0.0827819429817031,1.3750256409693483e-17,0.5186202323144117,1.2327796111022736e-17,-0.5186202323144118,0.2758118938794425,0.9207907462552339,0.2758118938794425,700.0,57.8571428571429,[1.44582625]
2.027267480134761e-18,0.5174492130229321,4.53060842206676e-18,0.5174492130229321,-9.658822576659194e-18,0.07846534061749251,4.53060842206676e-18,0.07846534061749251,1.4112733571559118e-17,0.5233645935065449,1.2262184770091369e-17,-0.5233645935065446,0.13083916023329423,0.9827320226281897,0.1308391602332942,700.0,70.71428571428567,[1.46258078]
4.115309574235018e-18,0.6459180970530071,3.25067029443768e-18,0.6459180970530071,-4.918402687350502e-18,0.04742560696690724,3.25067029443768e-18,0.04742560696690724,1.6198605143732036e-17,0.6476568352891502,1.5630316477056025e-17,-0.64765683528915,0.18404232724631414,0.9655344859524806,0.18404232724631414,700.0,70.71428571428567,[1.50386207]
5.07468026611892e-18,0.6736725264505165,2.6858343558540608e-18,0.6736725264505165,-3.978566692812652e-18,0.03383610113644612,2.6858343558540608e-18,0.03383610113644612,1.5994576082562157e-17,0.6745217228780239,1.569536533444666e-17,-0.6745217228780241,0.19976837055203348,0.9592628400255955,0.19976837055203348,700.0,70.71428571428567,[1.53262778]
5.8907965107984385e-18,0.685476254135862,2.296361327517143e-18,0.685476254135862,-3.5488033511995015e-18,0.02744347531673981,2.296361327517143e-18,0.02744347531673981,1.5291326978104274e-17,0.6860253926215801,1.5090506337703562e-17,-0.6860253926215801,0.2066561769574184,0.9563401325107549,0.20665617695741845,700.0,70.71428571428567,[1.5455956]
6.65047918536714e-18,0.6918830973596882,1.9754293119169817e-18,0.6918830973596882,-3.2861701979914653e-18,0.02380276322260745,1.9754293119169817e-18,0.02380276322260745,1.4403583509822564e-17,0.6922924179485626,1.426373991667963e-17,-0.6922924179485627,0.21045667808685517,0.9546810846022308,0.21045667808685523,700.0,70.71428571428567,[1.53942875]
7.349387245970344e-18,0.6957403065026773,1.6910570250304392e-18,0.6957403065026773,-3.103846356094977e-18,0.02150578480353301,1.6910570250304392e-18,0.02150578480353301,1.342901916444729e-17,0.6960726060350712,1.331897488434805e-17,-0.6960726060350713,0.21281034132356655,0.953636994485582,0.21281034132356655,700.0,70.71428571428567,[1.53798504]
8.052636350428227e-18,0.6981144374979303,1.4259989918567033e-18,0.6981144374979303,-2.956250865035915e-18,0.01999109607159701,1.4259989918567033e-18,0.01999109607159701,1.2400191770888535e-17,0.6984006097972679,1.2317479733016456e-17,-0.6984006097972678,0.2143423853279871,0.9529505148242574,0.21434238532798708,700.0,70.71428571428567,[1.53742217]
8.738521279467396e-18,0.699466416205763,1.1739810474495598e-18,0.699466416205763,-2.8585773783056535e-18,0.019004843021389578,1.1739810474495598e-18,0.019004843021389578,1.1330124460710335e-17,0.6997245539910697,1.1264074025839252e-17,-0.6997245539910697,0.2153287998272056,0.9525056513900327,0.21532879982720554,700.0,70.71428571428567,[1.53742217]
9.424406208506566e-18,0.6999861051321145,9.257954308203745e-19,0.6999861051321145,-2.776097545066766e-18,0.01843348001484098,9.257954308203745e-19,0.01843348001484098,1.022749932162205e-17,0.7002287773031645,1.0177911772841742e-17,-0.7002287773031646,0.215891670700421,0.9522507931445171,0.21589167070042103,700.0,70.71428571428567,[1.53574893]
1.00972680059817e-17,0.6996971826376965,6.929391253030219e-19,0.6996971826376965,-2.71532293110127e-18,0.0182472410434,6.929391253030219e-19,0.0182472410434,9.092316353623677e-18,0.699935074986835,9.056522482381709e-18,-0.699935074986835,0.21606344802103133,0.952172869209434,0.2160634480210313,700.0,70.71428571428567,[1.53742217]
1.0752765628038122e-17,0.6984647024943291,4.655939106168039e-19,0.6984647024943291,-2.6936177118278785e-18,0.018490663005990143,4.655939106168039e-19,0.018490663005990143,7.922405034787878e-18,0.6987094140262408,7.901495872450241e-18,-0.6987094140262409,0.21579798392829802,0.9522932637927057,0.21579798392829805,700.0,70.71428571428567,[1.53742217]
1.1397410640457848e-17,0.6959112153470348,2.5039005296163914e-19,0.6959112153470348,-2.7088113653192525e-18,0.019312787677001075,2.5039005296163914e-19,0.019312787677001075,6.6895485800592445e-18,0.696179146063457,6.679166968741649e-18,-0.696179146063457,0.21493753178039968,0.952682378793845,0.21493753178039968,700.0,70.71428571428567,[1.53742217]
1.2033373565168218e-17,0.6911299686341653,6.413214007184879e-20,0.6911299686341653,-2.8151669397588706e-18,0.021074561779837832,6.413214007184879e-20,0.021074561779837832,5.363359682455026e-18,0.6914512063034344,5.363877929880358e-18,-0.6914512063034343,0.21309175107840372,0.9535113063014402,0.21309175107840367,700.0,70.71428571428567,[1.54047653]
1.2617243963622449e-17,0.6816593442930786,-7.766398771260377e-20,0.6816593442930786,-3.0669474833302113e-18,0.024700562111102612,-7.766398771260377e-20,0.024700562111102612,3.8353122456082685e-18,0.6821067214378365,3.85274527250231e-18,-0.6821067214378365,0.20922043715243235,0.9552243806328911,0.20922043715243238,700.0,70.71428571428567,[1.5455956]
1.3081735656073026e-17,0.6582113417186144,-9.706302743819739e-20,0.6582113417186144,-3.8505058990996426e-18,0.03304871784183584,-9.706302743819739e-20,0.03304871784183584,1.753781717290029e-18,0.6590405056732158,1.800265266073458e-18,-0.659040505673216,0.19977949752531857,0.9592582054572496,0.19977949752531857,700.0,70.71428571428567,[1.53262778]
1.2680189099515284e-17,0.5416320127390144,2.9374961990075e-19,0.5416320127390144,-8.419454556148542e-18,0.049339372332863604,2.9374961990075e-19,0.049339372332863604,-2.852065812523636e-18,0.5438746279115407,-2.7031376893750017e-18,-0.5438746279115407,0.17203180570816218,0.9699536667540248,0.17203180570816215,700.0,70.71428571428567,[1.47203265]
1.1362682289620422e-17,0.5446966596844893,5.985892502739985e-19,0.5446966596844893,-8.315269503636263e-18,0.043084829486728975,5.985892502739985e-19,0.043084829486728975,-4.529879262356795e-18,0.546397980965652,-4.5372699466276854e-18,-0.546397980965652,0.02351779975650943,0.9994467600573957,0.023517799756509417,700.0,83.57142857142856,[1.53216712]
8.892628336308476e-18,0.6620482694366715,1.3959677861276594e-18,0.6620482694366715,-3.542291785417484e-18,0.025434456201609865,1.3959677861276594e-18,0.025434456201609865,-3.0235370447834285e-18,0.6625366575717626,-3.1192647169322384e-18,-0.6625366575717625,0.05213768338863319,0.997277957212398,0.052137683388633185,700.0,83.57142857142856,[1.5646819]
5.578241353261602e-18,0.6850556976145261,2.5653364744816236e-18,0.6850556976145261,-2.5568748304055124e-18,0.018241724672825397,2.5653364744816236e-18,0.018241724672825397,-4.0436823506328264e-18,0.685298525719386,-4.175323540533642e-18,-0.6852985257193859,0.060438906123977176,0.9963404424457909,0.060438906123977176,700.0,83.57142857142856,[1.58054315]
2.146646186138414e-18,0.6945927843612123,3.837448853130493e-18,0.6945927843612123,-2.0923831379549354e-18,0.014717171951021893,3.837448853130493e-18,0.014717171951021893,-5.628163357590402e-18,0.6947486820692053,-5.7871749982497805e-18,-0.6947486820692051,0.06426830027299116,0.9958610200023101,0.06426830027299114,700.0,83.57142857142856,[1.57217871]
-1.3305299414588957e-18,0.6996755253697109,5.142949963614759e-18,0.6996755253697109,-1.784169024272777e-18,0.012568096808497008,5.142949963614759e-18,0.012568096808497008,-7.43403760113657e-18,0.6997883950586555,-7.616418862166496e-18,-0.6997883950586556,0.06653838880249413,0.9955627984367116,0.06653838880249416,700.0,83.57142857142856,[1.57288662]
-4.82072920062024e-18,0.702665941239653,6.457591006277431e-18,0.702665941239653,-1.5562642219021669e-18,0.011076712644962168,6.457591006277431e-18,0.011076712644962168,-9.326732721776304e-18,0.7027532415729056,-9.529515850572722e-18,-0.7027532415729056,0.0680857521114226,0.995353535543449,0.0680857521114226,700.0,83.57142857142856,[1.57121338]
-8.32178106941828e-18,0.7044363531149811,7.789918411207403e-18,0.7044363531149811,-1.3847929896423743e-18,0.00995343183515786,7.789918411207403e-18,0.00995343183515786,-1.1286714022163552e-17,0.7045066688082029,-1.1506459460427005e-17,-0.7045066688082029,0.06923558764141755,0.9951948888574015,0.06923558764141757,700.0,83.57142857142856,[1.57121338]
-1.1833685547853016e-17,0.7053584329157494,9.123008890252457e-18,0.7053584329157494,-1.230685932801295e-18,0.00906103178304523,9.123008890252457e-18,0.00906103178304523,-1.3277082629533549e-17,0.7054166295050994,-1.3511511375987051e-17,-0.7054166295050994,0.07013867744127891,0.9950684056152002,0.07013867744127893,700.0,83.57142857142856,[1.56913513]
-1.5341248982433074e-17,0.7055798792314993,1.045616719810774e-17,0.7055798792314993,-1.111307226797642e-18,0.00832829968269699,1.045616719810774e-17,0.00832829968269699,-1.5317373241232344e-17,0.7056290289889878,-1.5564072750505262e-17,-0.705629028988988,0.07087206093163365,0.9949644727117677,0.07087206093163369,700.0,83.57142857142856,[1.56913513]
-1.8844471373158454e-17,0.705109114607562,1.1794836596794157e-17,0.705109114607562,-1.0114632181400414e-18,0.007718136617988791,1.1794836596794157e-17,0.007718136617988791,-1.7388051159913888e-17,0.7051513547710971,-1.764612955155328e-17,-0.7051513547710972,0.07147522292431437,0.9948781759672081,0.07147522292431442,700.0,83.57142857142856,[1.56913513]
-2.2393274724357955e-17,0.7038179838906014,1.3136914393194601e-17,0.7038179838906014,-9.44177038392528e-19,0.007215731882367002,1.3136914393194601e-17,0.007215731882367002,-1.9499968995214875e-17,0.703854971733829,-1.9769674751488346e-17,-0.7038549717338292,0.07196319191044093,0.9948078196416241,0.07196319191044094,700.0,83.57142857142856,[1.57121338]
-2.5911690768574712e-17,0.7013645529591899,1.4482807560170442e-17,0.7013645529591899,-9.203012971917973e-19,0.00682760681149177,1.4482807560170442e-17,0.00682760681149177,-2.1677002488336037e-17,0.7013977846859915,-2.1959243300196764e-17,-0.7013977846859917,0.07232718941902913,0.9947550227777127,0.07232718941902917,700.0,83.57142857142856,[1.57121338]
-2.945398255399219e-17,0.6969334825498255,1.5831447793960574e-17,0.6969334825498255,-9.810759111572934e-19,0.00659324715025048,1.5831447793960574e-17,0.00659324715025048,-2.3949538946260122e-17,0.6969646691239176,-2.4249500766457613e-17,-0.6969646691239174,0.07252016696472048,0.9947269227113631,0.07252016696472051,700.0,83.57142857142856,[1.57288662]
-3.3048366865665816e-17,0.6883003405811887,1.7190398006905567e-17,0.6883003405811887,-1.2068101916005644e-18,0.006627066879306475,1.7190398006905567e-17,0.006627066879306475,-2.6436957074990785e-17,0.6883322430771374,-2.6768403657973394e-17,-0.6883322430771376,0.07240215430549021,0.9947441158930511,0.07240215430549025,700.0,83.57142857142856,[1.57849888]
-3.669918474745026e-17,0.6669008880118102,1.856092998919722e-17,0.6669008880118102,-1.9447876468958736e-18,0.007241506710211493,1.856092998919722e-17,0.007241506710211493,-2.9521268733739706e-17,0.6669402026046827,-2.992503299069791e-17,-0.6669402026046826,0.07153682108568767,0.9948693212969775,0.07153682108568771,700.0,83.57142857142856,[1.56263763]
-4.114007261078615e-17,0.5538635382374143,1.9947961329577163e-17,0.5538635382374143,-6.476837431180008e-18,0.006450732519643409,1.9947961329577163e-17,0.006450732519643409,-3.5205865661440926e-17,0.553901102128266,-3.5671319509126536e-17,-0.5539011021282662,0.07098228497942273,0.9949487576946865,0.07098228497942279,700.0,83.57142857142856,[1.5238399]
