stress_11,stress_12,stress_13,stress_21,stress_22,stress_23,stress_31,stress_32,stress_33,e1,e2,e3,anev1,anev2,anev3,temp,miss,velo
1.0366412724971755e-17,0.793403135426412,-1.7019282875899478e-17,0.793403135426412,-6.6613317950038356e-18,-0.043769850213241125,-1.7019282875899478e-17,-0.043769850213241125,9.322391677921626e-19,0.7946095488302107,-9.04357468182045e-19,-0.7946095488302107,0.1964238332414241,0.9606431988358065,0.1964238332414242,1000.0,109.28571428571416,[1.58561898]
1.0244863497040763e-17,0.9100777718559216,-1.5656771650417445e-17,0.9100777718559216,-1.8948656425670733e-18,-0.027505284047732583,-1.5656771650417445e-17,-0.027505284047732583,3.899342642464773e-18,0.9104933231368505,2.96162714185444e-18,-0.9104933231368506,0.21327355362453648,0.9534300093078274,0.21327355362453654,1000.0,109.28571428571416,[1.59749979]
9.26378758588347e-18,0.9336180054549005,-1.47055658515649e-17,0.9336180054549005,-9.224718191191365e-19,-0.019193104714060785,-1.47055658515649e-17,-0.019193104714060785,4.361663812988011e-18,0.9338152683363831,3.7586118192660244e-18,-0.933815268336383,0.219775331571006,0.9504723074691386,0.219775331571006,1000.0,109.28571428571416,[1.59693693]
8.124263574030418e-18,0.9431793316964046,-1.38777576157221e-17,0.9431793316964046,-4.536390828138812e-19,-0.015608339216046466,-1.38777576157221e-17,-0.015608339216046466,4.2563934995120626e-18,0.9433084712819872,3.797986329950446e-18,-0.9433084712819872,0.22246710386711568,0.9492190344667327,0.2224671038671157,1000.0,109.28571428571416,[1.59693693]
6.97822799639535e-18,0.9480501056632163,-1.3097666947875644e-17,0.9480501056632163,-1.606186226230967e-19,-0.013891837888508304,-1.3097666947875644e-17,-0.013891837888508304,3.956861473539261e-18,0.9481518791881166,3.574511819226985e-18,-0.9481518791881166,0.22373870631344808,0.948621095377058,0.22373870631344808,1000.0,109.28571428571416,[1.59827735]
5.8018051117775336e-18,0.9506920273892576,-1.2336330946057602e-17,0.9506920273892576,4.992200432880033e-20,-0.013118582995255786,-1.2336330946057602e-17,-0.013118582995255786,3.559655960836197e-18,0.9507825346320266,3.219616692454026e-18,-0.9507825346320266,0.22431140549994733,0.9483505610929307,0.22431140549994733,1000.0,109.28571428571416,[1.59827735]
4.612359095595682e-18,0.9520118622260945,-1.1595385980314759e-17,0.9520118622260945,2.3007532429794933e-19,-0.012927386055864814,-1.1595385980314759e-17,-0.012927386055864814,3.101675834167638e-18,0.9520996287833715,2.787261849274751e-18,-0.9520996287833716,0.22445887771226705,0.9482807729951607,0.22445887771226708,1000.0,109.28571428571416,[1.59827735]
3.4120604697771357e-18,0.9523870503894144,-1.0858671836609971e-17,0.9523870503894144,3.689887276476546e-19,-0.013169028657859589,-1.0858671836609971e-17,-0.013169028657859589,2.6067968347343127e-18,0.9524780926957015,2.306842120633316e-18,-0.9524780926957016,0.22429235859853533,0.9483595709163334,0.22429235859853533,1000.0,109.28571428571416,[1.59827735]
2.1965681904672144e-18,0.9519525220201598,-1.0137134389194e-17,0.9519525220201598,4.8402638979662925e-19,-0.013798821094675371,-1.0137134389194e-17,-0.013798821094675371,2.08044526735457e-18,0.9520525256749997,1.786789963881261e-18,-0.9520525256749994,0.22384451621019405,0.9485711703004938,0.22384451621019405,1000.0,109.28571428571416,[1.59827735]
9.940990427213282e-19,0.9506845819452562,-9.425249829333793e-18,0.9506845819452562,5.730177888175342e-19,-0.01484638526437448,-9.425249829333793e-18,-0.01484638526437448,1.515024305282723e-18,0.9508004993182559,1.2207455774664039e-18,-0.9508004993182562,0.22309248607930363,0.948925437170862,0.22309248607930363,1000.0,109.28571428571416,[1.59827735]
-2.430984558619842e-19,0.9483933539669532,-8.720762849089225e-18,0.9483933539669532,6.359629247103694e-19,-0.01642512559742316,-8.720762849089225e-18,-0.01642512559742316,9.170455143007886e-19,0.9485355758217916,6.151902307943234e-19,-0.9485355758217917,0.2219501940068055,0.9494610169778867,0.22195019400680555,1000.0,109.28571428571416,[1.59693693]
-1.47161386673594e-18,0.9446179061399278,-8.036893707504059e-18,0.9446179061399278,6.381334466377085e-19,-0.018788756524097432,-8.036893707504059e-18,-0.018788756524097432,2.6914471899005393e-19,0.9448047448927759,-5.1019171714095343e-20,-0.9448047448927758,0.22022368005794826,0.9502647323159313,0.2202236800579483,1000.0,109.28571428571416,[1.59693693]
-2.7695859792847485e-18,0.9382916935201153,-7.383242300876067e-18,0.9382916935201153,5.838703984542299e-19,-0.022498587117880095,-7.383242300876067e-18,-0.022498587117880095,-4.688327363052552e-19,0.9385613930644853,-8.231326615556545e-19,-0.9385613930644854,0.21747634297215843,0.9515293376953293,0.21747634297215845,1000.0,109.28571428571416,[1.59693693]
-4.097945398816305e-18,0.9265675227704165,-6.804610618186895e-18,0.9265675227704165,3.5162455222894143e-19,-0.028962680554361696,-6.804610618186895e-18,-0.028962680554361696,-1.3978161212064091e-18,0.9270200705043017,-1.8292235573219783e-18,-0.9270200705043016,0.2125763042230604,0.9537413851593782,0.2125763042230604,1000.0,109.28571428571416,[1.59749979]
-5.595605528680315e-18,0.8988918039421289,-6.4033512742474685e-18,0.8988918039421289,-3.841823811390286e-19,-0.04262596403658657,-6.4033512742474685e-18,-0.04262596403658657,-2.8303605932502446e-18,0.8999019102126535,-3.4420996443253977e-18,-0.8999019102126539,0.20166620976569283,0.958468298733703,0.20166620976569288,1000.0,109.28571428571416,[1.60166058]
-8.208913929196645e-18,0.7705017437873705,-6.7094446777848e-18,0.7705017437873705,-4.9292552969871974e-18,-0.07374209502988308,-6.7094446777848e-18,-0.07374209502988308,-6.540867828036513e-18,0.7740225021010532,-7.83079531618343e-18,-0.774022502101053,0.16889371931592306,0.9710560350212898,0.16889371931592298,1000.0,109.28571428571416,[1.5906537]
1.0466256733629355e-17,0.7963862277096596,-1.6582194022781558e-17,0.7963862277096596,-6.652649707294479e-18,-0.03743423857880635,-1.6582194022781558e-17,-0.03743423857880635,4.503832999228725e-19,0.7972655429049955,-1.0909821544986264e-18,-0.7972655429049954,0.046091294253413295,0.9978733312340253,0.04609129425341332,1000.0,96.42857142857144,[1.57569701]
1.0296956023296902e-17,0.9136368084447033,-1.49080772431059e-17,0.9136368084447033,-1.8644783355843252e-18,-0.019742414550620896,-1.49080772431059e-17,-0.019742414550620896,2.7261755407379656e-18,0.9138500865444573,2.0832780028626575e-18,-0.9138500865444574,0.06397239222560952,0.9958991244427647,0.06397239222560955,1000.0,96.42857142857144,[1.5727224]
9.272469673592826e-18,0.9365445989504105,-1.362355219218506e-17,0.9365445989504105,-8.85572946354371e-19,-0.012505284834248915,-1.362355219218506e-17,-0.012505284834248915,2.4733097362029553e-18,0.936628084125162,2.1105313805592634e-18,-0.9366280841251617,0.06978228874128065,0.9951185177435187,0.06978228874128063,1000.0,96.42857142857144,[1.57343032]
8.106899398611705e-18,0.9459818248072169,-1.2426085419193588e-17,0.9459818248072169,-4.058876004124201e-19,-0.008938284176975418,-1.2426085419193588e-17,-0.008938284176975418,1.6517671867050892e-18,0.9460240513801011,1.4177709971965172e-18,-0.9460240513801013,0.07252838380079565,0.9947257245524966,0.07252838380079568,1000.0,96.42857142857144,[1.57343032]
6.947840689412602e-18,0.9509641278844454,-1.1267382811248188e-17,0.9509641278844454,-9.550296480292236e-20,-0.006750002394049346,-1.1267382811248188e-17,-0.006750002394049346,6.164282273643171e-19,0.9509880835506526,4.567781774684083e-19,-0.9509880835506527,0.0741814427621311,0.9944818887739774,0.07418144276213114,1000.0,96.42857142857144,[1.56878494]
5.749712585521394e-18,0.9538534668093247,-1.0123755156376261e-17,0.9538534668093247,1.3891340334970526e-19,-0.00522310569354982,-1.0123755156376261e-17,-0.00522310569354982,-5.122431748520381e-19,0.9538677670291901,-6.2289945676404e-19,-0.9538677670291901,0.07532208569941184,0.9943103976182595,0.07532208569941184,1000.0,96.42857142857144,[1.56878494]
4.551584481630186e-18,0.9555221785973711,-8.98589295037383e-18,0.9555221785973711,3.255782891008717e-19,-0.004068232139626987,-8.98589295037383e-18,-0.004068232139626987,-1.6995186691065504e-18,0.9555308390126445,-1.7759254347075592e-18,-0.9555308390126445,0.07617850123685947,0.9941798991624261,0.0761785012368595,1000.0,96.42857142857144,[1.56878494]
3.3360922023202657e-18,0.9563419792555709,-7.851659585718668e-18,0.9563419792555709,4.79685345941951e-19,-0.0031482990660996876,-7.851659585718668e-18,-0.0031482990660996876,-2.9302046019078452e-18,0.9563471613768046,-2.9818300616130117e-18,-0.9563471613768049,0.07685724937683582,0.9940754128517886,0.07685724937683583,1000.0,96.42857142857144,[1.56878494]
2.1119178353009877e-18,0.9564606241784741,-6.727244441344205e-18,0.9564606241784741,6.099166615822996e-19,-0.0023921916765542476,-6.727244441344205e-18,-0.0023921916765542476,-4.204300973255923e-18,0.9564636157141022,-4.237911572615266e-18,-0.9564636157141023,0.07741318245505012,0.9939891339267056,0.07741318245505012,1000.0,96.42857142857144,[1.56878494]
9.051076437004233e-19,0.9558865994917041,-5.603931515135967e-18,0.9558865994917041,7.141017140945786e-19,-0.0017628836886737448,-5.603931515135967e-18,-0.0017628836886737448,-5.504443607732071e-18,0.9558882250800628,-5.525091841275475e-18,-0.9558882250800628,0.07787483345841328,0.9939170089236067,0.0778748334584133,1000.0,96.42857142857144,[1.56878494]
-3.3208985488288913e-19,0.9544918177434655,-4.484671360338934e-18,0.9544918177434655,7.770468499874139e-19,-0.0012456188210383543,-4.484671360338934e-18,-0.0012456188210383543,-6.850167202682341e-18,0.9544926305139666,-6.861860721314213e-18,-0.9544926305139666,0.07825379637950677,0.9938574780643297,0.07825379637950679,1000.0,96.42857142857144,[1.56871073]
-1.5627757876841843e-18,0.9519344152882617,-3.3695487629658917e-18,0.9519344152882617,8.030931131154836e-19,-0.0008469580671330048,-3.3695487629658917e-18,-0.0008469580671330048,-8.258835933525445e-18,0.9519347920672782,-8.26482651050596e-18,-0.9519347920672783,0.07854563579042315,0.993811433923235,0.07854563579042312,1000.0,96.42857142857144,[1.56847173]
-2.8129964178315314e-18,0.9473991253493611,-2.2525608733115414e-18,0.9473991253493611,7.553416307140223e-19,-0.000606413856498258,-2.2525608733115414e-18,-0.000606413856498258,-9.767348673026151e-18,0.9473993194268717,-9.770229488953401e-18,-0.9473993194268717,0.07872106320816356,0.9937836728457319,0.07872106320816358,1000.0,96.42857142857144,[1.56696618]
-4.0914338330342876e-18,0.9386615898586845,-1.1377265483819732e-18,0.9386615898586845,5.448010037621253e-19,-0.0006384148862482876,-1.1377265483819732e-18,-0.0006384148862482876,-1.1486402039478753e-17,0.9386618069622309,-1.1487946131446744e-17,-0.9386618069622312,0.07869291929105142,0.9937881307939356,0.07869291929105146,1000.0,96.42857142857144,[1.56696618]
-5.4697152568946444e-18,0.9171576449768737,-5.463610663974003e-20,0.9171576449768737,-1.80153319969149e-19,-0.0012554052197337965,-5.463610663974003e-20,-0.0012554052197337965,-1.3800178414022283e-17,0.9171585041756907,-1.3800311972051334e-17,-0.9171585041756908,0.07820896527721385,0.9938645357897299,0.07820896527721384,1000.0,96.42857142857144,[1.56871073]
-7.625043530742415e-18,0.8040157802299364,1.0205183643056594e-18,0.8040157802299364,-4.710032582325944e-18,-0.0004715431109467887,1.0205183643056594e-18,-0.0004715431109467887,-1.8720751623300122e-17,0.8040159185063805,-1.8719550801024937e-17,-0.8040159185063805,0.07875872690616807,0.9937777044551962,0.07875872690616807,1000.0,96.42857142857144,[1.56696618]
-8.734180235612718e-18,0.7650885451604323,-5.9408033011400255e-18,0.7650885451604323,-4.956386821078937e-18,-0.07812051045406854,-5.9408033011400255e-18,-0.07812051045406854,-6.768772630407123e-18,0.769066509535626,-8.185622358041136e-18,-0.769066509535626,0.3134401506621811,0.896387496513499,0.3134401506621811,1000.0,122.14285714285735,[1.59737261]
-6.6895485800592445e-18,0.8923345237980765,-3.6989318243905655e-18,0.8923345237980765,-4.72088519196264e-19,-0.04805186029045781,-3.6989318243905655e-18,-0.04805186029045781,-3.990504563413017e-18,0.8936273740431824,-4.393567891832304e-18,-0.8936273740431824,0.3434647906879979,0.8741074734352174,0.3434647906879979,1000.0,122.14285714285735,[1.59788508]
-5.795293545995516e-18,0.9210479303981683,-2.1917862593460453e-18,0.9210479303981683,2.1379640984290577e-19,-0.03369450567567344,-2.1917862593460453e-18,-0.03369450567567344,-3.4804319104883184e-18,0.9216640438920666,-3.656060916392652e-18,-0.9216640438920666,0.35406363495159276,0.8656083899834442,0.35406363495159276,1000.0,122.14285714285735,[1.58119998]
-5.0790213099735984e-18,0.9328952053787285,-8.86764189834024e-19,0.9328952053787285,3.8635290306636774e-19,-0.027265076944701344,-8.86764189834024e-19,-0.027265076944701344,-3.444618298687223e-18,0.933293549018432,-3.500628142762025e-18,-0.9332935490184318,0.35855188769742635,0.8619054981012849,0.35855188769742624,1000.0,122.14285714285735,[1.58119998]
-4.453910994899925e-18,0.9389207060768687,3.4153501670732587e-19,0.9389207060768687,3.9503499077572437e-19,-0.023927416079914235,3.4153501670732587e-19,-0.023927416079914235,-3.580275919145919e-18,0.9392255392290748,-3.566810254633418e-18,-0.9392255392290748,0.36082847312321015,0.8600032709049108,0.3608284731232102,1000.0,122.14285714285735,[1.58119998]
-3.839653289462947e-18,0.9421512300946447,1.5300314295459662e-18,0.9421512300946447,3.3208985488288913e-19,-0.02213016971404938,1.5300314295459662e-18,-0.02213016971404938,-3.800583894770842e-18,0.9424111017917947,-3.730093602369056e-18,-0.942411101791795,0.362040203357446,0.8589841571913874,0.3620402033574461,1000.0,122.14285714285735,[1.58002093]
-3.2622944567907347e-18,0.9437153722033557,2.702172620518055e-18,0.9437153722033557,2.1054062695189705e-19,-0.02126243190134579,2.702172620518055e-18,-0.02126243190134579,-4.080581223397592e-18,0.9439548690182589,-3.958950424230146e-18,-0.9439548690182586,0.36262186860169354,0.8584933085491304,0.36262186860169343,1000.0,122.14285714285735,[1.58002093]
-2.6957882337552176e-18,0.9440844373835724,3.851794646494e-18,0.9440844373835724,6.728617974751348e-20,-0.021062083456936897,3.851794646494e-18,-0.021062083456936897,-4.380113249370394e-18,0.9443193507862704,-4.209543068383802e-18,-0.9443193507862704,0.3627559631274551,0.85837999885304,0.3627559631274551,1000.0,122.14285714285735,[1.58002093]
-2.1401346203563966e-18,0.9434252683658397,4.995176421928845e-18,0.9434252683658397,-1.1069661829429638e-19,-0.021433947148042348,4.995176421928845e-18,-0.021433947148042348,-4.707862060398605e-18,0.9436687189270936,-4.479646291119755e-18,-0.9436687189270937,0.3625073536664432,0.858590028520891,0.3625073536664432,1000.0,122.14285714285735,[1.58002093]
-1.588822050812254e-18,0.9417036565646546,6.116513834039152e-18,0.9417036565646546,-2.984467650091324e-19,-0.022394429602881086,6.116513834039152e-18,-0.022394429602881086,-5.059486612627546e-18,0.9419698972177823,-4.763118800342171e-18,-0.9419698972177821,0.3618630599265435,0.8591334306853606,0.3618630599265435,1000.0,122.14285714285735,[1.58002093]
-1.0852609636695723e-18,0.9386734214155443,7.22530291625703e-18,0.9386734214155443,-5.263515673797426e-19,-0.024076782021601316,7.22530291625703e-18,-0.024076782021601316,-5.4566921253306096e-18,0.9389821529211722,-5.075840814392623e-18,-0.9389821529211724,0.36072768560610674,0.86008782904685,0.3607276856061068,1000.0,122.14285714285735,[1.58119998]
-5.773588326722125e-19,0.933742661680367,8.310012770843489e-18,0.933742661680367,-7.965815473334662e-19,-0.02680107241491677,8.310012770843489e-18,-0.02680107241491677,-5.892967032725778e-18,0.9341272160281631,-5.410176701963685e-18,-0.9341272160281632,0.35887059587419873,0.8616401748025653,0.35887059587419873,1000.0,122.14285714285735,[1.58119998]
-1.215492279309921e-19,0.9255519244102524,9.346097847096783e-18,0.9255519244102524,-1.1427797947440596e-18,-0.03128926984189894,9.346097847096783e-18,-0.03128926984189894,-6.392187076013782e-18,0.9260806569553006,-5.760418426371092e-18,-0.9260806569553004,0.35575973951016493,0.8642164170433926,0.35575973951016493,1000.0,122.14285714285735,[1.58119998]
2.3007532429794933e-19,0.9105173224373769,1.0301517510784826e-17,0.9105173224373769,-1.6767281888694894e-18,-0.03936093783665575,1.0301517510784826e-17,-0.03936093783665575,-7.047684698070203e-18,0.9113676963146716,-6.140276920695936e-18,-0.9113676963146718,0.34999423404042157,0.8689120049101158,0.3499942340404216,1000.0,122.14285714285735,[1.59512281]
3.1472567946417597e-19,0.8757658970342175,1.1017654089186285e-17,0.8757658970342175,-2.6936177118278785e-18,-0.056732930657464056,1.1017654089186285e-17,-0.056732930657464056,-8.106899398611705e-18,0.8776015792084311,-6.708602623947263e-18,-0.8776015792084312,0.33671178577397143,0.8793465452492587,0.33671178577397143,1000.0,122.14285714285735,[1.59788508]
-1.0700673101781983e-18,0.7315270693163011,1.0837958613686184e-17,0.7315270693163011,-7.514346912448119e-18,-0.09509213500567601,1.0837958613686184e-17,-0.09509213500567601,-1.108702600484835e-17,0.737681752032971,-8.104595824060705e-18,-0.7376817520329711,0.2958851179197759,0.9082422551209565,0.29588511791977595,1000.0,122.14285714285735,[1.57669476]
-1.3392120291682522e-18,0.7247592376715705,1.1042682920160914e-17,0.7247592376715705,-7.525199522084814e-18,-0.09667701824104744,1.1042682920160914e-17,-0.09667701824104744,-1.1002375649682124e-17,0.7311787732464992,-7.882632302942132e-18,-0.7311787732464994,0.42949976285675295,0.7943927916415064,0.42949976285675284,1000.0,135.00000000000023,[1.53173383]
1.367428814223661e-19,0.8675314156301847,1.1778981612403047e-17,0.8675314156301847,-2.6914471899005393e-18,-0.05874028019646488,1.1778981612403047e-17,-0.05874028019646488,-8.461779733731655e-18,0.8695177845351248,-6.764990843256752e-18,-0.869517784535125,0.4650802719728912,0.7532600356073876,0.46508027197289126,1000.0,135.00000000000023,[1.59469003]
1.063555744396181e-19,0.9035374480699014,1.160442416927782e-17,0.9035374480699014,-1.6615345353781154e-18,-0.04116876164897449,1.160442416927782e-17,-0.04116876164897449,-7.799770545893216e-18,0.9044748680866594,-6.7432792776416205e-18,-0.9044748680866591,0.4767234098196663,0.7385591249587408,0.4767234098196662,1000.0,135.00000000000023,[1.59529101]
-2.344163681526276e-19,0.9186864046007799,1.1190753212891582e-17,0.9186864046007799,-1.147120838598738e-18,-0.03315753145996371,1.1190753212891582e-17,-0.03315753145996371,-7.521943739193806e-18,0.9192845761192918,-6.7081392208206894e-18,-0.9192845761192916,0.4816402320590593,0.7321511959453394,0.48164023205905926,1000.0,135.00000000000023,[1.59529101]
-6.90225972893848e-19,0.9264631414423116,1.0682528895045632e-17,0.9264631414423116,-7.900699815514487e-19,-0.02885013044267561,1.0682528895045632e-17,-0.02885013044267561,-7.374348248134744e-18,0.926912230191034,-6.706206485355843e-18,-0.926912230191034,0.48419525698492744,0.7287728769833578,0.48419525698492727,1000.0,135.00000000000023,[1.59529101]
-1.1633997530537815e-18,0.9306755063707565,1.0134980824469218e-17,0.9306755063707565,-5.154989577430468e-19,-0.026375812073461586,1.0134980824469218e-17,-0.026375812073461586,-7.301635763568882e-18,0.931049183244902,-6.723223936726303e-18,-0.931049183244902,0.4856347605319969,0.7268547026236124,0.4856347605319969,1000.0,135.00000000000023,[1.59529101]
-1.7038597129612287e-18,0.9327603434619055,9.554993625400619e-18,0.9327603434619055,-2.8325311151775837e-19,-0.024994847297676807,9.554993625400619e-18,-0.024994847297676807,-7.2582253250221e-18,0.9330951723841499,-6.739152461384581e-18,-0.93309517238415,0.4864270671580061,0.7257943349683306,0.4864270671580061,1000.0,135.00000000000023,[1.59529101]
-2.2747069798514236e-18,0.9333225096470277,8.970529724856882e-18,0.9333225096470277,-7.271248456586134e-20,-0.02438410629900668,8.970529724856882e-18,-0.02438410629900668,-7.237605366712378e-18,0.9336409864898968,-6.76732933881825e-18,-0.933640986489897,0.4867708340254301,0.7253332408516615,0.4867708340254301,1000.0,135.00000000000023,[1.59529101]
-2.836872159032262e-18,0.9325794834739577,8.35203271878057e-18,0.9325794834739577,8.682087709356578e-20,-0.024416782736823746,8.35203271878057e-18,-0.024416782736823746,-7.246287454421734e-18,0.9328990686434258,-6.802253556992991e-18,-0.9328990686434253,0.48674220570170657,0.7253716636161598,0.48674220570170657,1000.0,135.00000000000023,[1.59529101]
-3.4424477767598838e-18,0.9304932858033009,7.731890864056196e-18,0.9304932858033009,2.3658689007996676e-19,-0.02509284223086113,7.731890864056196e-18,-0.02509284223086113,-7.270163195622465e-18,0.9308315667489184,-6.850532991098803e-18,-0.9308315667489184,0.48633956771293335,0.7259115991314602,0.4863395677129333,1000.0,135.00000000000023,[1.59529101]
-4.050193916414844e-18,0.9267583581634751,7.085855361026768e-18,0.9267583581634751,3.5813611801095886e-19,-0.026539023512457377,7.085855361026768e-18,-0.026539023512457377,-7.314658895132917e-18,0.9271382713462186,-6.906801157939703e-18,-0.9271382713462185,0.48548278205789575,0.7270577258035646,0.48548278205789586,1000.0,135.00000000000023,[1.59529101]
-4.701350494616587e-18,0.9206359680745664,6.4186403120032275e-18,0.9206359680745664,4.254222977584724e-19,-0.029078392908656107,6.4186403120032275e-18,-0.029078392908656107,-7.390627162589787e-18,0.9210950757911716,-6.983720647682213e-18,-0.9210950757911716,0.48396609568242077,0.7290772499946955,0.48396609568242077,1000.0,135.00000000000023,[1.59529101]
-5.432816384129879e-18,0.9104330087563051,5.703012449678488e-18,0.9104330087563051,4.254222977584724e-19,-0.03345062610985273,5.703012449678488e-18,-0.03345062610985273,-7.521943739193806e-18,0.9110473137110934,-7.091413379556464e-18,-0.9110473137110932,0.48130452142717134,0.7325925984525936,0.4813045214271713,1000.0,135.00000000000023,[1.59529101]
-6.282575718683155e-18,0.8917232643760286,4.8951034910367206e-18,0.8917232643760286,2.4961002164400163e-19,-0.04152644386131521,4.8951034910367206e-18,-0.04152644386131521,-7.759615890237442e-18,0.8926896581506968,-7.29504101159094e-18,-0.8926896581506968,0.4761995463664225,0.7392347286760999,0.4761995463664225,1000.0,135.00000000000023,[1.59529101]
-7.532796348830501e-18,0.8489921800631502,3.845350909522212e-18,0.8489921800631502,-4.341043854678289e-19,-0.059162380277518876,3.845350909522212e-18,-0.059162380277518876,-8.29899058918122e-18,0.8510510613638185,-7.757082648174308e-18,-0.8510510613638185,0.4640319691981371,0.7545519618450399,0.4640319691981371,1000.0,135.00000000000023,[1.59469003]
-1.0640983748780156e-17,0.6873354135398597,1.892389890993702e-18,0.6873354135398597,-4.9086353386774756e-18,-0.09716387109856081,1.892389890993702e-18,-0.09716387109856081,-1.0346335397143868e-17,0.6941691354078396,-1.0051041107579744e-17,-0.6941691354078398,0.425092036175422,0.7991204674893939,0.425092036175422,1000.0,135.00000000000023,[1.50963313]
-1.1155397445559534e-17,0.6805620305457039,1.7735877298769985e-18,0.6805620305457039,-4.860883856276014e-18,-0.09563808362856784,1.7735877298769985e-18,-0.09563808362856784,-1.0076105417190144e-17,0.6872490963694579,-9.925614547858164e-18,-0.6872490963694579,0.540545968427663,0.6446860569557867,0.540545968427663,1000.0,147.8571428571427,[1.48333106]
-8.42271033903955e-18,0.8407383854814876,3.3494205635303326e-18,0.8407383854814876,-2.789120676630801e-19,-0.05734388174584826,3.3494205635303326e-18,-0.05734388174584826,-8.096589419456844e-18,0.8426917310592884,-7.702502328624916e-18,-0.8426917310592884,0.5717365184083767,0.5884171199383444,0.5717365184083768,1000.0,147.8571428571427,[1.40314927]
-7.605508833396363e-18,0.8847104778949052,4.026962548911292e-18,0.8847104778949052,5.0356108714268155e-19,-0.040036027565717155,4.026962548911292e-18,-0.040036027565717155,-7.589772549423154e-18,0.8856158948439639,-7.246231857362048e-18,-0.8856158948439639,0.5811052852557741,0.5697660001225161,0.5811052852557741,1000.0,147.8571428571427,[1.39177988]
-7.199621232983943e-18,0.9035208189290582,4.47629450227561e-18,0.9035208189290582,7.765042195055791e-19,-0.032028099478716404,4.47629450227561e-18,-0.032028099478716404,-7.352643028861352e-18,0.9040883084049116,-7.031557706245512e-18,-0.9040883084049119,0.5850212787330574,0.5616940509379426,0.5850212787330576,1000.0,147.8571428571427,[1.39177988]
-6.956522777121959e-18,0.9132957303130768,4.829716517975629e-18,0.9132957303130768,8.77976119608684e-19,-0.027603305193273885,4.829716517975629e-18,-0.027603305193273885,-7.211559103584308e-18,0.9137127740519391,-6.919057675193818e-18,-0.913712774051939,0.5870860238929891,0.557368819632962,0.5870860238929891,1000.0,147.8571428571427,[1.39229463]
-6.772028413298132e-18,0.9186853031505406,5.138405433329393e-18,0.9186853031505406,9.121618399642755e-19,-0.024942052411585935,5.138405433329393e-18,-0.024942052411585935,-7.116056138781386e-18,0.9190238256994772,-6.8366567636682585e-18,-0.9190238256994774,0.5882938242177446,0.5548159629773853,0.5882938242177446,1000.0,147.8571428571427,[1.39229463]
-6.6461381415124616e-18,0.9214599632375533,5.423862981179605e-18,0.9214599632375533,9.00766599845745e-19,-0.023322321889403044,5.423862981179605e-18,-0.023322321889403044,-7.04280102373369e-18,0.9217550621222896,-6.764243305911221e-18,-0.9217550621222895,0.5890140106760965,0.5532856318887368,0.5890140106760965,1000.0,147.8571428571427,[1.39229463]
-6.545208871891191e-18,0.9223713325785309,5.693719902677067e-18,0.9223713325785309,8.389067249165795e-19,-0.02242399038124643,5.693719902677067e-18,-0.02242399038124643,-6.988537975550211e-18,0.9226438698150617,-6.7098633972536775e-18,-0.9226438698150616,0.58940429598397,0.5524537553056195,0.58940429598397,1000.0,147.8571428571427,[1.39229463]
-6.454046950942947e-18,0.9216962052436309,5.953402502640127e-18,0.9216962052436309,7.694500232417268e-19,-0.022113751821175816,5.953402502640127e-18,-0.022113751821175816,-6.945127537003428e-18,0.9219614486409495,-6.65872554672886e-18,-0.9219614486409496,0.5895287258899398,0.5521881587839135,0.5895287258899399,1000.0,147.8571428571427,[1.39229463]
-6.4030396856504774e-18,0.919400313255404,6.194805238246378e-18,0.919400313255404,6.75032319402474e-19,-0.022375147544149942,6.194805238246378e-18,-0.022375147544149942,-6.923422317730037e-18,0.9196725413111762,-6.6204148056316635e-18,-0.9196725413111764,0.5893943650585021,0.5524749450197448,0.5893943650585022,1000.0,147.8571428571427,[1.39229463]
-6.39652811986846e-18,0.915127405427799,6.418911627244145e-18,0.915127405427799,5.40459959907447e-19,-0.023303307305903576,6.418911627244145e-18,-0.023303307305903576,-6.913112338575176e-18,0.9154240614580811,-6.589026355777879e-18,-0.9154240614580811,0.5889536500431964,0.5534141272154088,0.5889536500431963,1000.0,147.8571428571427,[1.39229463]
-6.429085948778547e-18,0.908005142205838,6.6217875986401256e-18,0.908005142205838,3.6573294475664587e-19,-0.025160309581181962,6.6217875986401256e-18,-0.025160309581181962,-6.921794426284533e-18,0.9083536643017764,-6.557089117722135e-18,-0.9083536643017767,0.5880743147218397,0.5552811906852936,0.5880743147218396,1000.0,147.8571428571427,[1.39229463]
-6.533271001290826e-18,0.8960321121333313,6.789223016691272e-18,0.8960321121333313,1.177508145581486e-19,-0.028557031099502594,6.789223016691272e-18,-0.028557031099502594,-6.966290125794985e-18,0.8964870606982217,-6.5347231167352746e-18,-0.8964870606982218,0.586436857483018,0.5587339477523136,0.586436857483018,1000.0,147.8571428571427,[1.39229463]
-6.8241209395542715e-18,0.8740009867425603,6.882318058731052e-18,0.8740009867425603,-3.060435917548194e-19,-0.0350448219509812,6.882318058731052e-18,-0.0350448219509812,-7.07807200505295e-18,0.8747033007669203,-6.52834439177858e-18,-0.8747033007669203,0.5831711756531559,0.5655287435441562,0.583171175653156,1000.0,147.8571428571427,[1.39177988]
-7.604423572432693e-18,0.8239566123565262,6.771417954006068e-18,0.8239566123565262,-1.233399085210469e-18,-0.04945992463790914,6.771417954006068e-18,-0.04945992463790914,-7.387914010180613e-18,0.8254397513999615,-6.576220948586042e-18,-0.8254397513999616,0.5751067238304697,0.5818114062219543,0.5751067238304698,1000.0,147.8571428571427,[1.39177988]
-1.0614937485652087e-17,0.6467517415943078,5.9267118658148784e-18,0.6467517415943078,-5.961338473436961e-18,-0.07958616086967919,5.9267118658148784e-18,-0.07958616086967919,-8.83076846137931e-18,0.6516300885143694,-7.30255672348258e-18,-0.6516300885143695,0.5482949272113387,0.6314628616067819,0.5482949272113387,1000.0,147.8571428571427,[1.38370334]
-1.0620363790470435e-17,0.6413115137569778,6.355627347300163e-18,0.6413115137569778,-5.925524861635865e-18,-0.07526009020991266,6.355627347300163e-18,-0.07526009020991266,-8.694025579956944e-18,0.6457124273666031,-7.603445503496832e-18,-0.645712427366603,0.6356571767328755,0.4380409881917212,0.6356571767328758,1000.0,160.7142857142859,[1.18973774]
-7.146443445764134e-18,0.8173109655338695,7.672354125877385e-18,0.8173109655338695,-1.1313845546255291e-18,-0.04420010924367189,7.672354125877385e-18,-0.04420010924367189,-7.459541233782805e-18,0.818505262071698,-6.628464469195165e-18,-0.8185052620716977,0.6538409152443292,0.38076779683281586,0.6538409152443291,1000.0,160.7142857142859,[0.86784413]
-5.929865905490543e-18,0.868332450712347,8.271960808304824e-18,0.868332450712347,-1.177508145581486e-19,-0.030591565727083617,8.271960808304824e-18,-0.030591565727083617,-7.326596765733283e-18,0.8688711577982926,-6.7354107797048795e-18,-0.8688711577982928,0.6587898331652436,0.36330691080162647,0.6587898331652439,1000.0,160.7142857142859,[0.86784413]
-5.212508408504956e-18,0.8904260503156572,8.698095308570705e-18,0.8904260503156572,3.608492704201328e-19,-0.02418114693814284,8.698095308570705e-18,-0.02418114693814284,-7.374890878616579e-18,0.8907543314225226,-6.89803214145192e-18,-0.8907543314225228,0.6608403905319601,0.3557807702548484,0.66084039053196,1000.0,160.7142857142859,[0.86676125]
-4.704606277507596e-18,0.9020374055190166,9.05236518439859e-18,0.9020374055190166,6.945670167485263e-19,-0.020523969542209013,9.05236518439859e-18,-0.020523969542209013,-7.479618561610692e-18,0.9022708652512547,-7.065094455337347e-18,-0.9022708652512547,0.6619412126851539,0.3516641322310474,0.661941212685154,1000.0,160.7142857142859,[0.86735546]
-4.267246109148758e-18,0.9085532938661103,9.371296250096986e-18,0.9085532938661103,9.425491469470236e-19,-0.018211946704012206,9.371296250096986e-18,-0.018211946704012206,-7.61310566014205e-18,0.9087358047296853,-7.237505524135267e-18,-0.9087358047296855,0.6626118378929325,0.349129065774106,0.6626118378929328,1000.0,160.7142857142859,[0.86812184]
-3.890660554755417e-18,0.912037056253329,9.671845708223228e-18,0.912037056253329,1.1427797947440596e-18,-0.016683729168799153,9.671845708223228e-18,-0.016683729168799153,-7.757445368310103e-18,0.9121896397121687,-7.402486803382167e-18,-0.9121896397121687,0.6630432246702846,0.3474872147830202,0.6630432246702848,1000.0,160.7142857142859,[0.86812184]
-3.5564001779451885e-18,0.9133712991481878,9.961881700763922e-18,0.9133712991481878,1.3147936574856869e-18,-0.015685556737661442,9.961881700763922e-18,-0.015685556737661442,-7.9118237403921e-18,0.9135059752392534,-7.568383247243553e-18,-0.9135059752392533,0.6633178120367024,0.34643752751352497,0.6633178120367021,1000.0,160.7142857142859,[0.86812184]
-3.2622944567907347e-18,0.9128891420741344,1.0238792818525236e-17,0.9128891420741344,1.4705286057722705e-18,-0.01510397554435422,1.0238792818525236e-17,-0.01510397554435422,-8.085194179338314e-18,0.9130140830206801,-7.745552483178172e-18,-0.9130140830206802,0.6634714794580832,0.3458485100320725,0.6634714794580833,1000.0,160.7142857142859,[0.87693544]
-2.973615040454628e-18,0.9105668562698488,1.0511905522913707e-17,0.9105668562698488,1.5774268106937235e-18,-0.014909308621044717,1.0511905522913707e-17,-0.014909308621044717,-8.255580150634437e-18,0.9106889080365002,-7.91023803805564e-18,-0.9106889080365003,0.6635134209694379,0.34568754734133433,0.6635134209694379,1000.0,160.7142857142859,[0.87693544]
-2.740826563747505e-18,0.9060163071446444,1.0773758644804106e-17,0.9060163071446444,1.6615345353781154e-18,-0.015146178683075238,1.0773758644804106e-17,-0.015146178683075238,-8.438989253494594e-18,0.9061429001767429,-8.076264297386747e-18,-0.9061429001767429,0.6634293964778333,0.3460099301726993,0.663429396477833,1000.0,160.7142857142859,[0.87693544]
-2.567727440042208e-18,0.8982713203096536,1.1022859950371387e-17,0.8982713203096536,1.705487604406733e-18,-0.0159637098102246,1.1022859950371387e-17,-0.0159637098102246,-8.639762531773465e-18,0.8984131593658646,-8.245222106230296e-18,-0.8984131593658642,0.6631711645425521,0.3469985778624336,0.6631711645425519,1000.0,160.7142857142859,[0.86812184]
-2.47385236668479e-18,0.885108678889152,1.1242930525160508e-17,0.885108678889152,1.6647903182691241e-18,-0.017722927652686616,1.1242930525160508e-17,-0.017722927652686616,-8.852202365411784e-18,0.8852860981679779,-8.398929303962025e-18,-0.885286098167978,0.6626171550609191,0.34910888221004643,0.662617155060919,1000.0,160.7142857142859,[0.86812184]
-2.5964868555794518e-18,0.8607559535961191,1.1422371642622249e-17,0.8607559535961191,1.4613038875810791e-18,-0.021348486038948337,1.1422371642622249e-17,-0.021348486038948337,-9.114021572897068e-18,0.8610206556798272,-8.546840524574815e-18,-0.8610206556798274,0.661430571265196,0.3535805407422658,0.661430571265196,1000.0,160.7142857142859,[0.86676125]
-3.2633797177544043e-18,0.8055018660670703,1.1477007749261989e-17,0.8055018660670703,7.632097727006267e-19,-0.029698397082214147,1.1477007749261989e-17,-0.029698397082214147,-9.496033432108758e-18,0.8060491616686821,-8.641197876864864e-18,-0.8060491616686822,0.6583683953321292,0.3648316215127117,0.6583683953321292,1000.0,160.7142857142859,[0.86784413]
-6.464899560579643e-18,0.6176875663047897,1.1113614898458255e-17,0.6176875663047897,-3.752018466646629e-18,-0.045993129678885615,1.1113614898458255e-17,-0.045993129678885615,-1.0750323790869866e-17,0.6193975278810794,-9.06097856795958e-18,-0.619397527881079,0.6482421346220419,0.3994549659239664,0.6482421346220419,1000.0,160.7142857142859,[0.79929709]
-6.39652811986846e-18,0.6146464644339473,1.0903566030380521e-17,0.6146464644339473,-3.740894541769016e-18,-0.03973127211033359,1.0903566030380521e-17,-0.03973127211033359,-1.0099167212668123e-17,0.6159292574838908,-8.688887140417147e-18,-0.6159292574838908,0.696090201908414,0.17583191295725173,0.6960902019084141,1000.0,173.57142857142813,[0.3299397]
-2.7516791733842006e-18,0.8017472866329536,1.027742132595085e-17,0.8017472866329536,7.982094387789705e-19,-0.022061968869392493,1.027742132595085e-17,-0.022061968869392493,-7.81713472131193e-18,0.802050772765476,-7.248695418260372e-18,-0.8020507727654762,0.7002170158475891,0.13925610017157006,0.7002170158475891,1000.0,173.57142857142813,[0.38007266]
-1.6506819257414197e-18,0.8574993761851981,9.263855414693699e-18,0.8574993761851981,1.5193653491374012e-18,-0.014852449582729233,9.263855414693699e-18,-0.014852449582729233,-6.3810631511361686e-18,0.8576279936059757,-6.059622208618846e-18,-0.8576279936059759,0.7011841799641936,0.1291568485829643,0.7011841799641937,1000.0,173.57142857142813,[0.38007266]
-1.1161909011341551e-18,0.8818427479649855,8.159263240108762e-18,0.8818427479649855,1.738995036660031e-18,-0.011313265784058807,8.159263240108762e-18,-0.011313265784058807,-5.068168700336903e-18,0.8819153145972339,-4.85846140440334e-18,-0.881915314597234,0.701587216564052,0.12470266680312896,0.7015872165640519,1000.0,173.57142857142813,[0.38007266]
-7.954962863697966e-19,0.8947608881399474,7.017500877518143e-18,0.8947608881399474,1.7963782101140596e-18,-0.009151774075192066,7.017500877518143e-18,-0.009151774075192066,-3.782677088870294e-18,0.8948076899053288,-3.6389167784787614e-18,-0.8948076899053289,0.7018141592700469,0.12212195419396973,0.701814159270047,1000.0,173.57142857142813,[0.38007266]
-5.816998765268908e-19,0.90212582980603,5.864190659985977e-18,0.90212582980603,1.7807775837613095e-18,-0.007650252182140387,5.864190659985977e-18,-0.007650252182140387,-2.517262805231573e-18,0.9021582672467559,-2.4176511609493032e-18,-0.9021582672467557,0.7019640133904151,0.12038707492767585,0.701964013390415,1000.0,173.57142857142813,[0.38007266]
-4.1511231860361146e-19,0.9061951766537505,4.697857310889776e-18,0.9061951766537505,1.7046736586839809e-18,-0.006519175564824162,4.697857310889776e-18,-0.006519175564824162,-1.2599879788203735e-18,0.9062186258517133,-1.1923104314800464e-18,-0.9062186258517131,0.7020729192664268,0.11911016776679637,0.7020729192664268,1000.0,173.57142857142813,[0.38007266]
-2.9247782970894974e-19,0.907940819150292,3.5292347394483345e-18,0.907940819150292,1.620565933999589e-18,-0.0056213824914229885,3.5292347394483345e-18,-0.0056213824914229885,-8.953402950273972e-21,0.9079582209663709,3.4687160407271905e-20,-0.907958220966371,0.7021570097976819,0.1181146357737069,0.7021570097976819,1000.0,173.57142857142813,[0.38007266]
-2.1162588791556662e-19,0.9077380725382843,2.3526761972100594e-18,0.9077380725382843,1.4887067269137358e-18,-0.004885720018052336,2.3526761972100594e-18,-0.004885720018052336,1.2344843461741385e-18,0.907751220652231,1.2597521377701415e-18,-0.9077512206522311,0.7022243494738194,0.1173112356602815,0.7022243494738195,1000.0,173.57142857142813,[0.38007266]
-1.6278914455043585e-19,0.9055784968732032,1.1772029159354539e-18,0.9055784968732032,1.341111235854674e-18,-0.004275151482254282,1.1772029159354539e-18,-0.004275151482254282,2.4753446005098357e-18,0.905588588112354,2.4864031260199636e-18,-0.9055885881123539,0.7022790582339923,0.11665439868240698,0.7022790582339921,1000.0,173.57142857142813,[0.38007266]
-1.5085127395007055e-19,0.9010671996686647,-2.9675104475339868e-21,0.9010671996686647,1.1608222582650663e-18,-0.003774938369422621,-2.9675104475339868e-21,-0.003774938369422621,3.709964604304433e-18,0.9010751070129627,3.7098673556771435e-18,-0.9010751070129626,0.7023227999346272,0.11612652317180172,0.7023227999346271,1000.0,173.57142857142813,[0.38007266]
-2.051143221335492e-19,0.8932025224878369,-1.185104972327173e-18,0.8932025224878369,9.395646792969322e-19,-0.0033917017951604358,-1.185104972327173e-18,-0.0033917017951604358,4.935359889907839e-18,0.8932089620126427,4.926284302662725e-18,-0.8932089620126429,0.7023549480946544,0.11573700261329915,0.7023549480946547,1000.0,173.57142857142813,[0.38007266]
-3.5433770463811536e-19,0.8796698589183188,-2.371566520858933e-18,0.8796698589183188,6.317575384761498e-19,-0.003165101700043874,-2.371566520858933e-18,-0.003165101700043874,6.1447475762971184e-18,0.8796755530069861,6.127599982316632e-18,-0.879675553006986,0.7023712345830846,0.11553916072253115,0.7023712345830846,1000.0,173.57142857142813,[0.38007266]
-7.344503571633831e-19,0.8544595929799835,-3.564471806362481e-18,0.8544595929799835,1.6618058506190326e-19,-0.003209951541555274,-3.564471806362481e-18,-0.003209951541555274,7.3268680809742e-18,0.8544656223771784,7.299960079683627e-18,-0.8544656223771783,0.7023582646607405,0.11569674206954578,0.7023582646607405,1000.0,173.57142857142813,[0.38007266]
-1.6794413412786633e-18,0.7971365867912845,-4.7736560063210725e-18,0.7971365867912845,-8.12317831306675e-19,-0.0038399685482493747,-4.7736560063210725e-18,-0.0038399685482493747,8.413078647986983e-18,0.7971458356911303,8.366831847012734e-18,-0.7971458356911302,0.7022711119661312,0.11675003467111411,0.7022711119661315,1000.0,173.57142857142813,[0.38007266]
-5.251035172715226e-18,0.6057591048712068,-5.99757601530199e-18,0.6057591048712068,-5.5877373866937104e-18,-0.003074423993432739,-5.99757601530199e-18,-0.003074423993432739,8.729432218896664e-18,0.6057669066705916,8.668210017924153e-18,-0.6057669066705915,0.7022497799230738,0.11700638100543274,0.7022497799230738,1000.0,173.57142857142813,[0.32781176]
-5.249407281269721e-18,0.6057147051965814,-6.020654767982526e-18,0.6057147051965814,-5.629926906656365e-18,0.0038870451982943033,-6.020654767982526e-18,0.0038870451982943033,9.29281831666163e-18,0.6057271772107929,9.36946450148517e-18,-0.605727177210793,0.7021381227188628,0.11833897603774995,0.7021381227188628,1000.0,173.57142857142813,[0.32781176]
-1.6745576669421503e-18,0.7970036616197621,-5.4578960867121805e-18,0.7970036616197621,-9.25117142718081e-19,0.004672589311421038,-5.4578960867121805e-18,0.004672589311421038,1.0100659446493168e-17,0.7970173584848589,1.0164233362532116e-17,-0.7970173584848588,0.7021844203268458,0.11778828337531214,0.7021844203268458,1000.0,173.57142857142813,[0.38007266]
-7.303806285496222e-19,0.8542385687154448,-4.8785278255369236e-18,0.8542385687154448,-4.1375574239902444e-20,0.004061932282953784,-4.8785278255369236e-18,0.004061932282953784,1.0141628047871695e-17,0.8542482259711655,1.0187807575792894e-17,-0.8542482259711655,0.7022762429271581,0.11668829093028399,0.7022762429271582,1000.0,173.57142857142813,[0.38007266]
-3.5026797602435446e-19,0.8793612337990157,-4.283287622767999e-18,0.8793612337990157,3.546768486892621e-19,0.00403591345621986,-4.283287622767999e-18,0.00403591345621986,1.0084109216797207e-17,0.8793704953578741,1.0123187152362771e-17,-0.8793704953578743,0.702289883314475,0.11652398717981764,0.7022898833144751,1000.0,173.57142857142813,[0.38007266]
-2.1705219273391446e-19,0.8928068645801222,-3.681340846387648e-18,0.8928068645801222,5.79597183409781e-19,0.004280832263863641,-3.681340846387648e-18,0.004280832263863641,1.0000408464974191e-17,0.8928171273929841,1.0035478351016454e-17,-0.8928171273929841,0.7022729610228772,0.11672778774705561,0.7022729610228771,1000.0,173.57142857142813,[0.38007266]
-1.5763415497300538e-19,0.9005851447862111,-3.0750784619564545e-18,0.9005851447862111,7.227838018039352e-19,0.004681872020667598,-3.0750784619564545e-18,0.004681872020667598,9.902192347762095e-18,0.9005973145280967,9.933899001549438e-18,-0.9005973145280964,0.7022395672449845,0.11712890501987111,0.7022395672449843,1000.0,173.57142857142813,[0.38007266]
-1.6523098171869238e-19,0.905010746436701,-2.4655602946342523e-18,0.905010746436701,8.368040317994697e-19,0.005199366058886873,-2.4655602946342523e-18,0.005199366058886873,9.785933767028992e-18,0.9050256817203196,9.813921572621838e-18,-0.9050256817203195,0.7021942105201271,0.11767149792550016,0.7021942105201271,1000.0,173.57142857142813,[0.38007266]
-2.203079756249232e-19,0.9070853913929845,-1.849394903909574e-18,0.9070853913929845,8.891000444862971e-19,0.005826686862304451,-1.849394903909574e-18,0.005826686862304451,9.672591825135751e-18,0.9071041051380788,9.695869855299146e-18,-0.9071041051380789,0.7021376006463835,0.11834517107630405,0.7021376006463836,1000.0,173.57142857142813,[0.38007266]
-2.9681887356362803e-19,0.9072040333572229,-1.2391221410735702e-18,0.9072040333572229,9.481111093858301e-19,0.006578568093950458,-1.2391221410735702e-18,0.006578568093950458,9.553755749613933e-18,0.9072278852073387,9.571230772928052e-18,-0.9072278852073385,0.7020680782342028,0.11916722304839839,0.7020680782342027,1000.0,173.57142857142813,[0.38007266]
-4.015465565577418e-19,0.9053751712795999,-6.190057221530323e-19,0.9053751712795999,9.515025498972975e-19,0.007492043632101755,-6.190057221530323e-19,0.007492043632101755,9.431731720011336e-18,0.9054061693446485,9.441277520507687e-18,-0.9054061693446482,0.7019814635460201,0.12018340016647508,0.7019814635460202,1000.0,173.57142857142813,[0.38007266]
-5.882114423089082e-19,0.9012235467432945,1.5261482301603362e-21,0.9012235467432945,9.451266417357388e-19,0.008638266051657946,1.5261482301603362e-21,0.008638266051657946,9.298244621479978e-18,0.9012649448663486,9.297228667711786e-18,-0.9012649448663486,0.7018695455853151,0.12148366951869062,0.701869545585315,1000.0,173.57142857142813,[0.38007266]
-8.117752008248402e-19,0.8937773240258675,6.351150645825025e-19,0.8937773240258675,8.794005246235003e-19,0.01015439960673067,6.351150645825025e-19,0.01015439960673067,9.154922345465365e-18,0.8938350053417097,9.138892579845861e-18,-0.8938350053417098,0.7017158786051877,0.12324630390684829,0.7017158786051877,1000.0,173.57142857142813,[0.38007266]
-1.1419658490213075e-18,0.8807789523717842,1.281845812916781e-18,0.8807789523717842,7.499831547059038e-19,0.012329975378722128,1.281845812916781e-18,0.012329975378722128,8.994642866893415e-18,0.8808652514624341,8.95715213490653e-18,-0.8808652514624342,0.701483602333053,0.12586306573291142,0.7014836023330527,1000.0,173.57142857142813,[0.38007266]
-1.656786518662061e-18,0.8563564506704885,1.9690364465528656e-18,0.8563564506704885,4.427186443669562e-19,0.0158827298356308,1.9690364465528656e-18,0.0158827298356308,8.803569108477341e-18,0.8565037254513189,8.72850075031976e-18,-0.856503725451319,0.7010717018948791,0.13037230382422357,0.701071701894879,1000.0,173.57142857142813,[0.38007266]
-2.7717565012120877e-18,0.8005263874532078,2.7416065950651424e-18,0.8005263874532078,-3.8282580493444163e-19,0.023105344074392496,2.7416065950651424e-18,0.023105344074392496,8.497254201481604e-18,0.800859759217355,8.328871184213896e-18,-0.800859759217355,0.7000840153569738,0.14058713626542682,0.7000840153569738,1000.0,173.57142857142813,[0.38007266]
-6.387846032159103e-18,0.61334882176179,3.90420088099745e-18,0.61334882176179,-4.983382687550217e-18,0.040787399820479554,3.90420088099745e-18,0.040787399820479554,7.335346682252869e-18,0.6147034969322135,6.770083172281786e-18,-0.6147034969322134,0.6958589082157656,0.17765348213172064,0.6958589082157656,1000.0,173.57142857142813,[0.33098632]
-6.993421649886724e-18,0.6163153750978798,4.761501931388101e-18,0.6163153750978798,-4.886557060947823e-18,0.04707832103561538,4.761501931388101e-18,0.04707832103561538,5.848810477266472e-18,0.6181108394888192,5.080129628491037e-18,-0.6181108394888193,0.6476998544582954,0.4012104149562999,0.6476998544582953,1000.0,160.7142857142859,[0.79929709]
-4.825341559715836e-18,0.8040587751428925,4.751492942578633e-18,0.8040587751428925,-7.715527163588366e-20,0.030833873566926764,4.751492942578633e-18,0.030833873566926764,4.319202977784439e-18,0.8046497633401937,3.9377650465545324e-18,-0.8046497633401939,0.6579868388920105,0.36620573410283835,0.6579868388920106,1000.0,160.7142857142859,[0.86784413]
-5.156481811255514e-18,0.859243500151413,5.1585675471700666e-18,0.859243500151413,9.269485205942734e-19,0.022533106368407697,5.1585675471700666e-18,0.022533106368407697,1.9238624589401196e-18,0.8595389074585635,1.648632797268089e-18,-0.8595389074585635,0.6610745234978554,0.35490977552635355,0.6610745234978554,1000.0,160.7142857142859,[0.86676125]
-6.059554590649057e-18,0.8835284908629258,5.6830453436672234e-18,0.8835284908629258,1.4247441588674604e-18,0.018955909455738013,5.6830453436672234e-18,0.018955909455738013,-6.065252210708322e-19,0.8837318149019038,-8.556574160097046e-19,-0.8837318149019038,0.6622632942808372,0.35044922327861694,0.6622632942808373,1000.0,160.7142857142859,[0.86735546]
-7.162858017839636e-18,0.8966250494077084,6.255211033056252e-18,0.8966250494077084,1.7483384552691237e-18,0.017244355620840823,6.255211033056252e-18,0.017244355620840823,-3.174964863620449e-18,0.8967908602490069,-3.4164194475803152e-18,-0.8967908602490066,0.662812120055079,0.3483678903346046,0.6628121200550788,1000.0,160.7142857142859,[0.86812184]
-8.380792134317813e-18,0.9043056107737066,6.850633525752668e-18,0.9043056107737066,1.9900125061162915e-18,0.016473814658412356,6.850633525752668e-18,0.016473814658412356,-5.7651775542536855e-18,0.9044556507901351,-6.0158103815524244e-18,-0.904455650790135,0.663061824642788,0.34741622501367647,0.663061824642788,1000.0,160.7142857142859,[0.86812184]
-9.623687252960391e-18,0.908793390543817,7.461334457953244e-18,0.908793390543817,2.1983317395331774e-18,0.016283270142614017,7.461334457953244e-18,0.016283270142614017,-8.359697374336486e-18,0.908939256266701,-8.62718705517818e-18,-0.9089392562667009,0.6631353772911643,0.34713533782922557,0.6631353772911642,1000.0,160.7142857142859,[0.86812184]
-1.0923422914575163e-17,0.9110545576799337,8.07961525969695e-18,0.9110545576799337,2.36668284652242e-18,0.016523603604155394,8.07961525969695e-18,0.016523603604155394,-1.0975481526426187e-17,0.9112043879094566,-1.1268626721747138e-17,-0.9112043879094568,0.6630815423921839,0.34734095105185187,0.663081542392184,1000.0,160.7142857142859,[0.86812184]
-1.2250290100281674e-17,0.9114772383848863,8.717316297669446e-18,0.9114772383848863,2.5255379200795535e-18,0.017150197657513275,8.717316297669446e-18,0.017150197657513275,-1.3591638736972152e-17,0.9116385716792759,-1.3918255451116364e-17,-0.911638571679276,0.6629146698945926,0.34797741432036383,0.6629146698945926,1000.0,160.7142857142859,[0.86812184]
-1.3625858371732858e-17,0.9100851508319586,9.356611312682332e-18,0.9100851508319586,2.6435091782709474e-18,0.018192735661129934,9.356611312682332e-18,0.018192735661129934,-1.622003904776451e-17,0.9102669703969627,-1.6592413347791005e-17,-0.9102669703969627,0.6626253720888653,0.3490776883849578,0.6626253720888653,1000.0,160.7142857142859,[0.86812184]
-1.5026998104640504e-17,0.9065451634243387,1.0010023198824202e-17,0.9065451634243387,2.7366720491209573e-18,0.01976467981098172,1.0010023198824202e-17,0.01976467981098172,-1.8865159160278405e-17,0.9067605945871781,-1.929772136972715e-17,-0.9067605945871777,0.6621772019714591,0.35077443803461394,0.6621772019714591,1000.0,160.7142857142859,[0.86735546]
-1.648246871454186e-17,0.8999746571097746,1.0681036661220587e-17,0.8999746571097746,2.7940382653724286e-18,0.022119801826831237,1.0681036661220587e-17,0.022119801826831237,-2.1512924596391244e-17,0.9002464490753159,-2.2037346022987504e-17,-0.9002464490753159,0.6614864674185863,0.3533713441185627,0.6614864674185863,1000.0,160.7142857142859,[0.86676125]
-1.802258967960944e-17,0.888310279761232,1.1381148683205362e-17,0.888310279761232,2.753205321614361e-18,0.025819468737362246,1.1381148683205362e-17,0.025819468737362246,-2.4195655784177312e-17,0.8886854325886961,-2.4850664119068864e-17,-0.888685432588696,0.6603593126775131,0.3575628005262356,0.6603593126775131,1000.0,160.7142857142859,[0.86676125]
-1.97577184740864e-17,0.8661652491418717,1.2155378517917938e-17,0.8661652491418717,2.5430547103212827e-18,0.032271801333100696,1.2155378517917938e-17,0.032271801333100696,-2.6938551126636815e-17,0.8667662360649978,-2.7838853737526885e-17,-0.8667662360649977,0.6582681782956379,0.36519311451160263,0.6582681782956378,1000.0,160.7142857142859,[0.86784413]
-2.1982367791988563e-17,0.8150939471579081,1.3117576823328278e-17,0.8150939471579081,1.8326751021880396e-18,0.04592177635722201,1.3117576823328278e-17,0.04592177635722201,-2.985357903225584e-17,0.8163865213471262,-3.1274250582659715e-17,-0.8163865213471261,0.6532327969759485,0.38284961265483675,0.6532327969759485,1000.0,160.7142857142859,[0.86784413]
-2.6493933275583437e-17,0.6390464386674057,1.4775959438681046e-17,0.6390464386674057,-2.6620773150712315e-18,0.07702305591513121,1.4775959438681046e-17,0.07702305591513121,-3.387062161767109e-17,0.6436714238771204,-3.7007630089045575e-17,-0.6436714238771205,0.6346844448593049,0.44085293569088535,0.6346844448593049,1000.0,160.7142857142859,[1.18973774]
-2.6405959308715972e-17,0.6444421982061174,1.477721215201997e-17,0.6444421982061174,-2.6934905328086984e-18,0.0814022950144406,1.477721215201997e-17,0.0814022950144406,-3.514587107879307e-17,0.6495629919125245,-3.877504154746859e-17,-0.6495629919125248,0.5468591350474274,0.6339480837027265,0.5468591350474274,1000.0,147.85714285714295,[1.38370334]
-2.222214263614931e-17,0.8216103180864964,1.2726494980398733e-17,0.8216103180864964,1.7481858404461076e-18,0.05135020141820025,1.2726494980398733e-17,0.05135020141820025,-3.317627504455581e-17,0.8232134340326832,-3.474585823337087e-17,-0.8232134340326837,0.5740917472989142,0.5838127536861106,0.5740917472989142,1000.0,147.85714285714295,[1.39817053]
-2.0282306492400178e-17,0.8716187926859895,1.139555806607846e-17,0.8716187926859895,2.3746951247307616e-18,0.037008020152331796,1.139555806607846e-17,0.037008020152331796,-3.233697830398041e-17,0.8724040997834533,-3.327977836397156e-17,-0.8724040997834532,0.5822266454349483,0.5674718201735962,0.5822266454349482,1000.0,147.85714285714295,[1.39177988]
-1.8826632396068135e-17,0.8936151035512216,1.0271859363512043e-17,0.8936151035512216,2.5041464090534728e-18,0.03059247587717559,1.0271859363512043e-17,0.03059247587717559,-3.169735262351766e-17,0.8941386094309742,-3.2382951874545444e-17,-0.8941386094309741,0.5855022763048864,0.560690796146676,0.5855022763048862,1000.0,147.85714285714295,[1.39177988]
-1.7541615586273132e-17,0.9055544421463235,9.22646478305477e-18,0.9055544421463235,2.4796262941555634e-18,0.02726745961776427,9.22646478305477e-18,0.02726745961776427,-3.1127251473539985e-17,0.9059648790350237,-3.167511624897719e-17,-0.9059648790350239,0.5871303179553862,0.5572754969269812,0.5871303179553863,1000.0,147.85714285714295,[1.39229463]
-1.6345590175499034e-17,0.9126441312825979,8.215351307217474e-18,0.9126441312825979,2.363931540407492e-18,0.02548165865477821,8.215351307217474e-18,0.02548165865477821,-3.0589674238067285e-17,0.912999794793168,-3.1034159790138975e-17,-0.9129997947931676,0.5879914159201466,0.555456739637249,0.5879914159201464,1000.0,147.85714285714295,[1.39229463]
-1.5191923856713164e-17,0.9168855673451132,7.229328132214078e-18,0.9168855673451132,2.196017081384101e-18,0.024624207317244816,7.229328132214078e-18,0.024624207317244816,-3.0075023140452105e-17,0.9172161660109207,-3.044723732377874e-17,-0.9172161660109206,0.5884088065814252,0.5545720446207562,0.5884088065814254,1000.0,147.85714285714295,[1.39229463]
-1.4080073999433687e-17,0.9191510735303773,6.264982621029918e-18,0.9191510735303773,2.0066644790275965e-18,0.024433028024006615,6.264982621029918e-18,0.024433028024006615,-2.9569613718230674e-17,0.9194757576089039,-2.9889979042567544e-17,-0.9194757576089035,0.5885162293215532,0.554344022832647,0.5885162293215531,1000.0,147.85714285714295,[1.39229463]
-1.2971106866588959e-17,0.9197968861600863,5.301855908779565e-18,0.9197968861600863,1.783308446242992e-18,0.024812986834299087,5.301855908779565e-18,0.024812986834299087,-2.9082263716732807e-17,0.9201315102230928,-2.93528575037436e-17,-0.9201315102230929,0.5883616871824038,0.5546720203072716,0.5883616871824038,1000.0,147.85714285714295,[1.39229463]
-1.1920404681731238e-17,0.9188572612003812,4.359307821657701e-18,0.9188572612003812,1.5407907745685966e-18,0.025780535299452862,4.359307821657701e-18,0.025780535299452862,-2.860929342300356e-17,0.9192188544960292,-2.8839499505449695e-17,-0.9192188544960291,0.5879378492083679,0.5555701314293967,0.5879378492083678,1000.0,147.85714285714295,[1.39229463]
-1.0879639417572118e-17,0.9160553965359091,3.4339723549566947e-18,0.9160553965359091,1.2720063961328861e-18,0.027468970909829023,3.4339723549566947e-18,0.027468970909829023,-2.815660394353289e-17,0.9164671482848721,-2.834759645259665e-17,-0.9164671482848721,0.5871796027808999,0.557171632583829,0.5871796027808999,1000.0,147.85714285714295,[1.39229463]
-9.897546074261385e-18,0.9106396676738938,2.534385340513844e-18,0.9106396676738938,9.554874924982717e-19,0.03019840887073401,2.534385340513844e-18,0.03019840887073401,-2.7722202807020312e-17,0.9111402461967879,-2.7865481206582437e-17,-0.9111402461967882,0.5859267715342851,0.5598032125656476,0.5859267715342851,1000.0,147.85714285714295,[1.39229463]
-8.972632417973992e-18,0.9008396555351605,1.6714025674413257e-18,0.9008396555351605,5.565523451343599e-19,0.03469086545977651,1.6714025674413257e-18,0.03469086545977651,-2.7336799507297155e-17,0.9015073716454322,-2.7427760972621347e-17,-0.9015073716454322,0.5838042981846162,0.5642207749120334,0.5838042981846163,1000.0,147.85714285714295,[1.39177988]
-8.206132947977242e-18,0.8820052962285635,8.986183342467624e-19,0.8820052962285635,1.350217253627964e-21,0.04276594923646194,8.986183342467624e-19,0.04276594923646194,-2.7046356541895085e-17,0.8830414876942824,-2.708922773176892e-17,-0.8830414876942825,0.5798022176140271,0.5724148643245672,0.5798022176140271,1000.0,147.85714285714295,[1.39177988]
-7.845826308038944e-18,0.8380103641427797,3.6294454476112375e-19,0.8380103641427797,-1.0902463812214294e-18,0.06014054876736375,3.6294454476112375e-19,0.06014054876736375,-2.7027271210416803e-17,0.8401656122555563,-2.7040238049851392e-17,-0.8401656122555564,0.5702592209500184,0.5912772969114883,0.5702592209500182,1000.0,147.85714285714295,[1.40171471]
-9.39846168859384e-18,0.6778127324154143,7.244869408357877e-19,0.6778127324154143,-5.9517618932927046e-18,0.09850153696276336,7.244869408357877e-19,0.09850153696276336,-2.8481283500898224e-17,0.6849325901199893,-2.846841043900298e-17,-0.684932590119989,0.5383981147857579,0.6482707304747637,0.538398114785758,1000.0,147.85714285714295,[1.48333106]
-8.707031754318421e-18,0.6845672399510203,2.8962690002899744e-19,0.6845672399510203,-6.066805914392638e-18,0.10010301517987791,2.8962690002899744e-19,0.10010301517987791,-2.7745374824314913e-17,0.6918474684945088,-2.7413777177515054e-17,-0.6918474684945086,0.42239384502118427,0.8019768571326977,0.4223938450211841,1000.0,134.9999999999996,[1.50531956]
-6.3642585634018475e-18,0.8462164270836241,-1.0847246921386965e-18,0.8462164270836241,-1.4345475415959209e-18,0.06219756587481966,-1.0847246921386965e-18,0.06219756587481966,-2.422235489960384e-17,0.8484991329794785,-2.4025691596827284e-17,-0.8484991329794787,0.46200333667739873,0.75703753790542,0.4620033366773988,1000.0,134.9999999999996,[1.59469003]
-5.9057866778591245e-18,0.8889402097866221,-1.5536040607509846e-18,0.8889402097866221,-5.76686903520878e-19,0.04465640078199859,-1.5536040607509846e-18,0.04465640078199859,-2.220284533963906e-17,0.8900611724518076,-2.2034820433770523e-17,-0.8900611724518078,0.4742841476158936,0.7416933966542582,0.4742841476158937,1000.0,134.9999999999996,[1.5922206]
-5.823306844620237e-18,0.9076434492368827,-1.778016209307363e-18,0.9076434492368827,-2.4992372989131237e-19,0.036674655294926146,-1.778016209307363e-18,0.036674655294926146,-2.0488976637868363e-17,0.9083840934778786,-2.0330857650174506e-17,-0.9083840934778786,0.4794055731465536,0.7350786304008904,0.47940557314655347,1000.0,134.9999999999996,[1.59529101]
-5.8818939794558365e-18,0.9178408441753101,-1.9070907257857534e-18,0.9178408441753101,-9.083019567321617e-20,0.03239588792862893,-1.9070907257857534e-18,0.03239588792862893,-1.8883646750366542e-17,0.9184123849290853,-1.8734584672852673e-17,-0.9184123849290852,0.482051946803311,0.731609076738579,0.4820519468033109,1000.0,134.9999999999996,[1.59529101]
-6.0012726854594895e-18,0.9239586705325489,-1.9977815544504515e-18,0.9239586705325489,7.081751718007893e-21,0.029949357807998168,-1.9977815544504515e-18,0.029949357807998168,-1.7322278410494616e-17,0.9244439349605722,-1.7182057029332013e-17,-0.9244439349605721,0.4835389572666047,0.7296438539527688,0.4835389572666046,1000.0,134.9999999999996,[1.59529101]
-6.145595436424985e-18,0.9276900755857025,-2.0589403550363872e-18,0.9276900755857025,5.222500440111867e-20,0.02859533740797552,-2.0589403550363872e-18,0.02859533740797552,-1.580039491677745e-17,0.9281306856589124,-1.566594858522717e-17,-0.9281306856589122,0.48435783455398934,0.7285567762448857,0.48435783455398923,1000.0,134.9999999999996,[1.59529101]
-6.336041778346439e-18,0.929773827493566,-2.105299757090407e-18,0.929773827493566,5.450044901928133e-20,0.028010695967988417,-2.105299757090407e-18,0.028010695967988417,-1.429668954420175e-17,0.9301956618801477,-1.4161311003301097e-17,-0.9301956618801481,0.48471690875384854,0.7280790044605232,0.48471690875384843,1000.0,134.9999999999996,[1.59529101]
-6.5400369251112036e-18,0.9305155201728179,-2.1351428438535805e-18,0.9305155201728179,4.4156555459305723e-20,0.02806862405732201,-2.1351428438535805e-18,0.02806862405732201,-1.2813358250498692e-17,0.9309387632594107,-1.2683150041891811e-17,-0.930938763259411,0.4846972388150614,0.7281051938903547,0.48469723881506144,1000.0,134.9999999999996,[1.59529101]
-6.7451342900421954e-18,0.9299531698975503,-2.1473552091703427e-18,0.9299531698975503,1.1181155436244129e-21,0.028769082001730086,-2.1473552091703427e-18,0.028769082001730086,-1.1356471714183797e-17,0.9303980644228171,-1.1219971780558051e-17,-0.9303980644228173,0.48430028089905425,0.7286332931195185,0.48430028089905436,1000.0,134.9999999999996,[1.59529101]
-7.020163158319645e-18,0.9278693383615,-2.1426426965971427e-18,0.9278693383615,-6.362660347060818e-20,0.030238800802838032,-2.1426426965971427e-18,0.030238800802838032,-9.918055810754484e-18,0.928361941349063,-9.768545344947345e-18,-0.9283619413490632,0.48344858701028265,0.7297636106545203,0.48344858701028276,1000.0,134.9999999999996,[1.59529101]
-7.284941397651184e-18,0.9236592142296636,-2.1142049379959086e-18,0.9236592142296636,-1.719248374282012e-19,0.03280083622361614,-2.1142049379959086e-18,0.03280083622361614,-8.516530301488657e-18,0.924241439716013,-8.357122171565066e-18,-0.9242414397160128,0.4819402916405535,0.7317561824725749,0.48194029164055363,1000.0,134.9999999999996,[1.59529101]
-7.624585686273367e-18,0.915886010053552,-2.0384459860081056e-18,0.915886010053552,-3.6677157341328276e-19,0.03719484977640903,-2.0384459860081056e-18,0.03719484977640903,-7.186784630648039e-18,0.9166409549336668,-7.012936435874345e-18,-0.916640954933667,0.47929953137470444,0.735216919315638,0.4792995313747045,1000.0,134.9999999999996,[1.59529101]
-8.060284048781586e-18,0.9007419641794594,-1.8712514132245316e-18,0.9007419641794594,-7.279435605945849e-19,0.045291542337460876,-1.8712514132245316e-18,0.045291542337460876,-5.990528177989097e-18,0.9018799309448993,-5.8285111959904276e-18,-0.9018799309448995,0.4742595951468486,0.7417247958793708,0.4742595951468487,1000.0,134.9999999999996,[1.5922206]
-8.804730676852519e-18,0.8647424164230032,-1.4645162176405347e-18,0.8647424164230032,-1.5978374535343783e-18,0.06294741411430019,-1.4645162176405347e-18,0.06294741411430019,-5.1703231278429405e-18,0.867030462962387,-5.022013911719086e-18,-0.8670304629623875,0.46237994889429784,0.7565775345072129,0.46237994889429795,1000.0,134.9999999999996,[1.59469003]
-1.1022978650789289e-17,0.721978968266973,-1.499652601164497e-19,0.721978968266973,-6.26655858104259e-18,0.10096781574103435,-1.499652601164497e-19,0.10096781574103435,-6.2414608614325715e-18,0.7290048905428268,-6.547378759458596e-18,-0.7290048905428266,0.42593071773738034,0.7982268144928735,0.42593071773738045,1000.0,134.9999999999996,[1.5222403]
-1.0298143027475916e-17,0.7287556115397437,-4.721910572804779e-19,0.7287556115397437,-6.2406071722663255e-18,0.09947341417003394,-4.721910572804779e-19,0.09947341417003394,-5.275790568798618e-18,0.7355132231831792,-5.3647066477741845e-18,-0.7355132231831791,0.2917734644298069,0.9108987270324054,0.2917734644298069,1000.0,122.14285714285755,[1.56748939]
-7.201079552403874e-18,0.87301741994093,-2.286451962272699e-18,0.87301741994093,-1.5163172919777199e-18,0.06122287421643827,-2.286451962272699e-18,0.06122287421643827,-1.6709945347547898e-18,0.875161502722577,-1.362639904398799e-18,-0.8751615027225772,0.33339739977870253,0.8818686680235329,0.33339739977870264,1000.0,122.14285714285755,[1.59788508]
-5.535466809810719e-18,0.9077922235160635,-3.2049661292887275e-18,0.9077922235160635,-5.80131865202917e-19,0.04395732637859151,-3.2049661292887275e-18,0.04395732637859151,1.845579533334173e-20,0.9088558563482949,3.339920627443634e-19,-0.9088558563482951,0.34680557406201157,0.8714653106114078,0.3468055740620116,1000.0,122.14285714285755,[1.5938833]
-4.163959788372018e-18,0.9228513950434888,-3.883375846519301e-18,0.9228513950434888,-1.477809604620327e-19,0.03599035687813063,-3.883375846519301e-18,0.03599035687813063,1.2967193992098852e-18,0.9235529238337828,1.5858215839674847e-18,-0.9235529238337828,0.35258575950178533,0.8668140310315116,0.35258575950178533,1000.0,122.14285714285755,[1.59037687]
-2.880893056871109e-18,0.9310681177504648,-4.47361632409671e-18,0.9310681177504648,1.073973825717345e-19,0.031605131667142204,-4.47361632409671e-18,0.031605131667142204,2.4195172503904428e-18,0.9316043818269057,2.731444036672542e-18,-0.9316043818269056,0.3556749160262188,0.8642862420630588,0.3556749160262188,1000.0,122.14285714285755,[1.58119998]
-1.6635100494760452e-18,0.9360263712680302,-5.027789626703534e-18,0.9360263712680302,2.9338768960866685e-19,0.028982004197471305,-5.027789626703534e-18,0.028982004197471305,3.471768899631839e-18,0.9364749458883022,3.777318202642446e-18,-0.936474945888302,0.35749397728148335,0.8627839314770138,0.35749397728148335,1000.0,122.14285714285755,[1.58119998]
-4.4829756400832005e-19,0.9390856654176915,-5.5556623081439274e-18,0.9390856654176915,4.154795480214938e-19,0.02739889675280832,-5.5556623081439274e-18,0.02739889675280832,4.48603747496996e-18,0.9394852774451868,4.809477809881855e-18,-0.9394852774451868,0.35858243161720366,0.8618800841596164,0.35858243161720355,1000.0,122.14285714285755,[1.58119998]
7.365360930779355e-19,0.9408379450199744,-6.0641105140548915e-18,0.9408379450199744,5.230510068757309e-19,0.02653562540356187,-6.0641105140548915e-18,0.02653562540356187,5.4674726668564366e-18,0.9412120792918921,5.805863801576945e-18,-0.941212079291892,0.35917408842649134,0.8613872232660513,0.35917408842649134,1000.0,122.14285714285755,[1.58119998]
1.9229891630084168e-18,0.941529427956237,-6.554024365092542e-18,0.941529427956237,6.018585459357951e-19,0.026258821905243215,-6.554024365092542e-18,0.026258821905243215,6.418518432109847e-18,0.94189553000078,6.7771061511819886e-18,-0.9418955300007799,0.35936560597490647,0.861227451074672,0.3593656059749065,1000.0,122.14285714285755,[1.58119998]
3.0774227952100063e-18,0.9411943569086738,-7.036866135316767e-18,0.9411943569086738,6.563783367642434e-19,0.026551964268664994,-7.036866135316767e-18,0.026551964268664994,7.348123934379822e-18,0.9415688101691011,7.740050836680668e-18,-0.9415688101691011,0.35917002332887304,0.8613906133014648,0.3591700233288731,1000.0,122.14285714285755,[1.58119998]
4.237261535726747e-18,0.9396659222590408,-7.500876004754054e-18,0.9396659222590408,6.676169877154085e-19,0.027510117977333867,-7.500876004754054e-18,0.027510117977333867,8.244358721842119e-18,0.9400685358238838,8.682654994155519e-18,-0.9400685358238838,0.35852132711184553,0.8619309229932073,0.3585213271118455,1000.0,122.14285714285755,[1.58119998]
5.368349339307523e-18,0.9364728545339104,-7.947384318936285e-18,0.9364728545339104,6.419504069508491e-19,0.029395296328449567,-7.947384318936285e-18,0.029395296328449567,9.083615189061443e-18,0.9369340909184212,9.576686546869387e-18,-0.9369340909184212,0.3572339578035373,0.8629993040460933,0.3572339578035374,1000.0,122.14285714285755,[1.58119998]
6.453292355429146e-18,0.9304866049801118,-8.356051840742949e-18,0.9304866049801118,5.488558948236485e-19,0.032818309646108296,-8.356051840742949e-18,0.032818309646108296,9.851784943510091e-18,0.9310651768246103,1.0437612180532731e-17,-0.9310651768246104,0.3548657946633471,0.8649511752439569,0.3548657946633472,1000.0,122.14285714285755,[1.58119998]
7.476926605704715e-18,0.9186804582710114,-8.687943110886514e-18,0.9186804582710114,2.81434186587194e-19,0.039330438772581716,-8.687943110886514e-18,0.039330438772581716,1.0432745062075418e-17,0.9195219778901857,1.1162265977621422e-17,-0.9195219778901859,0.3502501378564741,0.8687057510245006,0.3502501378564742,1000.0,122.14285714285755,[1.59512281]
8.298134250452074e-18,0.8900102868878641,-8.812293059280511e-18,0.8900102868878641,-5.071916507058364e-19,0.05376784624264041,-8.812293059280511e-18,0.05376784624264041,1.053863113396923e-17,0.8916329357172661,1.1616508190934489e-17,-0.891632935717266,0.33941416969834165,0.8772662325747929,0.3394141696983416,1000.0,122.14285714285755,[1.59788508]
8.002595645681525e-18,0.7628105319358027,-8.204097288801491e-18,0.7628105319358027,-5.07850252555786e-18,0.08391422638470422,-8.204097288801491e-18,0.08391422638470422,8.393954102977787e-18,0.7674122132347946,1.0451330462463008e-17,-0.7674122132347948,0.3084789149613262,0.899823048187012,0.3084789149613261,1000.0,122.14285714285755,[1.59898662]
8.311458372361502e-18,0.7682673192011553,-8.243033145523457e-18,0.7682673192011553,-5.026333824368357e-18,0.079618504577714,-8.243033145523457e-18,0.079618504577714,7.78109112745115e-18,0.7723818874259811,9.644863489454335e-18,-0.7723818874259814,0.16349896044906723,0.972900909581314,0.16349896044906725,1000.0,109.28571428571402,[1.58526147]
8.786802674448774e-18,0.8967169797654163,-8.543466950229132e-18,0.8967169797654163,-3.5013894231114473e-19,0.04859906177737052,-8.543466950229132e-18,0.04859906177737052,9.190582282618285e-18,0.898032967437861,1.0119758770095762e-17,-0.8980329674378612,0.19708106188737437,0.9603739428424167,0.19708106188737434,1000.0,109.28571428571402,[1.58561898]
8.119914051574461e-18,0.9244526689828862,-8.12842034078543e-18,0.9244526689828862,5.249272948430712e-19,0.035028763708395805,-8.12842034078543e-18,0.035028763708395805,8.332963284679684e-18,0.9251160745963294,8.952126039856331e-18,-0.9251160745963296,0.2081035385524707,0.9557122132126807,0.20810353855247068,1000.0,109.28571428571402,[1.5989435]
7.304878828557973e-18,0.9362381447618519,-7.537285768207556e-18,0.9362381447618519,8.95073351565264e-19,0.028654292687626908,-7.537285768207556e-18,0.028654292687626908,6.954688749682867e-18,0.9366765355214913,7.423632223738606e-18,-0.9366765355214913,0.21301572207145078,0.9535452817253917,0.21301572207145078,1000.0,109.28571428571402,[1.59749979]
6.427436860829846e-18,0.9426272284161782,-6.8764523239058084e-18,0.9426272284161782,1.0948302575158546e-18,0.02503071454695902,-6.8764523239058084e-18,0.02503071454695902,5.394630353708496e-18,0.9429595051868864,5.759730300509165e-18,-0.9429595051868861,0.21574354125189127,0.9523179347340817,0.2157435412518913,1000.0,109.28571428571402,[1.59693693]
5.510925498409613e-18,0.9464671735474188,-6.174916493057868e-18,0.9464671735474188,1.2235000532613335e-18,0.022749883035647556,-6.174916493057868e-18,0.022749883035647556,3.762403693387838e-18,0.9467405493486455,4.061211615246033e-18,-0.9467405493486456,0.21743707991104677,0.9515472834071431,0.21743707991104677,1000.0,109.28571428571402,[1.59693693]
4.58626620016058e-18,0.9488245385374183,-5.4600894611195286e-18,0.9488245385374183,1.2943761257814932e-18,0.02125038935526828,-5.4600894611195286e-18,0.02125038935526828,2.058279024136651e-18,0.9490624763304553,2.305786928938888e-18,-0.9490624763304554,0.2185397191920354,0.9510419455896425,0.21853971919203538,1000.0,109.28571428571402,[1.59693693]
3.652377944419716e-18,0.9501602509907623,-4.7304621695413306e-18,0.9501602509907623,1.3386601252162689e-18,0.020278415802099044,-4.7304621695413306e-18,0.020278415802099044,3.229520423548041e-19,0.9503766183520461,5.270194770283108e-19,-0.9503766183520465,0.21924835846825913,0.9507156854801266,0.21924835846825913,1000.0,109.28571428571402,[1.59693693]
2.7076264807905586e-18,0.9506641745065326,-4.00194802557632e-18,0.9506641745065326,1.3742585925099186e-18,0.019720453892370426,-4.00194802557632e-18,0.019720453892370426,-1.4476480403966236e-18,0.9508686917718491,-1.2818522074766716e-18,-0.9508686917718493,0.2196503064541481,0.9505301077552447,0.21965030645414815,1000.0,109.28571428571402,[1.59693693]
1.7585403322576816e-18,0.9503599879361819,-3.2541649354240864e-18,0.9503599879361819,1.3566749008049749e-18,0.019546775382521708,-3.2541649354240864e-18,0.019546775382521708,-3.2472788539262128e-18,0.9505609833660934,-3.1107336386795956e-18,-0.9505609833660935,0.21976862115643953,0.9504754106814097,0.21976862115643953,1000.0,109.28571428571402,[1.59693693]
8.034704108723844e-19,0.9491127449820356,-2.4994743023144915e-18,0.9491127449820356,1.33094804248445e-18,0.019801955323857298,-2.4994743023144915e-18,0.019801955323857298,-5.087336168265073e-18,0.9493192930315815,-4.979826625544229e-18,-0.9493192930315814,0.21956983287564336,0.9505672921902601,0.21956983287564336,1000.0,109.28571428571402,[1.59693693]
-1.8252944797749586e-19,0.9465449956887265,-1.7275487924556836e-18,0.9465449956887265,1.2528529046490114e-18,0.02063507382729095,-1.7275487924556836e-18,0.02063507382729095,-6.988710727051264e-18,0.946769895558171,-6.910421385816065e-18,-0.9467698955581709,0.21894037350707443,0.9508576264074265,0.21894037350707443,1000.0,109.28571428571402,[1.59693693]
-1.1679993942474592e-18,0.9417499863948005,-9.36082491256154e-19,0.9417499863948005,1.0895605418648721e-18,0.02240711595279173,-9.36082491256154e-19,0.02240711595279173,-8.976634847690103e-18,0.9420165156301291,-8.929373281921863e-18,-0.9420165156301289,0.21760086459775826,0.951472399732444,0.21760086459775826,1000.0,109.28571428571402,[1.59693693]
-2.2164165960605774e-18,0.932266097454856,-9.023629614927443e-20,0.932266097454856,7.659164999197692e-19,0.026042696670699906,-9.023629614927443e-20,0.026042696670699906,-1.1178898538566263e-17,0.9326297756953661,-1.1164426388926213e-17,-0.9326297756953662,0.21481432348007098,0.9527379560275735,0.21481432348007098,1000.0,109.28571428571402,[1.59693693]
-3.3711978509145927e-18,0.9088053262210786,8.68356947740817e-19,0.9088053262210786,-6.644858667588252e-20,0.034399783020339816,8.68356947740817e-19,0.034399783020339816,-1.392894823076722e-17,0.9094561375017751,-1.3973711679820348e-17,-0.9094561375017751,0.20813033041517803,0.9557005446909286,0.20813033041517803,1000.0,109.28571428571402,[1.5989435]
-5.40504684529192e-18,0.7922137220276553,2.240687387089636e-18,0.7922137220276553,-4.703200485672149e-18,0.05069875580589123,2.240687387089636e-18,0.05069875580589123,-1.9195719687455654e-17,0.7938343310850043,-1.9430240950080497e-17,-0.7938343310850041,0.1904401650184342,0.9630498881654589,0.19044016501843417,1000.0,109.28571428571402,[1.59785158]
-5.613567445489174e-18,0.7952675767370498,2.200480932479175e-18,0.7952675767370498,-4.7344009435087796e-18,0.0444515641878104,2.200480932479175e-18,0.0444515641878104,-1.999612667370354e-17,0.7965089203316951,-2.018043875846501e-17,-0.7965089203316954,0.0398333739523375,0.9984120415134957,0.039833373952337485,1000.0,96.42857142857196,[1.57569701]
-4.2376791068397215e-18,0.9126096187496593,1.3136928965790547e-18,0.9126096187496593,-1.6628696501232155e-19,0.026807587809305602,1.3136928965790547e-18,0.026807587809305602,-1.6067808411368916e-17,0.913003265601253,-1.6130788246099208e-17,-0.9130032656012527,0.05850519437781709,0.9965712641159326,0.058505194377817066,1000.0,96.42857142857196,[1.57547459]
-3.735427963594594e-18,0.9356076292972385,8.102462705536353e-19,0.9356076292972385,5.993435145924375e-19,0.019620725562267995,8.102462705536353e-19,0.019620725562267995,-1.4660280582310372e-17,0.9358133408275331,-1.468733158323332e-17,-0.9358133408275332,0.06442110616878237,0.9958412735772612,0.06442110616878235,1000.0,96.42857142857196,[1.5727224]
-3.348214482498442e-18,0.9451354531280787,3.937974461844012e-19,0.9451354531280787,8.706364991814741e-19,0.016101558062896124,3.937974461844012e-19,0.016101558062896124,-1.3830924471821635e-17,0.9452725982126382,-1.3840624177860522e-17,-0.945272598212638,0.06719039250440398,0.9954752143123448,0.06719039250440398,1000.0,96.42857142857196,[1.57343032]
-2.978367296471322e-18,0.9502090907228947,2.2894276863652218e-20,0.9502090907228947,9.52550452024083e-19,0.013957426986412448,2.2894276863652218e-20,0.013957426986412448,-1.3205597952415355e-17,0.9503115940892823,-1.3203907968517654e-17,-0.9503115940892821,0.0688421755299409,0.9952494711059182,0.0688421755299409,1000.0,96.42857142857196,[1.57343032]
-2.660067886568187e-18,0.9531905676813286,-3.450085274296079e-19,0.9531905676813286,9.633789506383925e-19,0.012470588256635252,-3.450085274296079e-19,0.012470588256635252,-1.2677944919739337e-17,0.9532721405181838,-1.2667272900490974e-17,-0.9532721405181842,0.06997194591775306,0.9950918819732008,0.06997194591775306,1000.0,96.42857142857196,[1.57343032]
-2.3309243456296353e-18,0.954952210401854,-6.936577530004616e-19,0.954952210401854,9.373073179455592e-19,0.011351496936376581,-6.936577530004616e-19,0.011351496936376581,-1.221350727837191e-17,0.9550196755219673,-1.2195391695312632e-17,-0.955019675521967,0.07081332516475099,0.9949728367941623,0.07081332516475099,1000.0,96.42857142857196,[1.57343032]
-2.0012318152582897e-18,0.9558656964197678,-1.0387721967069803e-18,0.9558656964197678,8.68637801408173e-19,0.01046297428030244,-1.0387721967069803e-18,0.01046297428030244,-1.1789225352485418e-17,0.9559229589369839,-1.176526406160187e-17,-0.9559229589369835,0.0714751848341313,0.9948781814402473,0.07147518483413129,1000.0,96.42857142857196,[1.57343032]
-1.673718285415562e-18,0.9560787304792269,-1.3838882301512388e-18,0.9560787304792269,7.7799069053131815e-19,0.009733854360664705,-1.3838882301512388e-18,0.009733854360664705,-1.1404013351203612e-17,0.9561282794664558,-1.1374788478657582e-17,-0.9561282794664557,0.07201330785036561,0.9948005664377645,0.07201330785036561,1000.0,96.42857142857196,[1.57343032]
-1.3744257799288823e-18,0.9555997422221387,-1.7313105425019041e-18,0.9555997422221387,6.705205112189175e-19,0.009127091799287921,-1.7313105425019041e-18,0.009127091799287921,-1.1048914692100736e-17,0.9556433284127142,-1.1015125156494817e-17,-0.9556433284127144,0.07245630701663046,0.9947362299358679,0.07245630701663049,1000.0,96.42857142857196,[1.57343032]
-1.0756737852737179e-18,0.9543005853623727,-2.0651768299503553e-18,0.9543005853623727,5.283205238094959e-19,0.008627943677206517,-2.0651768299503553e-18,0.008627943677206517,-1.0738857542465627e-17,0.9543395876914385,-1.0700640631898315e-17,-0.9543395876914386,0.07281502695459316,0.9946838410767532,0.07281502695459315,1000.0,96.42857142857196,[1.57343032]
-7.60106604632634e-19,0.9518393383667576,-2.4067930888800897e-18,0.9518393383667576,3.394526589854704e-19,0.008243030863954441,-2.4067930888800897e-18,0.008243030863954441,-1.048577341394769e-17,0.9518750304637107,-1.0443512807197661e-17,-0.9518750304637109,0.07308298323509384,0.994644537069861,0.07308298323509384,1000.0,96.42857142857196,[1.57155197]
-4.868646015746635e-19,0.9474006834720833,-2.734284494872606e-18,0.9474006834720833,6.67467287411582e-20,0.00801201665104745,-2.734284494872606e-18,0.00801201665104745,-1.0342303292323281e-17,0.9474345610405961,-1.0295444100913031e-17,-0.947434561040596,0.07322593274879226,0.9946235094477403,0.07322593274879223,1000.0,96.42857142857196,[1.57155197]
-2.304462631038911e-19,0.9387602357761,-3.0561975773754107e-18,0.9387602357761,-3.7173473463678336e-19,0.008049719547120547,-3.0561975773754107e-18,0.008049719547120547,-1.0402860642131011e-17,0.9387947476734126,-1.0349682591114162e-17,-0.9387947476734124,0.0731429482056095,0.9946357213852636,0.07314294820560949,1000.0,96.42857142857196,[1.57155197]
-7.550618368718263e-20,0.9173539015814158,-3.371481188547167e-18,0.9173539015814158,-1.3137787424170012e-18,0.008669855331040583,-3.371481188547167e-18,0.008669855331040583,-1.1063566245022855e-17,0.9173948698014979,-1.099895360945243e-17,-0.9173948698014979,0.07252679878728581,0.9947259556859552,0.07252679878728581,1000.0,96.42857142857196,[1.57343032]
-6.824171811161943e-19,0.8043106661976198,-3.660582978329003e-18,0.8043106661976198,-6.059393099790327e-18,0.00789165026672292,-3.660582978329003e-18,0.00789165026672292,-1.432998501142308e-17,0.8043493804953117,-1.4256796990423234e-17,-0.8043493804953115,0.0722730702284125,0.9947628896573888,0.0722730702284125,1000.0,96.42857142857196,[1.57343032]
-4.47871514294067e-19,0.8043516691380312,-4.0981810111971505e-18,0.8043516691380312,-6.119407554159933e-18,0.0009301984443494839,-4.0981810111971505e-18,0.0009301984443494839,-1.349740650253587e-17,0.8043522070052911,-1.3487910393538132e-17,-0.804352207005291,0.07998338392317268,0.993582063340717,0.07998338392317268,1000.0,83.57142857142804,[1.54318878]
6.29756588574384e-19,0.917488250285753,-4.04824542785849e-18,0.917488250285753,-1.487037634765143e-18,0.00015759491080468723,-4.04824542785849e-18,0.00015759491080468723,-8.567185704828063e-18,0.9174882638206161,-8.565794716924759e-18,-0.9174882638206161,0.07929153358655026,0.9936929633458143,0.07929153358655026,1000.0,83.57142857142804,[1.54318878]
9.509662783664217e-19,0.9389860681092915,-4.017183475922435e-18,0.9389860681092915,-6.685455932726401e-19,0.0007787454958436736,-4.017183475922435e-18,0.0007787454958436736,-6.2494593619138354e-18,0.9389863910344464,-6.242791239366132e-18,-0.9389863910344464,0.07975356253488068,0.9936190107510974,0.07975356253488068,1000.0,83.57142857142804,[1.54318878]
1.1631008823587084e-18,0.9477172088552563,-4.00765839665704e-18,0.9477172088552563,-3.5809107544166594e-19,0.0008128611387582308,-4.00765839665704e-18,0.0008128611387582308,-4.521030782097344e-18,0.9477175574524447,-4.51415187414237e-18,-0.9477175574524448,0.07977348602597317,0.9936158119990482,0.07977348602597317,1000.0,83.57142857142804,[1.54318878]
1.3529918758964083e-18,0.9522459851707825,-4.003084953016532e-18,0.9522459851707825,-2.0418531914188258e-19,0.0005736480608579327,-4.003084953016532e-18,0.0005736480608579327,-3.0099241205179462e-18,0.9522461579581049,-3.0050994967873264e-18,-0.9522461579581046,0.0795941197600058,0.9936445804206149,0.07959411976000577,1000.0,83.57142857142804,[1.54318878]
1.5325707706289275e-18,0.9547968053146814,-4.006092438744314e-18,0.9547968053146814,-1.360150464938504e-19,0.00017592100771410323,-4.006092438744314e-18,0.00017592100771410323,-1.5964904157562298e-18,0.9547968215213763,-1.595014067501043e-18,-0.9547968215213765,0.07930030395845676,0.9936915636072358,0.07930030395845676,1000.0,83.57142857142804,[1.54318878]
1.7029291864708948e-18,0.9561849600653305,-4.004877978469753e-18,0.9561849600653305,-1.0230147824696475e-19,-0.0003406546997405998,-4.004877978469753e-18,-0.0003406546997405998,-2.5088605113644125e-19,0.9561850207469063,-2.537393822890639e-19,-0.9561850207469064,0.0789205022956989,0.9937520357890035,0.07892050229569893,1000.0,83.57142857142804,[1.54318878]
1.8570086878578182e-18,0.9567523275215412,-4.008157905502685e-18,0.9567523275215412,-1.1308360951053153e-19,-0.0009694504114639183,-4.008157905502685e-18,-0.0009694504114639183,1.0632457455369295e-18,0.9567528186799278,1.0551239763839711e-18,-0.9567528186799278,0.0784588136235868,0.9938251501796271,0.07845881362358682,1000.0,83.57142857142804,[1.54469433]
2.0051107753432805e-18,0.9566270050187127,-4.010302196757318e-18,0.9566270050187127,-1.4706292891624547e-19,-0.001725195616170407,-4.010302196757318e-18,-0.001725195616170407,2.340343541737656e-18,0.9566285606393871,2.3258773836959498e-18,-0.9566285606393873,0.07790352478722806,0.9939125120710832,0.07790352478722806,1000.0,83.57142857142804,[1.54500754]
2.1635292009345627e-18,0.9558005132807781,-4.023791684511215e-18,0.9558005132807781,-2.023404947339748e-19,-0.00264491681888637,-4.023791684511215e-18,-0.00264491681888637,3.573353671114466e-18,0.9558041728161568,3.551073653637517e-18,-0.955804172816157,0.07722612324672233,0.9940182351328191,0.07722612324672233,1000.0,83.57142857142804,[1.54500754]
2.3121760385521795e-18,0.9541251007135017,-4.035297676358948e-18,0.9541251007135017,-2.903116795603949e-19,-0.00379975605303912,-4.035297676358948e-18,-0.00379975605303912,4.765529266995469e-18,0.9541326668538355,4.733349045395355e-18,-0.9541326668538355,0.07637192340477886,0.99415021934862,0.07637192340477886,1000.0,83.57142857142804,[1.54500754]
2.4358661133060354e-18,0.9512290504632342,-4.062743604208259e-18,0.9512290504632342,-4.2250738113449515e-19,-0.005326864083911155,-4.062743604208259e-18,-0.005326864083911155,5.908599983745903e-18,0.9512439655136609,5.863017321354229e-18,-0.951243965513661,0.07523477478336463,0.9943236180070312,0.07523477478336463,1000.0,83.57142857142804,[1.54500754]
2.5519593613142043e-18,0.9462400150145357,-4.104824392733422e-18,0.9462400150145357,-6.267370142158732e-19,-0.007515756177176984,-4.104824392733422e-18,-0.007515756177176984,6.939480258639255e-18,0.9462698624629355,6.873929041896659e-18,-0.9462698624629354,0.07358745514260599,0.9945701447817896,0.07358745514260599,1000.0,83.57142857142804,[1.54500754]
2.6425468570258186e-18,0.9367959988875513,-4.1794294931979934e-18,0.9367959988875513,-1.0120699680440461e-18,-0.011084152606955996,-4.1794294931979934e-18,-0.011084152606955996,7.773793171400536e-18,0.9368615703350947,7.673921810731451e-18,-0.9368615703350949,0.07085201350887199,0.9949673282894654,0.070852013508872,1000.0,83.57142857142804,[1.54965291]
2.6067014504699277e-18,0.9138812245505328,-4.348317037315792e-18,0.9138812245505328,-1.9031347958985297e-18,-0.018324726142734674,-4.348317037315792e-18,-0.018324726142734674,8.026540805430225e-18,0.9140649255792437,7.852440984155678e-18,-0.9140649255792435,0.06506833265667648,0.9957571110318821,0.06506833265667648,1000.0,83.57142857142804,[1.54965291]
1.7162087957236094e-18,0.7966229035466317,-4.899793349847129e-18,0.7966229035466317,-6.585016302328975e-18,-0.03602709514183645,-4.899793349847129e-18,-0.03602709514183645,5.756193946286356e-18,0.7974371461371889,5.300092415812493e-18,-0.797437146137189,0.04734477576691852,0.9977559543371118,0.04734477576691852,1000.0,83.57142857142804,[1.55191961]
7.934508238113178e-19,0.7936372246234261,-4.743328049547275e-18,0.7936372246234261,-6.572123661737745e-18,-0.042323753193398185,-4.743328049547275e-18,-0.042323753193398185,5.48967335439205e-18,0.7947649617291581,4.9681225792391115e-18,-0.7947649617291579,0.19766861154712365,0.9601324075449514,0.19766861154712365,1000.0,70.71428571428592,[1.53462272]
9.99839055786987e-20,0.9103030010984567,-3.325013651207308e-18,0.9103030010984567,-1.8717819881951733e-18,-0.026070340946454752,-3.325013651207308e-18,-0.026070340946454752,6.954034837559249e-18,0.9106762413096773,6.75402265753925e-18,-0.9106762413096772,0.21434013220856968,0.9529515283841179,0.21434013220856965,1000.0,70.71428571428592,[1.54594067]
-1.4600744903956722e-18,0.9338348895012158,-2.3191667777845867e-18,0.9338348895012158,-9.633413268452184e-19,-0.01776278021512191,-2.3191667777845867e-18,-0.01776278021512191,5.895708270501687e-18,0.9340038100622068,5.80529675858305e-18,-0.9340038100622069,0.2208072877780432,0.9499938333106216,0.2208072877780432,1000.0,70.71428571428592,[1.54594067]
-3.1682667686103007e-18,0.9433878453657876,-1.4361584095997954e-18,0.9433878453657876,-5.609031923717666e-19,-0.01418090557837761,-1.4361584095997954e-18,-0.01418090557837761,4.294208591127504e-18,0.9434944222765317,4.249716099127982e-18,-0.9434944222765316,0.22348463568444096,0.9487408683228448,0.22348463568444094,1000.0,70.71428571428592,[1.54728109]
-4.9052099837608935e-18,0.9482500888718632,-6.032250580012555e-19,0.9482500888718632,-3.3278457027516003e-19,-0.012466779567793827,-6.032250580012555e-19,-0.012466779567793827,2.4842036790208845e-18,0.948332036598094,2.467081701524385e-18,-0.948332036598094,0.2247483925582112,0.9481436178580757,0.22474839255821122,1000.0,70.71428571428592,[1.54728109]
-6.648130612812949e-18,0.9508832782261321,2.138185336931173e-19,0.9508832782261321,-1.7330843917436391e-19,-0.011695769876624943,2.138185336931173e-19,-0.011695769876624943,5.727252770734201e-19,0.9509552039097754,5.769475037875806e-19,-0.9509552039097755,0.22531624402328773,0.9478740319042804,0.22531624402328773,1000.0,70.71428571428592,[1.54728109]
-8.429569527473994e-18,0.9521941611273205,1.0186528733071348e-18,0.9521941611273205,-6.470232600783925e-20,-0.011506857966305392,1.0186528733071348e-18,-0.011506857966305392,-1.3852826288662174e-18,0.9522636863102668,-1.362044282929228e-18,-0.9522636863102669,0.22546054165269588,0.9478054063547782,0.22546054165269588,1000.0,70.71428571428592,[1.54728109]
-1.0206671637581e-17,0.952560168354957,1.8097849321468817e-18,0.952560168354957,1.7450286212949634e-20,-0.011750921370021703,1.8097849321468817e-18,-0.011750921370021703,-3.3947026533093816e-18,0.9526326461388297,-3.3510177156720933e-18,-0.9526326461388297,0.22529195415752365,0.9478855789512618,0.22529195415752365,1000.0,70.71428571428592,[1.54728109]
-1.200114216240736e-17,0.9521162238540519,2.5838237996134703e-18,0.9521162238540519,6.446836960380599e-20,-0.012383336271603458,2.5838237996134703e-18,-0.012383336271603458,-5.428270794019353e-18,0.9521967500171984,-5.3622105921001394e-18,-0.9521967500171985,0.22484292260162209,0.9480987924852144,0.22484292260162203,1000.0,70.71428571428592,[1.54728109]
-1.3782581077068406e-17,0.9508386276056522,3.35570863868177e-18,0.9508386276056522,9.575096389032342e-20,-0.013433777017528887,3.35570863868177e-18,-0.013433777017528887,-7.498603209698791e-18,0.9509335213946122,-7.404472237165655e-18,-0.9509335213946118,0.2240905704584847,0.9484549712364746,0.22409057045848477,1000.0,70.71428571428592,[1.54728109]
-1.5583554689075503e-17,0.9485374990811859,4.121454374272661e-18,0.9485374990811859,8.145286265900877e-20,-0.015015694248858824,4.121454374272661e-18,-0.015015694248858824,-9.603661856565336e-18,0.9486563435918017,-9.474074200014658e-18,-0.9486563435918015,0.2229490289917421,0.9489928666450971,0.2229490289917421,1000.0,70.71428571428592,[1.54728109]
-1.741274932543865e-17,0.9447519021149718,4.857642844698171e-18,0.9447519021149718,3.1884574977302896e-20,-0.017382845813298506,4.857642844698171e-18,-0.017382845813298506,-1.1769359459776918e-17,0.9449118053439836,-1.1593383588152633e-17,-0.9449118053439836,0.22122489339923435,0.9497995015165016,0.22122489339923432,1000.0,70.71428571428592,[1.54594067]
-1.9277214943121056e-17,0.9384152874330979,5.564393346527854e-18,0.9384152874330979,-9.541526427094614e-20,-0.021096583174516906,5.564393346527854e-18,-0.021096583174516906,-1.4016724010329796e-17,0.9386523943983647,-1.3770031450511043e-17,-0.9386523943983648,0.2184829010091338,0.9510680543122382,0.21848290100913384,1000.0,70.71428571428592,[1.54594067]
-2.1177761248544837e-17,0.9266804571382221,6.204959290624599e-18,0.9266804571382221,-3.816372110176883e-19,-0.027565011814207428,6.204959290624599e-18,-0.027565011814207428,-1.6446952913610676e-17,0.9270903405376524,-1.6081452063824894e-17,-0.9270903405376526,0.21359484370876128,0.9532861508917769,0.21359484370876122,1000.0,70.71428571428592,[1.54650353]
-2.326550659160034e-17,0.8989938164228902,6.6631158781822704e-18,0.8989938164228902,-1.191294351260601e-18,-0.041233101666470304,6.6631158781822704e-18,-0.041233101666470304,-1.9389426051568755e-17,0.8999389149490267,-1.8763933942743937e-17,-0.8999389149490268,0.20271738626078525,0.9580246983325594,0.20271738626078523,1000.0,70.71428571428592,[1.55066432]
-2.64363550943e-17,0.7705925668425924,6.406169879260046e-18,0.7705925668425924,-5.796174260703338e-18,-0.07235455361638747,6.406169879260046e-18,-0.07235455361638747,-2.461148878388961e-17,0.7739819671685388,-2.3430205125953374e-17,-0.773981967168539,0.17012648548075118,0.970625549774956,0.17012648548075116,1000.0,70.71428571428592,[1.53853208]
-2.6703685392616418e-17,0.7651665119770619,6.480156671102462e-18,0.7651665119770619,-5.8598676331590155e-18,-0.07673899736646313,6.480156671102462e-18,-0.07673899736646313,-2.4931954476419448e-17,0.7690049835780999,-2.378710119820121e-17,-0.7690049835780997,0.3145789751677278,0.8955892678928462,0.31457897516772776,1000.0,57.857142857142705,[1.53899785]
-2.3531654125038386e-17,0.8923977081581,7.274057788128563e-18,0.8923977081581,-1.3903099095118879e-18,-0.0466770783345497,7.274057788128563e-18,-0.0466770783345497,-2.083063989342003e-17,0.8936176023152625,-2.007882454602822e-17,-0.8936176023152625,0.34441625130423487,0.873358398182027,0.34441625130423487,1000.0,57.857142857142705,[1.5423633]
-2.1505666913696704e-17,0.9210957049896676,7.329557519795423e-18,0.9210957049896676,-7.106175388816257e-19,-0.03232703063344326,7.329557519795423e-18,-0.03232703063344326,-1.8986670234503643e-17,0.9216628096326707,-1.8485903483022803e-17,-0.9216628096326709,0.3549719396714447,0.8648640610476218,0.35497193967144475,1000.0,57.857142857142705,[1.52967998]
-1.9688321122620497e-17,0.9329269320005845,7.185844035818686e-18,0.9329269320005845,-5.461533406660729e-19,-0.025905521663716298,7.185844035818686e-18,-0.025905521663716298,-1.7631950843596706e-17,0.9332865350494953,-1.723818623671402e-17,-0.9332865350494952,0.359439556658424,0.8611657274987152,0.3594395566584239,1000.0,57.857142857142705,[1.52967998]
-1.7926857792571994e-17,0.9389357359896039,6.964466564129346e-18,0.9389357359896039,-5.457665044827337e-19,-0.02257643090688294,6.964466564129346e-18,-0.02257643090688294,-1.6442935116429747e-17,0.9392071185584318,-1.6107348893318515e-17,-0.9392071185584319,0.3617027944631423,0.8592683963437198,0.3617027944631423,1000.0,57.857142857142705,[1.52850092]
-1.620717700962477e-17,0.9421489044188788,6.7048502032387765e-18,0.9421489044188788,-6.147007123537884e-19,-0.020788442814276102,6.7048502032387765e-18,-0.020788442814276102,-1.5338501915618786e-17,0.9423782242031785,-1.504481997684666e-17,-0.9423782242031785,0.3629043497528088,0.8582545460765016,0.3629043497528088,1000.0,57.857142857142705,[1.52850092]
-1.4500248043000664e-17,0.943695022354315,6.4172718127655924e-18,0.943695022354315,-7.619083074043511e-19,-0.01993068944408956,6.4172718127655924e-18,-0.01993068944408956,-1.4286161241063964e-17,0.9439054653926038,-1.4015182164891277e-17,-0.9439054653926042,0.3634774689926707,0.8577693507402584,0.3634774689926707,1000.0,57.857142857142705,[1.52850092]
-1.2810420415155633e-17,0.9440453855754057,6.118433309881756e-18,0.9440453855754057,-9.112853645570932e-19,-0.01974108964078426,6.118433309881756e-18,-0.01974108964078426,-1.3262516392536797e-17,0.944251767616255,-1.3005973863447048e-17,-0.9442517676162551,0.3636039742822729,0.8576621128231516,0.3636039742822729,1000.0,57.857142857142705,[1.52850092]
-1.1144731365150969e-17,0.9433668281740231,5.81332024461727e-18,0.9433668281740231,-1.0931534816348529e-18,-0.020124504048898047,5.81332024461727e-18,-0.020124504048898047,-1.226776237786669e-17,0.9435814581488612,-1.2019719865386994e-17,-0.9435814581488613,0.3633484499246968,0.8578786673385927,0.3633484499246968,1000.0,57.857142857142705,[1.52850092]
-9.477126151257327e-18,0.9416251335722405,5.491419416342876e-18,0.9416251335722405,-1.2999137122416236e-18,-0.021097376822485345,5.491419416342876e-18,-0.021097376822485345,-1.1298986797514425e-17,0.9418614502588639,-1.1051600611744285e-17,-0.9418614502588637,0.36269787432741785,0.858429090791281,0.36269787432741774,1000.0,57.857142857142705,[1.52850092]
-7.829089549114852e-18,0.9385741139496266,5.144455577732448e-18,0.9385741139496266,-1.545946823971187e-18,-0.022792996117964984,5.144455577732448e-18,-0.022792996117964984,-1.03623006033516e-17,0.9388508337581423,-1.0109006416580075e-17,-0.9388508337581426,0.3615570448494314,0.859391067349139,0.3615570448494314,1000.0,57.857142857142705,[1.52967998]
-6.217375274850194e-18,0.9336218616476779,4.776159313348599e-18,0.9336218616476779,-1.8178205927478123e-18,-0.02553146609693056,4.776159313348599e-18,-0.02553146609693056,-9.472681244536985e-18,0.933970896927487,-9.211332287066911e-18,-0.9339708969274869,0.35969588630650223,0.8609516471604892,0.3596958863065022,1000.0,57.857142857142705,[1.52967998]
-4.6537177126330274e-18,0.9254089182506039,4.36976008234027e-18,0.9254089182506039,-2.1939483026721058e-18,-0.03003479090928869,4.36976008234027e-18,-0.03003479090928869,-8.647164350689743e-18,0.9258961899925487,-8.360812692304883e-18,-0.9258961899925489,0.3565837127436843,0.8635369775590731,0.3565837127436843,1000.0,57.857142857142705,[1.52967998]
-3.1594829376856e-18,0.9103513921955898,3.87179089769716e-18,0.9103513921955898,-2.7144475155192474e-18,-0.038122567850525986,3.87179089769716e-18,-0.038122567850525986,-7.975141934741196e-18,0.9111492673826646,-7.649313031152591e-18,-0.9111492673826646,0.35082337116797657,0.8682430100407791,0.3508233711679766,1000.0,57.857142857142705,[1.54360281]
-1.954215851517753e-18,0.8755763215790087,3.1354031801416016e-18,0.8755763215790087,-3.749362544796086e-18,-0.055511683323408355,3.1354031801416016e-18,-0.055511683323408355,-7.71843108452631e-18,0.8773342817280227,-7.282738349982312e-18,-0.8773342817280226,0.33756650430644586,0.878690907168529,0.33756650430644586,1000.0,57.857142857142705,[1.5423633]
-2.2201217448193555e-18,0.731313125703571,1.5073209661084727e-18,0.731313125703571,-8.591368795325145e-18,-0.09388905425720391,1.5073209661084727e-18,-0.09388905425720391,-9.365136546268034e-18,0.7373154293351248,-8.651896436249846e-18,-0.737315429335125,0.29689990331328864,0.9075796906195731,0.2968999033132885,1000.0,57.857142857142705,[1.52321322]
-2.24594756431418e-18,0.7245180198198283,1.6431629961449804e-18,0.7245180198198283,-8.527090399381239e-18,-0.09549229497229143,1.6431629961449804e-18,-0.09549229497229143,-9.368820498523615e-18,0.7307839211714504,-8.786998923419678e-18,-0.7307839211714504,0.4303773705360157,0.7934422712844394,0.4303773705360157,1000.0,45.00000000000011,[1.48901355]
-1.455809753952502e-18,0.8672597967648377,3.6845592704417726e-18,0.8672597967648377,-3.554348356435751e-18,-0.05757397611252383,3.6845592704417726e-18,-0.05757397611252383,-8.321768351516362e-18,0.8691687510547031,-7.813630776776968e-18,-0.8691687510547029,0.46578171366020055,0.7523927102514576,0.46578171366020066,1000.0,45.00000000000011,[1.53415445]
-2.131147303001008e-18,0.9032344158721918,4.824053342234058e-18,0.9032344158721918,-2.3919596765844504e-18,-0.040021783122817935,4.824053342234058e-18,-0.040021783122817935,-9.160217231963894e-18,0.9041206518713689,-8.708390485250695e-18,-0.9041206518713693,0.47737690260844895,0.7377144337153277,0.47737690260844906,1000.0,45.00000000000011,[1.52355217]
-3.138303391691486e-18,0.9183509553645293,5.716822236467409e-18,0.9183509553645293,-1.7331320838758318e-18,-0.03203079615658012,5.716822236467409e-18,-0.03203079615658012,-1.0382449999290356e-17,0.9189093802554028,-9.972056101083864e-18,-0.9189093802554027,0.48226744565476243,0.7313249768217012,0.48226744565476243,1000.0,45.00000000000011,[1.52355217]
-4.23431522178241e-18,0.9260942827962307,6.5194302146159796e-18,0.9260942827962307,-1.238117426822048e-18,-0.02774456479057381,6.5194302146159796e-18,-0.02774456479057381,-1.1736915032158933e-17,0.9265097848934375,-1.134259415463632e-17,-0.9265097848934374,0.48480314652531115,0.7279641599957483,0.4848031465253112,1000.0,45.00000000000011,[1.52355217]
-5.4109076784257995e-18,0.9302722601440433,7.281155702180259e-18,0.9302722601440433,-8.1268665046229705e-19,-0.025292348508335588,7.281155702180259e-18,-0.025292348508335588,-1.3154473576442724e-17,0.9306160222597575,-1.2752620131905779e-17,-0.9306160222597578,0.48622626840133204,0.7260633800385691,0.48622626840133215,1000.0,45.00000000000011,[1.52355217]
-6.5808868260718286e-18,0.9323217487125406,8.015733238362822e-18,0.9323217487125406,-4.446814405629679e-19,-0.023934421274744357,8.015733238362822e-18,-0.023934421274744357,-1.460667144625051e-17,0.9326289185116268,-1.4188928197973798e-17,-0.9326289185116267,0.48700362459673713,0.7250206474710088,0.48700362459673713,1000.0,45.00000000000011,[1.52355217]
-7.800889721262e-18,0.9328476258374402,8.733287862828138e-18,0.9328476258374402,-1.092891704820374e-19,-0.02334765307849117,8.733287862828138e-18,-0.02334765307849117,-1.609147801657606e-17,0.9331397569146982,-1.564582108969981e-17,-0.9331397569146983,0.4873332027809462,0.7245776003538407,0.4873332027809462,1000.0,45.00000000000011,[1.52355217]
-9.016483743787265e-18,0.9320673938162463,9.426475517131141e-18,0.9320673938162463,2.08751642082098e-19,-0.023405233942454164,9.426475517131141e-18,-0.023405233942454164,-1.7590935609911147e-17,0.932361213045304,-1.7113518200335804e-17,-0.932361213045304,0.48729084133921285,0.724634578179819,0.48729084133921274,1000.0,45.00000000000011,[1.52355217]
-1.0271011503384176e-17,0.9299431007595693,1.0114535207398289e-17,0.9299431007595693,4.974607335226795e-19,-0.024107122189985782,1.0114535207398289e-17,-0.024107122189985782,-1.9118084315022366e-17,0.9302555154314354,-1.8587191562068925e-17,-0.9302555154314356,0.48687482285416606,0.7251936387899779,0.486874822854166,1000.0,45.00000000000011,[1.52355217]
-1.1558436235942321e-17,0.9261692191057754,1.0779812366117075e-17,0.9261692191057754,7.492539949959383e-19,-0.025580045385286698,1.0779812366117075e-17,-0.025580045385286698,-2.0665810585436913e-17,0.9265224018559484,-2.0063911824856634e-17,-0.9265224018559483,0.48600507225539635,0.7263595111816556,0.48600507225539635,1000.0,45.00000000000011,[1.52355217]
-1.2867057471697139e-17,0.9200070510917807,1.1419231910586242e-17,0.9200070510917807,9.566151464683346e-19,-0.02814705461964237,1.1419231910586242e-17,-0.02814705461964237,-2.223475031625069e-17,0.920437521368157,-2.1527523412473866e-17,-0.9204375213681568,0.48447611911043054,0.7283994645957615,0.4844761191104305,1000.0,45.00000000000011,[1.52355217]
-1.4243507517681302e-17,0.9097635286176141,1.2015257973711183e-17,0.9097635286176141,1.1020401156000573e-18,-0.03254780609288957,1.2015257973711183e-17,-0.03254780609288957,-2.3865541443392353e-17,0.9103455594905888,-2.2996682892778902e-17,-0.9103455594905888,0.4818037026596776,0.7319360519928294,0.48180370265967765,1000.0,45.00000000000011,[1.52355217]
-1.5760770173701593e-17,0.8910124786103868,1.2521326077269452e-17,0.8910124786103868,1.0679222240546952e-18,-0.04065299664178509,1.2521326077269452e-17,-0.04065299664178509,-2.5602204864700753e-17,0.8919394055513988,-2.4437527622744095e-17,-0.8919394055513988,0.47669128456260235,0.7386005946681279,0.47669128456260235,1000.0,45.00000000000011,[1.52355217]
-1.766675974114628e-17,0.8482393931748771,1.2783261865522318e-17,0.8482393931748771,5.214933288470655e-19,-0.058319131906364265,1.2783261865522318e-17,-0.058319131906364265,-2.7640486047896504e-17,0.8502418416427144,-2.5847310649289814e-17,-0.8502418416427148,0.4645268102439776,0.7539427598492547,0.4645268102439776,1000.0,45.00000000000011,[1.54717855]
-2.1429223844568228e-17,0.686539981312535,1.2134426304420609e-17,0.686539981312535,-3.806476522659517e-18,-0.09635161446802654,1.2134426304420609e-17,-0.09635161446802654,-3.1181896058781004e-17,0.6932681873209039,-2.7635447028851935e-17,-0.6932681873209031,0.42565660565304275,0.798519197094134,0.42565660565304275,1000.0,45.00000000000011,[1.47914603]
-2.1678155578109936e-17,0.6797210821639623,1.221363551721625e-17,0.6797210821639623,-3.712067297421543e-18,-0.09485496521491205,1.221363551721625e-17,-0.09485496521491205,-2.990707900632424e-17,0.6863076671319288,-2.6380747059446977e-17,-0.6863076671319286,0.5409830920941907,0.6439523182165093,0.5409830920941906,1000.0,32.14285714285738,[1.42109708]
-1.7774336234170026e-17,0.8398489839124844,1.2880428225913599e-17,0.8398489839124844,8.5627090033529265e-19,-0.05658784410070785,1.2880428225913599e-17,-0.05658784410070785,-2.4435752815186647e-17,0.8417532298000397,-2.2628531431940796e-17,-0.8417532298000395,0.5720792471214904,0.5877505168230966,0.5720792471214903,1000.0,32.14285714285738,[1.36752714]
-1.5803298837715395e-17,0.8837719896868049,1.2649740322673266e-17,0.8837719896868049,1.6321477033462503e-18,-0.03930752943713611,1.2649740322673266e-17,-0.03930752943713611,-2.0424628293463908e-17,0.8846456983591937,-1.928975139040225e-17,-0.8846456983591934,0.5814172226024207,0.5691291826313025,0.5814172226024207,1000.0,32.14285714285738,[1.36547248]
-1.4216308164779333e-17,0.9025326777475,1.2180941500773124e-17,0.9025326777475,1.8973922657481165e-18,-0.03132755954644712,1.2180941500773124e-17,-0.03132755954644712,-1.6692178438568446e-17,0.9030762151608298,-1.5851450344623404e-17,-0.9030762151608299,0.5853136321217978,0.5610845783879442,0.5853136321217978,1000.0,32.14285714285738,[1.36547248]
-1.278986828565614e-17,0.9122574407715504,1.1620732758837338e-17,0.9122574407715504,1.9765315300832086e-18,-0.02693109898822368,1.1620732758837338e-17,-0.02693109898822368,-1.3050110473303593e-17,0.9126548758078122,-1.2364743121675916e-17,-0.9126548758078123,0.5873624857774646,0.556785973784034,0.5873624857774647,1000.0,32.14285714285738,[1.36674781]
-1.1456964335839216e-17,0.9175964445778981,1.1024656354017305e-17,0.9175964445778981,2.0041039414414386e-18,-0.02429850927503819,1.1024656354017305e-17,-0.02429850927503819,-9.452232977903156e-18,0.917918107815174,-8.869189372323693e-18,-0.9179181078151739,0.5885560087778574,0.5542595502677039,0.5885560087778574,1000.0,32.14285714285738,[1.36674781]
-1.013579477019197e-17,0.9203201933796534,1.0397234560270034e-17,0.9203201933796534,1.9751749538786216e-18,-0.02270772199237218,1.0397234560270034e-17,-0.02270772199237218,-5.884776703890584e-18,0.9206002927331954,-5.376061935032688e-18,-0.9206002927331955,0.5892627417770445,0.5527556804835208,0.5892627417770444,1000.0,32.14285714285738,[1.36674781]
-8.876756394714808e-18,0.9211803912052389,9.753719321470691e-18,0.9211803912052389,1.9018180956155814e-18,-0.021838561829102973,9.753719321470691e-18,-0.021838561829102973,-2.330123117808801e-18,0.9214392198749739,-1.87236473488066e-18,-0.9214392198749741,0.589640036358884,0.5519504099512818,0.589640036358884,1000.0,32.14285714285738,[1.36674781]
-7.60795067056462e-18,0.9204539176152197,9.096964746774707e-18,0.9204539176152197,1.8240354074850763e-18,-0.021557667871980594,9.096964746774707e-18,-0.021557667871980594,1.203825723950473e-18,0.9207063307576875,1.6280434772671317e-18,-0.9207063307576875,0.5897517512108498,0.5517116492221923,0.5897517512108498,1000.0,32.14285714285738,[1.36674781]
-6.390830499809195e-18,0.918106593437865,8.430856155218031e-18,0.918106593437865,1.7174933038173277e-18,-0.021848523964636064,8.430856155218031e-18,-0.021848523964636064,4.7280750458469505e-18,0.9183665253663784,5.121039389935495e-18,-0.9183665253663785,0.5896048413878265,0.5520255990659054,0.5896048413878267,1000.0,32.14285714285738,[1.36674781]
-5.195958178808995e-18,0.9137822594234357,7.740594148268749e-18,0.9137822594234357,1.5691856102508577e-18,-0.022806199892885046,7.740594148268749e-18,-0.022806199892885046,8.243099649552236e-18,0.9140668139641401,8.621196320586516e-18,-0.9140668139641405,0.5891516636245218,0.5529924362022657,0.5891516636245219,1000.0,32.14285714285738,[1.36674781]
-4.067965064694933e-18,0.9066086708568756,7.03337705841245e-18,0.9066086708568756,1.3764500459841644e-18,-0.02469271187753492,7.03337705841245e-18,-0.02469271187753492,1.1733604138359613e-17,0.906944878199738,1.210599799526069e-17,-0.906944878199738,0.588259862168508,0.5548879788957188,0.5882598621685079,1000.0,32.14285714285738,[1.36674781]
-2.9848746229527e-18,0.8945845137710541,6.287387324908799e-18,0.8945845137710541,1.1140882080170453e-18,-0.028118872331745606,6.287387324908799e-18,-0.028118872331745606,1.518856633060681e-17,0.8950263254565206,1.556392229716168e-17,-0.8950263254565206,0.5866097611656037,0.5583708232084361,0.5866097611656038,1000.0,32.14285714285738,[1.36674781]
-2.1040496933143833e-18,0.8725025595510176,5.470730569397765e-18,0.8725025595510176,6.846979248601561e-19,-0.0346359652155489,5.470730569397765e-18,-0.0346359652155489,1.8570307322211428e-17,0.8731897654630922,1.897118978110347e-17,-0.8731897654630923,0.5833307269244667,0.5651995453391186,0.5833307269244669,1000.0,32.14285714285738,[1.36547248]
-1.714441007357007e-18,0.8224077564034017,4.44477106272152e-18,0.8224077564034017,-2.5917388388633974e-19,-0.04908016536508866,4.44477106272152e-18,-0.04908016536508866,2.1760330181702792e-17,0.8238709731655445,2.2194011484928064e-17,-0.8238709731655447,0.575249639154778,0.5815287656725117,0.575249639154778,1000.0,32.14285714285738,[1.36547248]
-3.561012537040784e-18,0.6451529605076964,2.6908155341052785e-18,0.6451529605076964,-4.9944048692124864e-18,-0.07923522558924868,2.6908155341052785e-18,-0.07923522558924868,2.381232126316615e-17,0.6500004334044897,2.431183973832111e-17,-0.6500004334044894,0.548400043176798,0.6312802747491576,0.548400043176798,1000.0,32.14285714285738,[1.33045]
-3.604287317967108e-18,0.6396614810491438,2.612068405079325e-18,0.6396614810491438,-5.01488916990175e-18,-0.07493389175201719,2.612068405079325e-18,-0.07493389175201719,2.4590046401255857e-17,0.6440356344730368,2.457057107342142e-17,-0.6440356344730367,0.6357204829041562,0.43785720872473094,0.6357204829041562,1000.0,19.285714285714306,[1.17465026]
-1.359018041755222e-18,0.815608306185218,3.823963637796771e-18,0.815608306185218,-3.179814623551847e-19,-0.04389454458281719,3.823963637796771e-18,-0.04389454458281719,2.358275465494492e-17,0.8167886141239072,2.393794446538644e-17,-0.8167886141239074,0.6539111627767007,0.38052645426047205,0.6539111627767006,1000.0,19.285714285714306,[0.85634785]
-1.3872348268106308e-18,0.8665777672605735,4.321449807123286e-18,0.8665777672605735,5.929594590249626e-19,-0.030306243641018093,4.321449807123286e-18,-0.030306243641018093,2.1475076120283268e-17,0.8671075452987071,2.1746095871339258e-17,-0.867107545298707,0.6588559875267073,0.36306690209989567,0.6588559875267073,1000.0,19.285714285714306,[0.85634785]
-1.937462135391104e-18,0.8886200371613173,4.6424199764292016e-18,0.8886200371613173,9.840603788073847e-19,-0.023915630030028525,4.6424199764292016e-18,-0.023915630030028525,1.9195892438956707e-17,0.8889418022594693,1.9433406115136718e-17,-0.8889418022594694,0.660901610845531,0.35555326121913744,0.660901610845531,1000.0,19.285714285714306,[0.85401802]
-2.6757109059273305e-18,0.9001808489280719,4.892119023386629e-18,0.9001808489280719,1.2163062250326732e-18,-0.020277774455994695,4.892119023386629e-18,-0.020277774455994695,1.6856341116526026e-17,0.9004092119218643,1.7062764335872202e-17,-0.9004092119218643,0.6619975064133928,0.3514521347280453,0.6619975064133928,1000.0,19.285714285714306,[0.85461223]
-3.461168528383184e-18,0.9066470716582448,5.108225852077972e-18,0.9066470716582448,1.3799093153058612e-18,-0.01798454454239108,5.108225852077972e-18,-0.01798454454239108,1.4486741631163745e-17,0.9068254277361588,1.4681747446583185e-17,-0.9068254277361589,0.6626633182015226,0.34893359457108075,0.6626633182015226,1000.0,19.285714285714306,[0.85414823]
-4.341315169919207e-18,0.9100821371574579,5.305569536139622e-18,0.9100821371574579,1.4802959544452966e-18,-0.01647454612122279,5.305569536139622e-18,-0.01647454612122279,1.2101541519448713e-17,0.9102312382263023,1.2288777289862401e-17,-0.9102312382263023,0.6630900188849184,0.3473085857136242,0.6630900188849181,1000.0,19.285714285714306,[0.85414823]
-5.250763857474308e-18,0.9113687418123501,5.489177886129828e-18,0.9113687418123501,1.5679307772616148e-18,-0.015493974924000602,5.489177886129828e-18,-0.015493974924000602,9.701079925432078e-18,0.9115004370879763,9.882893581260634e-18,-0.9115004370879763,0.6633600415790291,0.3462757722863935,0.663360041579029,1000.0,19.285714285714306,[0.85414823]
-6.1870727538802325e-18,0.910840093727354,5.6649477692379054e-18,0.910840093727354,1.617649295159727e-18,-0.014929334077547247,5.6649477692379054e-18,-0.014929334077547247,7.298447809488103e-18,0.9109624368530538,7.48093372444446e-18,-0.9109624368530538,0.6635092484911075,0.3457035642476537,0.6635092484911075,1000.0,19.285714285714306,[0.86296183]
-7.14780002196872e-18,0.908472551017085,5.830564527314777e-18,0.908472551017085,1.6451199633026131e-18,-0.014750904892134636,5.830564527314777e-18,-0.014750904892134636,4.8885580108495885e-18,0.908592298639289,5.0747101951231666e-18,-0.9085922986392889,0.6635468001576726,0.3455593841889232,0.6635468001576725,1000.0,19.285714285714306,[0.86296183]
-8.163061653481606e-18,0.9038780638987347,5.989974949255664e-18,0.9038780638987347,1.63087591315445e-18,-0.015003269868343924,5.989974949255664e-18,-0.015003269868343924,2.4708678990346988e-18,0.9040025732839857,2.665092013553506e-18,-0.9040025732839856,0.6634583911786726,0.3458987226764723,0.6634583911786724,1000.0,19.285714285714306,[0.86296183]
-9.225532136914117e-18,0.8960905403474113,6.1387532051931e-18,0.8960905403474113,1.5725431363572105e-18,-0.015835514600067428,6.1387532051931e-18,-0.015835514600067428,3.608492704201328e-20,0.8962304502876282,2.497486969040874e-19,-0.8962304502876283,0.6631956435707066,0.3469049966455848,0.6631956435707066,1000.0,19.285714285714306,[0.85414823]
-1.0406567380627529e-17,0.8828868430427576,6.254325019222631e-18,0.8828868430427576,1.4566915284854834e-18,-0.017608628197893744,6.254325019222631e-18,-0.017608628197893744,-2.418911030399018e-18,0.8830624221452402,-2.1709398333492044e-18,-0.8830624221452401,0.6626366644198802,0.34903481478641946,0.6626366644198801,1000.0,19.285714285714306,[0.85414823]
-1.1745779409795781e-17,0.8584946190698279,6.3279107997201955e-18,0.8584946190698279,1.1483417571828662e-18,-0.0212472301103165,6.3279107997201955e-18,-0.0212472301103165,-4.911484148707108e-18,0.85875750695945,-4.598606489135429e-18,-0.85875750695945,0.6614437172071362,0.35353135353800297,0.6614437172071362,1000.0,19.285714285714306,[0.85401802]
-1.3688939165246152e-17,0.8032026628979064,6.274470175860748e-18,0.8032026628979064,3.520315250903175e-19,-0.029609300434867286,6.274470175860748e-18,-0.029609300434867286,-7.530761484523621e-18,0.8037482369240571,-7.069913769158361e-18,-0.8037482369240572,0.6583697829795709,0.3648266132272494,0.6583697829795709,1000.0,19.285714285714306,[0.85634785]
-1.8108664439790484e-17,0.6153521934678319,5.815989811716746e-18,0.6153521934678319,-4.25978494002353e-18,-0.04591527861265468,5.815989811716746e-18,-0.04591527861265468,-1.1030049804255698e-17,0.6170628289046018,-1.0199878904712746e-17,-0.6170628289046017,0.6481982858067166,0.3995972529365891,0.6481982858067168,1000.0,19.285714285714306,[0.78411043]
-1.8175407989056162e-17,0.6122744928298858,5.399868539560973e-18,0.6122744928298858,-4.258292706198484e-18,-0.03966067341431566,5.399868539560973e-18,-0.03966067341431566,-1.1342333646551618e-17,0.6135576774727629,-1.068470706863956e-17,-0.613557677472763,0.6960734665239454,0.17596436685498595,0.6960734665239453,1000.0,6.428571428571418,[0.32836057]
-1.3567932567796995e-17,0.7993381015157232,4.46572168648111e-18,0.7993381015157232,3.1974501142114774e-19,-0.0219948928582401,4.46572168648111e-18,-0.0219948928582401,-8.748831258622257e-18,0.7996406541982506,-8.504170377895027e-18,-0.7996406541982504,0.7002171120577876,0.13925513262678613,0.7002171120577876,1000.0,6.428571428571418,[0.39114089]
-1.1510277780679484e-17,0.8550545284355171,3.1473500592558254e-18,0.8550545284355171,1.0969275190290202e-18,-0.014788303052874808,3.1473500592558254e-18,-0.014788303052874808,-7.004409917143878e-18,0.8551824018917064,-6.895813373810909e-18,-0.8551824018917067,0.7011865074975735,0.12913157401158823,0.7011865074975736,1000.0,6.428571428571418,[0.39114089]
-1.0011532389851805e-17,0.8793638400686323,1.7411825157899274e-18,0.8793638400686323,1.3693280209100829e-18,-0.011251446880810237,1.7411825157899274e-18,-0.011251446880810237,-5.383165695041996e-18,0.8794358181681952,-5.3392808044530325e-18,-0.8794358181681952,0.7015902255821942,0.12466880417751527,0.7015902255821942,1000.0,6.428571428571418,[0.39114089]
-8.736893388021892e-18,0.8922495712205195,2.979634847362483e-19,0.8922495712205195,1.4824664763726358e-18,-0.009091673851726748,2.979634847362483e-19,-0.009091673851726748,-3.790952203718275e-18,0.8922958903170112,-3.785220984114723e-18,-0.8922958903170111,0.7018174890424649,0.12208367682970336,0.7018174890424649,1000.0,6.428571428571418,[0.39114089]
-7.540935806058023e-18,0.8995838004694087,-1.1585330359198258e-18,0.8995838004694087,1.5196366643783186e-18,-0.007591256203262361,-1.1585330359198258e-18,-0.007591256203262361,-2.2129827625427166e-18,0.899615829806106,-2.2328817036120016e-18,-0.8996158298061061,0.7019675553298539,0.12034576240340704,0.701967555329854,1000.0,6.428571428571418,[0.39114089]
-6.40900862095066e-18,0.9036241736717635,-2.629248170920227e-18,0.9036241736717635,1.4990167060685968e-18,-0.0064606655480943425,-2.629248170920227e-18,-0.0064606655480943425,-6.506139477199086e-19,0.9036472693719062,-6.885222246522126e-19,-0.9036472693719061,0.7020766479681357,0.11906620324698829,0.7020766479681356,1000.0,6.428571428571418,[0.39114089]
-5.3150655695717304e-18,0.9053426199883248,-4.102557757911901e-18,0.9053426199883248,1.4542496913172269e-18,-0.005562737978540573,-4.102557757911901e-18,-0.005562737978540573,9.059215894231755e-19,0.9053597095194493,8.552822620175313e-19,-0.9053597095194491,0.7021609349461142,0.11806795869835983,0.7021609349461141,1000.0,6.428571428571418,[0.39114089]
-4.27538556637628e-18,0.9051144897397866,-5.580021859530122e-18,0.9051144897397866,1.3847929896423743e-18,-0.004826320068645728,-5.580021859530122e-18,-0.004826320068645728,2.4673408009027726e-18,0.9051273572831171,2.407648675205942e-18,-0.905127357283117,0.7022284981910156,0.11726155660224422,0.7022284981910155,1000.0,6.428571428571418,[0.39114089]
-3.2606665653452304e-18,0.9029313743155976,-7.05858817931457e-18,0.9029313743155976,1.2795226761664258e-18,-0.0042143763817837744,-7.05858817931457e-18,-0.0042143763817837744,4.0089539997954e-18,0.9029412094326744,3.942881242791467e-18,-0.9029412094326743,0.7022834675858687,0.11660129635272781,0.7022834675858686,1000.0,6.428571428571418,[0.39114089]
-2.2899006333427976e-18,0.8983984087124048,-8.543140391601759e-18,0.8983984087124048,1.1490200452851597e-18,-0.0037121713423097155,-8.543140391601759e-18,-0.0037121713423097155,5.547854046278854e-18,0.8984060780031801,5.477131562191656e-18,-0.8984060780031798,0.7023275137032854,0.11606949207575326,0.7023275137032853,1000.0,6.428571428571418,[0.39114089]
-1.3771961628966873e-18,0.8905139580281617,-1.0024572478618397e-17,0.8905139580281617,9.783627587481194e-19,-0.003326330714390061,-1.0024572478618397e-17,-0.003326330714390061,7.083498309871298e-18,0.890520170416709,7.008482658638576e-18,-0.890520170416709,0.7023600160713415,0.11567547557079523,0.7023600160713417,1000.0,6.428571428571418,[0.39114089]
-5.654209620718472e-19,0.8769634353651651,-1.151699283289219e-17,0.8769634353651651,7.263108999358613e-19,-0.003096520783736897,-1.151699283289219e-17,-0.003096520783736897,8.599607876117691e-18,0.8769689021900589,8.518161748363503e-18,-0.8769689021900587,0.7023767147920263,0.11547251203607524,0.7023767147920263,1000.0,6.428571428571418,[0.39114089]
4.123991661944375e-20,0.8517372401872546,-1.3014992106807347e-17,0.8517372401872546,3.0061728693647153e-19,-0.003137563027017238,-1.3014992106807347e-17,-0.003137563027017238,1.0095640114536196e-17,0.8517430191222874,9.999619358990535e-18,-0.8517430191222874,0.7023642333570973,0.11562425092251956,0.7023642333570973,1000.0,6.428571428571418,[0.39114089]
4.4495699510452465e-20,0.7944002459426679,-1.452849026385991e-17,0.7944002459426679,-6.237537388690867e-19,-0.0037631843344132117,-1.452849026385991e-17,-0.0037631843344132117,1.1488301246165175e-17,0.794409159256177,1.1350407852387401e-17,-0.794409159256177,0.7022777192111139,0.11667051983801043,0.7022777192111139,1000.0,6.428571428571418,[0.39114089]
-2.567727440042208e-18,0.6030107243616536,-1.605975956919256e-17,0.6030107243616536,-5.355762855709339e-18,-0.002992667241577828,-1.605975956919256e-17,-0.002992667241577828,1.2110427093588757e-17,0.6030181504336211,1.1950654392924466e-17,-0.6030181504336211,0.702259078813106,0.11689470667714408,0.702259078813106,1000.0,6.428571428571418,[0.32815929]
-1.8102152874008466e-18,0.6029533114316591,-1.6358952451114216e-17,0.6029533114316591,-5.5104125430322534e-18,0.003975297296160386,-1.6358952451114216e-17,0.003975297296160386,1.3282508934351897e-17,0.602966415942875,1.3497535166860942e-17,-0.602966415942875,0.7021234055228343,0.11851348798358338,0.7021234055228343,1000.0,6.428571428571418,[0.32815929]
2.2953269381611454e-18,0.794228135442886,-1.605765687607545e-17,0.794228135442886,-1.0825478112603984e-18,0.0047684797922398,-1.605765687607545e-17,0.0047684797922398,1.500671729038193e-17,0.7942424500922958,1.5199068852006492e-17,-0.7942424500922957,0.7021726515091066,0.11792851625176046,0.7021726515091066,1000.0,6.428571428571418,[0.39114089]
3.7897312851341465e-18,0.8514506827869551,-1.5744983018120712e-17,0.8514506827869551,-4.655769534142465e-19,0.004165508118085818,-1.5744983018120712e-17,0.004165508118085818,1.5959033786001978e-17,0.8514608720759008,1.6112789377490925e-17,-0.8514608720759008,0.7022649147713559,0.11682456489266488,0.7022649147713558,1000.0,6.428571428571418,[0.39114089]
4.686156841125213e-18,0.8765627767299995,-1.5413130564073626e-17,0.8765627767299995,-3.559655960836197e-19,0.004147205745071426,-1.5413130564073626e-17,0.004147205745071426,1.680906443579617e-17,0.8765725873332445,1.6954594309652598e-17,-0.8765725873332445,0.70227820801774,0.11666463511614908,0.7022782080177399,1000.0,6.428571428571418,[0.39114089]
5.363359682455026e-18,0.8899996380664157,-1.5072443407494167e-17,0.8899996380664157,-4.058876004124201e-19,0.004399855962283374,-1.5072443407494167e-17,0.004399855962283374,1.763766118155789e-17,0.8900105136967987,1.7786394919130634e-17,-0.8900105136967988,0.7022606669207255,0.11687562360096887,0.7022606669207256,1000.0,6.428571428571418,[0.39114089]
5.953741646691274e-18,0.8977709606781187,-1.4732943255093722e-17,0.8977709606781187,-5.40459959907447e-19,0.004808625735378587,-1.4732943255093722e-17,0.004808625735378587,1.8453777426237408e-17,0.8977838385259422,1.8611233052694543e-17,-0.8977838385259422,0.7022265157286245,0.11728529837652954,0.7022265157286245,1000.0,6.428571428571418,[0.39114089]
6.477922692143678e-18,0.9021914237727775,-1.4386948494113816e-17,0.9021914237727775,-7.141017140945786e-19,0.0053338319084362505,-1.4386948494113816e-17,0.0053338319084362505,1.9252529495498213e-17,0.9022071906674094,1.9422166130951187e-17,-0.9022071906674093,0.702180306011083,0.11783732727944855,0.702180306011083,1000.0,6.428571428571418,[0.39114089]
6.968460647722324e-18,0.9042627533986144,-1.4035239155872088e-17,0.9042627533986144,-9.219291886373017e-19,0.005968830405631303,-1.4035239155872088e-17,0.005968830405631303,2.0052909456204522e-17,0.9042824526222185,2.02376087839896e-17,-0.9042824526222185,0.7021227580249171,0.1185211598279715,0.7021227580249171,1000.0,6.428571428571418,[0.39114089]
7.402565033190153e-18,0.9043799044255599,-1.3685717296760258e-17,0.9043799044255599,-1.1558029263080945e-18,0.00672833832679158,-1.3685717296760258e-17,0.00672833832679158,2.084623522064698e-17,0.9044049325746877,2.104905727516598e-17,-0.9044049325746876,0.7020522039796608,0.11935411921924505,0.7020522039796608,1000.0,6.428571428571418,[0.39114089]
7.81604946034826e-18,0.902551373942958,-1.3330870876045422e-17,0.902551373942958,-1.4265755367436528e-18,0.007649373051459626,-1.3330870876045422e-17,0.007649373051459626,2.1632506788825585e-17,0.9025837886392608,2.185735623765596e-17,-0.9025837886392608,0.7019644366348572,0.1203821390398736,0.7019644366348572,1000.0,6.428571428571418,[0.39114089]
8.200231841487288e-18,0.8984018986579316,-1.2971072952183844e-17,0.8984018986579316,-1.7092860177795766e-18,0.008803070787742624,-1.2971072952183844e-17,0.008803070787742624,2.2412809421704007e-17,0.8984450264581972,2.2665697347906306e-17,-0.8984450264581972,0.7018511872741678,0.12169561143969848,0.7018511872741676,1000.0,6.428571428571418,[0.39114089]
8.503019650351099e-18,0.8909596349751352,-1.2603440800740777e-17,0.8909596349751352,-2.052771112780996e-18,0.01032657962205221,-1.2603440800740777e-17,0.01032657962205221,2.3181174183982065e-17,0.891019477565848,2.34710844889924e-17,-0.891019477565848,0.7016958899430173,0.12347370600315812,0.7016958899430173,1000.0,6.428571428571418,[0.39114089]
8.718986582121344e-18,0.8779670213000572,-1.2217460956130669e-17,0.8779670213000572,-2.4646276484935987e-18,0.012509414733452646,-1.2217460956130669e-17,0.012509414733452646,2.3933802662286913e-17,0.8780561348498566,2.4278854469800755e-17,-0.8780561348498563,0.7014614051003961,0.12611024664616377,0.7014614051003959,1000.0,6.428571428571418,[0.39114089]
8.710304494411987e-18,0.8535520627704599,-1.17985163097491e-17,0.8535520627704599,-3.039815959238472e-18,0.016069297017701475,-1.17985163097491e-17,0.016069297017701475,2.4658756986018187e-17,0.8537033127301015,2.509613075541271e-17,-0.8537033127301014,0.7010459159215947,0.13064933042042082,0.7010459159215946,1000.0,6.428571428571418,[0.39114089]
8.148139315231149e-18,0.7977313113028417,-1.1284950473097589e-17,0.7977313113028417,-4.144611620254097e-18,0.023298892393335973,-1.1284950473097589e-17,0.023298892393335973,2.5261076820854803e-17,0.7980714776382548,2.5906932563651824e-17,-0.7980714776382548,0.7000498304215589,0.14092717925756218,0.7000498304215589,1000.0,6.428571428571418,[0.39114089]
5.052975046845529e-18,0.6105648065414899,-1.0384353445277417e-17,0.6105648065414899,-9.03154173965818e-18,0.040987767862599105,-1.0384353445277417e-17,0.040987767862599105,2.5012009429692636e-17,0.6119390329938148,2.62714346165296e-17,-0.6119390329938147,0.6957798082267678,0.1782720306942283,0.6957798082267678,1000.0,6.428571428571418,[0.32940719]
4.985688867098015e-18,0.6135411095254504,-9.621889789489313e-18,0.6135411095254504,-9.121618399642755e-18,0.04728389102422234,-9.621889789489313e-18,0.04728389102422234,2.4813406673341104e-17,0.61536043050241,2.622704272110731e-17,-0.61536043050241,0.6475077919657994,0.40182996240592783,0.6475077919657996,1000.0,19.28571428571425,[0.78411043]
7.674965535071215e-18,0.8012930071708672,-9.555146240223635e-18,0.8012930071708672,-4.410500556353142e-18,0.03104264129904279,-9.555146240223635e-18,0.03104264129904279,2.4934413270790262e-17,0.8018940883431878,2.5632979380458356e-17,-0.8018940883431876,0.6578851988296287,0.36657077123224113,0.6578851988296287,1000.0,19.28571428571425,[0.85634785]
7.863800942749721e-18,0.85648803444449,-9.074070403671982e-18,0.85648803444449,-3.4977960859070316e-18,0.022744373049224113,-9.074070403671982e-18,0.022744373049224113,2.4189924249712932e-17,0.8567899740613145,2.4660463576894248e-17,-0.8567899740613145,0.6609914690503597,0.35521902494840374,0.6609914690503598,1000.0,19.28571428571425,[0.85401802]
7.499153258956745e-18,0.880785122399963,-8.470054848579636e-18,0.880785122399963,-3.109272660913325e-18,0.01916896557712471,-8.470054848579636e-18,0.01916896557712471,2.332008758733177e-17,0.8809936895814948,2.36784435250168e-17,-0.8809936895814947,0.6621867965132611,0.3507382115581502,0.6621867965132612,1000.0,19.28571428571425,[0.85461223]
6.9152828605025155e-18,0.8938955597489936,-7.815845973917572e-18,0.8938955597489936,-2.887879424324732e-18,0.017458482817447694,-7.815845973917572e-18,0.017458482817447694,2.2401414181585477e-17,0.8940660324390214,2.2701810688601773e-17,-0.8940660324390214,0.6627386443742203,0.34864735551275994,0.6627386443742203,1000.0,19.28571428571425,[0.85414823]
6.235909497245363e-18,0.9015917643495487,-7.146477360169248e-18,0.9015917643495487,-2.7218344968832874e-18,0.01668828760414384,-7.146477360169248e-18,0.01668828760414384,2.1471345535720653e-17,0.9017461995961452,2.1729022152937854e-17,-0.9017461995961453,0.6629899115075059,0.3476906016540269,0.6629899115075059,1000.0,19.28571428571425,[0.85414823]
5.513125695441427e-18,0.9060969309892907,-6.457099247403268e-18,0.9060969309892907,-2.6198199662983476e-18,0.016497358476097717,-6.457099247403268e-18,0.016497358476097717,2.0519029040100604e-17,0.9062471027180723,2.0747513491215908e-17,-0.9062471027180724,0.6630642879469207,0.34740682218241764,0.6630642879469207,1000.0,19.28571428571425,[0.85414823]
4.731737801599335e-18,0.9083772042201267,-5.7559189216573795e-18,0.9083772042201267,-2.542766437877808e-18,0.016736573873727387,-5.7559189216573795e-18,0.016736573873727387,1.956725517496239e-17,0.9085313742803846,1.9774915721889525e-17,-0.9085313742803847,0.6630108263469452,0.34761082879202976,0.6630108263469452,1000.0,19.28571428571425,[0.85414823]
3.952520429684582e-18,0.9088206823044899,-5.0491427190675705e-18,0.9088206823044899,-2.489588650657999e-18,0.017361315273524934,-5.0491427190675705e-18,0.017361315273524934,1.860245817826014e-17,0.9089864948680072,1.8790063196622355e-17,-0.9089864948680072,0.6628439760716112,0.34824664646074416,0.662843976071611,1000.0,19.28571428571425,[0.85414823]
3.1081873999496555e-18,0.9074510520333865,-4.330259073851823e-18,0.9074510520333865,-2.4646276484935987e-18,0.018401266846311052,-4.330259073851823e-18,0.018401266846311052,1.7627893832884863e-17,0.907637603043224,1.7799204854050455e-17,-0.907637603043224,0.6625543280834061,0.34934728376773194,0.662554328083406,1000.0,19.28571428571425,[0.85414823]
2.2312965413046407e-18,0.9039351470981497,-3.605067349284746e-18,0.9039351470981497,-2.4646276484935987e-18,0.019969893537977103,-3.605067349284746e-18,0.019969893537977103,1.664681792172757e-17,0.9041557093815599,1.67971599353835e-17,-0.9041557093815599,0.6621052850536612,0.3510458417472283,0.6621052850536612,1000.0,19.28571428571425,[0.85461223]
1.304483678330826e-18,0.8973903105226615,-2.8506414075088197e-18,0.8973903105226615,-2.514549652822399e-18,0.02232097173406459,-2.8506414075088197e-18,0.02232097173406459,1.5646207313224224e-17,0.8976678646354186,1.5776487984784456e-17,-0.8976678646354185,0.6614127832463463,0.35364708441699827,0.6614127832463464,1000.0,19.28571428571425,[0.85401802]
2.8867941633610623e-19,0.8857531491851661,-2.069423085692301e-18,0.8857531491851661,-2.643695707499078e-18,0.02601587501301197,-2.069423085692301e-18,0.02601587501301197,1.4621720963520148e-17,0.8861351291107534,1.4725950271557207e-17,-0.8861351291107532,0.660282068497486,0.3578479845428255,0.660282068497486,1000.0,19.28571428571425,[0.85401802]
-9.094486875551016e-19,0.8636368369301127,-1.218917634226503e-18,0.8636368369301127,-2.950824560217567e-18,0.032462732559041474,-1.218917634226503e-18,0.032462732559041474,1.3531033695032229e-17,0.8642467327724478,1.3598256366000692e-17,-0.8642467327724477,0.6581830052322236,0.3655000181216924,0.6581830052322237,1000.0,19.28571428571425,[0.85634785]
-2.595944225097617e-18,0.8125957089752907,-1.8612225526933165e-19,0.8125957089752907,-3.7517471514057115e-18,0.046106531305162284,-1.8612225526933165e-19,0.046106531305162284,1.2265619411393506e-17,0.8139026959496134,1.2215781884075838e-17,-0.8139026959496133,0.6531246491486226,0.38321845643050345,0.6531246491486226,1000.0,19.28571428571425,[0.85634785]
-6.596216137183661e-18,0.6365797808914296,1.5582651718039327e-18,0.6365797808914296,-8.352168376401028e-18,0.07720094528671519,1.5582651718039327e-18,0.07720094528671519,9.899750510593839e-18,0.6412439499854503,9.003104706328472e-18,-0.6412439499854504,0.6344549267451446,0.44151318423986635,0.6344549267451448,1000.0,19.28571428571425,[1.17465026]
-6.893577641229124e-18,0.6420059981404789,2.426100884283329e-18,0.6420059981404789,-8.226278104615358e-18,0.0815693641129659,2.426100884283329e-18,0.0815693641129659,8.34782733254635e-18,0.6471671057850098,7.678335652666993e-18,-0.6471671057850099,0.5465327089368983,0.634510832156703,0.5465327089368981,1000.0,32.142857142857125,[1.33045]
-4.026318175214113e-18,0.8192035781566689,2.039544494786273e-18,0.8192035781566689,-3.383843684721727e-18,0.05150222192191719,2.039544494786273e-18,0.05150222192191719,8.109069920539044e-18,0.8208209191581219,7.791959046591015e-18,-0.8208209191581222,0.5739398973981703,0.584111280792587,0.5739398973981703,1000.0,32.142857142857125,[1.36752714]
-3.4120604697771357e-18,0.8692429943228575,2.3764841096005606e-18,0.8692429943228575,-2.3333110718895805e-18,0.03714397501374332,2.3764841096005606e-18,0.03714397501374332,6.739470584388045e-18,0.8700362395091307,6.50703995993015e-18,-0.8700362395091303,0.5821174961273333,0.567695729598954,0.5821174961273332,1000.0,32.142857142857125,[1.36547248]
-3.2731470664274305e-18,0.8912716663658635,2.9206746540706218e-18,0.8912716663658635,-1.788510068127455e-18,0.0307113817529609,2.9206746540706218e-18,0.0307113817529609,5.165842187067164e-18,0.8918006348034069,4.961449868442005e-18,-0.8918006348034068,0.5854137852086866,0.5608755656785878,0.5854137852086865,1000.0,32.142857142857125,[1.36547248]
-3.3078754172648568e-18,0.9032447206378573,3.542834415899319e-18,0.9032447206378573,-1.410839252770444e-18,0.027368369662790496,3.542834415899319e-18,0.027368369662790496,3.5260128709624404e-18,0.9036592571418497,3.3027837633154722e-18,-0.9036592571418499,0.5870560102195028,0.557432042252971,0.5870560102195028,1000.0,32.142857142857125,[1.36674781]
-3.4229130794138314e-18,0.910369411850079,4.19158307133792e-18,0.910369411850079,-1.1199893145069986e-18,0.02556366509921203,4.19158307133792e-18,0.02556366509921203,1.8503699430566208e-18,0.9107282618902106,1.611859537404633e-18,-0.9107282618902105,0.5879286756441751,0.5555895469774182,0.5879286756441751,1000.0,32.142857142857125,[1.36674781]
-3.607407443237658e-18,0.9146470656210365,4.874313960701425e-18,0.9146470656210365,-8.638677270809797e-19,0.02468644381523314,4.874313960701425e-18,0.02468644381523314,1.5410705684107927e-19,0.9149801501439336,-1.1054059333648556e-19,-0.9149801501439337,0.5883563816045748,0.55468327579831,0.5883563816045749,1000.0,32.142857142857125,[1.36674781]
-3.80709546055286e-18,0.9169499320230413,5.568813148639722e-18,0.9169499320230413,-6.489860562744042e-19,0.024474671768632904,5.568813148639722e-18,0.024474671768632904,-1.5551789609384973e-18,0.9172765054198447,-1.8564089491076955e-18,-0.9172765054198447,0.5884734416831063,0.5544348626009008,0.5884734416831063,1000.0,32.142857142857125,[1.36674781]
-4.026318175214113e-18,0.9176341722169123,6.273961459784028e-18,0.9176341722169123,-4.579801266685595e-19,0.02483326043191795,6.273961459784028e-18,0.02483326043191795,-3.2807438931731175e-18,0.9179701328713794,-3.6218356570561625e-18,-0.9179701328713794,0.5883281076250135,0.5547432519253767,0.5883281076250134,1000.0,32.142857142857125,[1.36674781]
-4.286780806494811e-18,0.9167339652968048,6.99644003194193e-18,0.9167339652968048,-2.8867941633610623e-19,0.025778708399277407,6.99644003194193e-18,0.025778708399277407,-5.018246696008102e-18,0.9170963444129184,-5.41338331036258e-18,-0.9170963444129184,0.587913121364227,0.5556224648585976,0.587913121364227,1000.0,32.142857142857125,[1.36674781]
-4.560266569339543e-18,0.9139724308671806,7.737537612507789e-18,0.9139724308671806,-1.5193653491374012e-19,0.027444361590597807,7.737537612507789e-18,0.027444361590597807,-6.774198935225471e-18,0.9143843816297276,-7.23630603733725e-18,-0.9143843816297273,0.5871633008737709,0.5572059908274817,0.5871633008737708,1000.0,32.142857142857125,[1.36674781]
-4.9010385119317885e-18,0.9085978650667418,8.50135784450048e-18,0.9085978650667418,-5.2092526256139477e-20,0.030150384782120527,8.50135784450048e-18,0.030150384782120527,-8.556197437570908e-18,0.909097973876497,-9.109708859226379e-18,-0.909097973876497,0.5859182045466863,0.5598211456899207,0.5859182045466863,1000.0,32.142857142857125,[1.36547248]
-5.300414546562191e-18,0.8988397686567883,9.302280435688624e-18,0.8988397686567883,-4.123991661944375e-20,0.034618844723656485,9.302280435688624e-18,0.034618844723656485,-1.037835059557212e-17,0.8995061946028998,-1.1081411525313406e-17,-0.8995061946028998,0.5838020848520193,0.5642253551949536,0.5838020848520193,1000.0,32.142857142857125,[1.36547248]
-5.851727116106334e-18,0.8800479970820282,1.019717984344953e-17,0.8800479970820282,-1.9534697346052304e-19,0.042669401112944365,1.019717984344953e-17,0.042669401112944365,-1.2301433023194602e-17,0.8810818094589328,-1.3243853766019605e-17,-0.8810818094589327,0.5798029720562481,0.5724133359640425,0.579802972056248,1000.0,32.142857142857125,[1.36547248]
-6.813268329917576e-18,0.8360962438563392,1.132849656926483e-17,0.8360962438563392,-8.616972051536405e-19,0.06001899408927343,1.132849656926483e-17,0.06001899408927343,-1.4495830691734477e-17,0.8382477012447855,-1.607182452798387e-17,-0.8382477012447854,0.5702513535484075,0.5912924720917889,0.5702513535484073,1000.0,32.142857142857125,[1.36752714]
-9.700062493278637e-18,0.6759423012926489,1.3354916189271726e-17,0.6759423012926489,-5.315608200053565e-18,0.09835454834939596,1.3354916189271726e-17,0.09835454834939596,-1.8155330661228275e-17,0.683060474524632,-2.1601268940212963e-17,-0.683060474524632,0.5383152060821055,0.6484084189780084,0.5383152060821057,1000.0,32.142857142857125,[1.42382956]
-9.723938234479368e-18,0.6827387387178226,1.3660451064949826e-17,0.6827387387178226,-5.233128366814678e-18,0.09992663191430702,1.3660451064949826e-17,0.09992663191430702,-1.9227568493333813e-17,0.6900126934424763,-2.3107105708415747e-17,-0.6900126934424764,0.4223198445059493,0.802054797300622,0.4223198445059494,1000.0,45.0,[1.47171419]
-7.494812215102066e-18,0.8444281482002925,1.2095369097717842e-17,0.8444281482002925,-5.968935300182648e-19,0.06198783983403204,1.2095369097717842e-17,0.06198783983403204,-1.7112394875141816e-17,0.8467002951223441,-1.888078237605469e-17,-0.8467002951223442,0.4620526961391938,0.7569772863045521,0.46205269613919386,1000.0,45.0,[1.54717855]
-7.173574969855873e-18,0.8871925918064747,1.1433665139525435e-17,0.8871925918064747,2.4526897778932334e-19,0.04441302787817645,1.1433665139525435e-17,0.04441302787817645,-1.64959666477775e-17,0.8883035584762664,-1.7626409340947795e-17,-0.8883035584762667,0.474375879667725,0.7415760578517517,0.474375879667725,1000.0,45.0,[1.5217698]
-7.210473842620638e-18,0.9059368433776219,1.1015602267676847e-17,0.9059368433776219,5.70847266890195e-19,0.03639740654412044,1.1015602267676847e-17,0.03639740654412044,-1.6181240968313323e-17,0.9066677094681094,-1.7040656503480975e-17,-0.9066677094681093,0.47952487319947196,0.7349229836969727,0.47952487319947196,1000.0,45.0,[1.52355217]
-7.397138728371805e-18,0.9161755157068266,1.0692940617415837e-17,0.9161755157068266,7.336364114406309e-19,0.03208460811691352,1.0692940617415837e-17,0.03208460811691352,-1.5976126646179774e-17,0.9167371475284976,-1.6725213034316127e-17,-0.9167371475284976,0.4821943290797164,0.7314213956446207,0.4821943290797164,1000.0,45.0,[1.52355217]
-7.63806666230645e-18,0.9223348004480061,1.0411688455799845e-17,0.9223348004480061,8.226278104615359e-19,0.029603963834942276,1.0411688455799845e-17,0.029603963834942276,-1.5823104850302364e-17,0.9228097738928673,-1.648537559537718e-17,-0.9228097738928672,0.48370252562837796,0.7294269897676239,0.48370252562837796,1000.0,45.0,[1.52355217]
-7.931087122497234e-18,0.926107762542573,1.0157059102198871e-17,0.926107762542573,8.551856393716231e-19,0.028215816333037675,1.0157059102198871e-17,0.028215816333037675,-1.5697214578516694e-17,0.9265374898691097,-1.6308097882786928e-17,-0.9265374898691099,0.4845416165169845,0.7283123256723142,0.4845416165169846,1000.0,45.0,[1.52355217]
-8.243642280034071e-18,0.9282330899777262,9.92349059417411e-18,0.9282330899777262,8.682087709356578e-19,0.02759710279206778,9.92349059417411e-18,0.02759710279206778,-1.5597370569859093e-17,0.9286432411922857,-1.6182742655135898e-17,-0.9286432411922857,0.4849203371303986,0.7278080332578648,0.4849203371303988,1000.0,45.0,[1.52355217]
-8.573561612989621e-18,0.9290162988713071,9.701554727103683e-18,0.9290162988713071,8.421625078075882e-19,0.027621079266837097,9.701554727103683e-18,0.027621079266837097,-1.5523572824329562e-17,0.9294268166931742,-1.609884568008325e-17,-0.9294268166931743,0.4849199546509547,0.7278085429305102,0.4849199546509548,1000.0,45.0,[1.52355217]
-8.929527209073241e-18,0.9284953302455876,9.497339136705673e-18,0.9284953302455876,8.030931131154836e-19,0.028287768906336375,9.497339136705673e-18,0.028287768906336375,-1.5460627688436727e-17,0.928926141389917,-1.6027549973268714e-17,-0.9289261413899172,0.4845420541143907,0.728311743410206,0.4845420541143908,1000.0,45.0,[1.52355217]
-9.31153906828493e-18,0.9264526732400808,9.310165534877786e-18,0.9264526732400808,7.292953675859526e-19,0.0297239626961479,9.310165534877786e-18,0.0297239626961479,-1.542806985952664e-17,0.926929376874017,-1.602014747216019e-17,-0.9269293768740171,0.48370929485915476,0.7294180119339794,0.48370929485915465,1000.0,45.0,[1.52355217]
-9.71959719062469e-18,0.922283446790389,9.148834709747281e-18,0.922283446790389,6.120871835096388e-19,0.03225277339571173,9.148834709747281e-18,0.03225277339571173,-1.5432410903381318e-17,0.9228472233340008,-1.6060968042978484e-17,-0.9228472233340009,0.4822199443691415,0.731387619874198,0.4822199443691416,1000.0,45.0,[1.52355217]
-1.0171065751511232e-17,0.9145507966395782,9.02645457889098e-18,0.9145507966395782,4.058876004124201e-19,0.036613916408162375,9.02645457889098e-18,0.036613916408162375,-1.5495356039274153e-17,0.9152834197716198,-1.6224477884903607e-17,-0.9152834197716196,0.47959837426667107,0.7348270536674137,0.4795983742666711,1000.0,45.0,[1.52355217]
-1.0739742496474088e-17,0.8994468973322847,9.002392308462118e-18,0.8994468973322847,5.2092526256139477e-20,0.044678143301870483,9.002392308462118e-18,0.044678143301870483,-1.570372614429871e-17,0.9005558603493601,-1.658355760571125e-17,-0.90055586034936,0.4745784196545103,0.7413168332072698,0.4745784196545104,1000.0,45.0,[1.5217698]
-1.1607951267409745e-17,0.8634870279463114,9.222191568010321e-18,0.8634870279463114,-8.334804200982316e-19,0.06230200171270631,9.222191568010321e-18,0.06230200171270631,-1.628976706468028e-17,0.8657317060434855,-1.7605062210417925e-17,-0.8657317060434855,0.462721314606307,0.7561600161460682,0.462721314606307,1000.0,45.0,[1.54717855]
-1.397816121206409e-17,0.7207627323298411,1.0340095146602768e-17,0.7207627323298411,-5.5001025638773925e-18,0.10029088639870838,1.0340095146602768e-17,0.10029088639870838,-1.8757650496064888e-17,0.7277067941212425,-2.16235323195797e-17,-0.7277067941212427,0.42631994846248217,0.797811132465506,0.42631994846248217,1000.0,45.0,[1.48415383]
-1.3444212817938663e-17,0.7275757049158711,9.908110411454606e-18,0.7275757049158711,-5.389405945583096e-18,0.09876331227490992,9.908110411454606e-18,0.09876331227490992,-1.8277965150122937e-17,0.7342483219152347,-2.0416174205817102e-17,-0.7342483219152345,0.29225059862732566,0.9105927603511572,0.2922505986273257,1000.0,57.8571428571429,[1.51608785]
-1.0626875356252452e-17,0.871871130925233,8.059402274248604e-18,0.871871130925233,-4.970495213606641e-19,0.06047814229340086,8.059402274248604e-18,0.06047814229340086,-1.4251646974908824e-17,0.8739661747665673,-1.5351363606644317e-17,-0.8739661747665673,0.33387015319647395,0.8815108857008666,0.333870153196474,1000.0,57.8571428571429,[1.5423633]
-9.255105498174113e-18,0.9066790906147493,7.114275632512865e-18,0.9066790906147493,5.990640519456039e-19,0.043178793241581734,7.114275632512865e-18,0.043178793241581734,-1.2126706008043801e-17,0.9077066605152724,-1.2796530635911076e-17,-0.9077066605152725,0.34729682290037456,0.8710739541546467,0.3472968229003747,1000.0,57.8571428571429,[1.5423633]
-8.174185578359219e-18,0.9217709133018603,6.404633662690867e-18,0.9217709133018603,1.1785934065451555e-18,0.03517888757879472,6.404633662690867e-18,0.03517888757879472,-1.0425016817009912e-17,0.9224419606352625,-1.0912030592073819e-17,-0.9224419606352625,0.3530964423525091,0.8663981791278202,0.35309644235250914,1000.0,57.8571428571429,[1.53583744]
-7.184427579492569e-18,0.9300197419763211,5.7822619358302026e-18,0.9300197419763211,1.601845182376289e-18,0.030761622565295733,5.7822619358302026e-18,0.030761622565295733,-8.868752595107745e-18,0.9305283434095668,-9.24989877823207e-18,-0.9305283434095667,0.35620509520178084,0.8638494430770794,0.3562050952017809,1000.0,57.8571428571429,[1.52967998]
-6.242421063027381e-18,0.9350095191841795,5.201168279294737e-18,0.9350095191841795,1.9404466030411953e-18,0.028107378157467947,5.201168279294737e-18,0.028107378157467947,-7.388456640662448e-18,0.9354318925886148,-7.698506574779879e-18,-0.935431892588615,0.3580434581640961,0.8623281070055588,0.35804345816409616,1000.0,57.8571428571429,[1.52967998]
-5.3221197658355826e-18,0.9380997207314432,4.645985228266882e-18,0.9380997207314432,2.235637585159319e-18,0.026494098491146336,4.645985228266882e-18,0.026494098491146336,-5.942889037054578e-18,0.9384737733635766,-6.2096852474582055e-18,-0.9384737733635768,0.35915092547870653,0.8614065390137093,0.35915092547870653,1000.0,57.8571428571429,[1.52967998]
-4.4061595124984636e-18,0.9398822603928021,4.0997767766924974e-18,0.9398822603928021,2.493929694512677e-18,0.025601617010978198,4.0997767766924974e-18,0.025601617010978198,-4.5407318719934905e-18,0.9402308791965192,-4.762703971968505e-18,-0.9402308791965194,0.35976128823750436,0.8608969920794141,0.35976128823750436,1000.0,57.8571428571429,[1.52967998]
-3.524927609998771e-18,0.9406033278745827,3.575845849977815e-18,0.9406033278745827,2.7370281503746614e-18,0.025296578560355935,3.575845849977815e-18,0.025296578560355935,-3.1537683604237775e-18,0.9409434293811718,-3.3489878488472045e-18,-0.9409434293811718,0.3599712414550531,0.8607214477696115,0.3599712414550531,1000.0,57.8571428571429,[1.52967998]
-2.6523777952084347e-18,0.9402971404434659,3.0611822994170067e-18,0.9402971404434659,2.9497392992538975e-18,0.025562470159682344,3.0611822994170067e-18,0.025562470159682344,-1.80153319969149e-18,0.9406445408371986,-1.9709662404972922e-18,-0.9406445408371984,0.3597939233642735,0.8608697145447076,0.3597939233642736,1000.0,57.8571428571429,[1.52967998]
-1.784169024272777e-18,0.9387968657226811,2.565760404545557e-18,0.9387968657226811,3.132063141150386e-18,0.0264943624418637,2.565760404545557e-18,0.0264943624418637,-4.818558678692901e-19,0.9391706481422485,-6.290641121321979e-19,-0.9391706481422486,0.3591635186349142,0.8613960376990222,0.3591635186349142,1000.0,57.8571428571429,[1.52967998]
-9.333244287558322e-19,0.9356312140274573,2.0941382084196198e-18,0.9356312140274573,3.266635500645413e-18,0.028354270221534035,2.0941382084196198e-18,0.028354270221534035,7.965815473334662e-19,0.936060752997523,6.660068504235093e-19,-0.936060752997523,0.35789486108375024,0.8624514692547554,0.35789486108375024,1000.0,57.8571428571429,[1.52967998]
-1.3457235949502697e-19,0.9296716188241956,1.6577827543123046e-18,0.9296716188241956,3.3360922023202657e-18,0.03175300194357514,1.6577827543123046e-18,0.03175300194357514,1.9881980854426565e-18,0.9302137238181498,1.8676318271664087e-18,-0.9302137238181497,0.3555466883501313,0.8643917542448618,0.3555466883501312,1000.0,57.8571428571429,[1.52967998]
6.077461396549605e-19,0.9178913493409513,1.2900064666474994e-18,0.9178913493409513,3.2167134963166127e-18,0.03824183341036172,1.2900064666474994e-18,0.03824183341036172,2.9974907816553587e-18,0.9186876329947726,2.892348122179064e-18,-0.9186876329947727,0.35095455410859133,0.8681369718546031,0.3509545541085913,1000.0,57.8571428571429,[1.54360281]
1.14169453378039e-18,0.8892462648398132,1.1392696538146909e-18,0.8892462648398132,2.6024557908796344e-18,0.052656919195587064,1.1392696538146909e-18,0.052656919195587064,3.5336096977081274e-18,0.890803946259069,3.4021999336640292e-18,-0.8908039462590689,0.34015404311997327,0.8766929074073038,0.34015404311997327,1000.0,57.8571428571429,[1.5423633]
5.469715256894644e-19,0.7620707953409538,1.7119482985810785e-18,0.7620707953409538,-1.814556331255525e-18,0.08278194298169841,1.7119482985810785e-18,0.08278194298169841,1.814556331255525e-18,0.7665538123285406,1.3230083866283694e-18,-0.7665538123285403,0.3093456940558688,0.8992277148410107,0.30934569405586876,1000.0,57.8571428571429,[1.54061186]
1.4325444720438354e-18,0.7675492130229543,1.1695891319872095e-18,0.7675492130229543,-1.7624638049993854e-18,0.07846534061748775,1.1695891319872095e-18,0.07846534061748775,2.1357935765017183e-18,0.7715494825935503,1.800392178074503e-18,-0.7715494825935503,0.16445553023801854,0.972578406684142,0.16445553023801854,1000.0,70.71428571428567,[1.53313985]
3.3295806365382482e-18,0.8960180970530276,-9.730890687527877e-20,0.8960180970530276,2.7717565012120877e-18,0.04742560696690272,-9.730890687527877e-20,0.04742560696690272,4.987859389025354e-18,0.8972723212284595,5.005687154744936e-18,-0.8972723212284596,0.19793908981277017,0.9600209546922319,0.1979390898127702,1000.0,70.71428571428567,[1.53462272]
4.093604354961627e-18,0.9237725264505358,-6.557180656896671e-19,0.9237725264505358,3.5053929126527186e-18,0.033836101136441935,-6.557180656896671e-19,0.033836101136441935,5.558706655915549e-18,0.924391996051957,5.6060961491062715e-18,-0.924391996051957,0.20895583438715828,0.9553402108940734,0.2089558343871583,1000.0,70.71428571428567,[1.54794724]
4.710032582325944e-18,0.9355762541358797,-1.0295141602623267e-18,0.9355762541358797,3.726786149241311e-18,0.027443475316735952,-1.0295141602623267e-18,0.027443475316735952,5.625992835663063e-18,0.9359786705050414,5.687888880934616e-18,-0.9359786705050412,0.21387280137636774,0.9531615024028454,0.21387280137636774,1000.0,70.71428571428567,[1.54594067]
5.257004108015408e-18,0.9419830973597043,-1.3380758965969106e-18,0.9419830973597043,3.783219719352129e-18,0.023802763222603912,-1.3380758965969106e-18,0.023802763222603912,5.497932041950053e-18,0.9422837827578345,5.5650965458256225e-18,-0.9422837827578345,0.21660837386307805,0.9519252201432556,0.21660837386307805,1000.0,70.71428571428567,[1.54594067]
5.76056519515809e-18,0.9458403065026919,-1.61603836091678e-18,0.9458403065026919,3.761514500078738e-18,0.021505784803529788,-1.61603836091678e-18,0.021505784803529788,5.293902980780174e-18,0.9460847658561689,5.365433896932924e-18,-0.9460847658561689,0.21831071769129454,0.9511471290406253,0.2183107176912945,1000.0,70.71428571428567,[1.54594067]
6.264126282300772e-18,0.9482144374979435,-1.8707864149356546e-18,0.9482144374979435,3.696398842258563e-18,0.019991096071594116,-1.8707864149356546e-18,0.019991096071594116,5.031269827572137e-18,0.9484251490769767,5.110829736571845e-18,-0.9484251490769765,0.21942253236910828,0.9506353162898248,0.21942253236910822,1000.0,70.71428571428567,[1.54594067]
6.7503231940247405e-18,0.9495664162057748,-2.1131726682902307e-18,0.9495664162057748,3.590043267818945e-18,0.019004843021387004,-2.1131726682902307e-18,0.019004843021387004,4.729567279671996e-18,0.9497565808375041,4.8168258352442615e-18,-0.9497565808375044,0.2201404528207709,0.9503033000383255,0.22014045282077094,1000.0,70.71428571428567,[1.54594067]
7.240861149603386e-18,0.9500861051321248,-2.3505735040929496e-18,0.9500861051321248,3.4684940398879535e-18,0.018433480014838716,-2.3505735040929496e-18,0.018433480014838716,4.3887953370797504e-18,0.9502649106173434,4.481970259365443e-18,-0.9502649106173435,0.22055171522948055,0.9501125627096341,0.2205517152294806,1000.0,70.71428571428567,[1.54594067]
7.718375973617998e-18,0.9497971826377054,-2.5714241101997076e-18,0.9497971826377054,3.3187280269015525e-18,0.01824724104339806,-2.5714241101997076e-18,0.01824724104339806,4.0284886971414524e-18,0.9499724469437091,4.1264298224918355e-18,-0.9499724469437093,0.22067943309463922,0.9500532488329574,0.22067943309463928,1000.0,70.71428571428567,[1.54594067]
8.16984453450454e-18,0.9485647024943366,-2.7857801077270054e-18,0.9485647024943366,3.132063141150386e-18,0.018490663005988523,-2.7857801077270054e-18,0.018490663005988523,3.626942140583711e-18,0.9487449074627861,3.73707440864985e-18,-0.948744907462786,0.2204903305489841,0.950141057037743,0.2204903305489841,1000.0,70.71428571428567,[1.54594067]
8.623483617318422e-18,0.9460112153470407,-2.988995223174133e-18,0.9460112153470407,2.9084993826344538e-18,0.019312787676999787,-2.988995223174133e-18,0.019312787676999787,3.1581094042784558e-18,0.946208329772171,3.2841362738527307e-18,-0.946208329772171,0.21987126528098522,0.9504279317273231,0.21987126528098522,1000.0,70.71428571428567,[1.54594067]
9.061929046640929e-18,0.9412299686341695,-3.1695555160046583e-18,0.9412299686341695,2.6024557908796344e-18,0.021074561779836857,-3.1695555160046583e-18,0.021074561779836857,2.6046263128069735e-18,0.94146587352346,2.7488467448654552e-18,-0.9414658735234601,0.21854381499882894,0.9510400632210588,0.21854381499882902,1000.0,70.71428571428567,[1.54594067]
9.441770383925279e-18,0.9317593442930814,-3.2969888932230464e-18,0.9317593442930814,2.1357935765017183e-18,0.02470056211110197,-3.2969888932230464e-18,0.02470056211110197,1.8406025943835946e-18,0.9320866877313917,2.0247726439718847e-18,-0.9320866877313919,0.21577355888205016,0.9523043329601881,0.2157735588820502,1000.0,70.71428571428567,[1.54594067]
9.713085624842672e-18,0.9083113417186156,-3.308536748164593e-18,0.9083113417186156,1.154717665344425e-18,0.03304871784183549,-3.308536748164593e-18,0.03304871784183549,5.230957844887339e-19,0.9089123782002648,7.796532899532345e-19,-0.908912378200265,0.20912002189158774,0.9552683564779708,0.20912002189158774,1000.0,70.71428571428567,[1.54794724]
9.122703660606425e-18,0.7917320127390142,-2.9007329838631934e-18,0.7917320127390142,-3.626942140583711e-18,0.049339372332863604,-2.9007329838631934e-18,0.049339372332863604,-3.3078754172648568e-18,0.7932678952648797,-2.929629271258865e-18,-0.7932678952648795,0.19157806660293378,0.9625984047324012,0.19157806660293378,1000.0,70.71428571428567,[1.54857286]
8.901310424017832e-18,0.7947966596844883,-3.073662535542917e-18,0.7947966596844883,-3.718104061531955e-18,0.04308482948672912,-3.073662535542917e-18,0.04308482948672912,-4.071899135688235e-18,0.7959635875952624,-3.659307126042085e-18,-0.7959635875952622,0.04102035064511779,0.9983159127580323,0.04102035064511778,1000.0,83.57142857142856,[1.55191961]
8.82968320041564e-18,0.9121482694366707,-3.2572412104286483e-18,0.9121482694366707,8.790613805723536e-19,0.02543445620160997,-3.2572412104286483e-18,0.02543445620160997,-1.5085127395007055e-18,0.9125028093099681,-1.3232973622643384e-18,-0.9125028093099681,0.05955461516565279,0.996446935679438,0.05955461516565278,1000.0,83.57142857142856,[1.55169719]
7.907211381296504e-18,0.9351556976145255,-3.0549417839196167e-18,0.9351556976145255,1.6756429279058198e-18,0.018241724672825504,-3.0549417839196167e-18,0.018241724672825504,-1.47161386673594e-18,0.9353335978676,-1.3499659232983732e-18,-0.9353335978675998,0.06545185649549622,0.9957068388650276,0.06545185649549622,1000.0,83.57142857142856,[1.54965291]
6.865360856173715e-18,0.9446927843612118,-2.7604799615114585e-18,0.9446927843612118,1.9621518223145867e-18,0.014717171951021962,-2.7604799615114585e-18,0.014717171951021962,-1.9990506950793522e-18,0.9448074152833345,-1.9102068127957e-18,-0.9448074152833347,0.06821595917973723,0.9953357050896833,0.06821595917973725,1000.0,83.57142857142856,[1.54965291]
5.788781980213499e-18,0.9497755253697105,-2.4246595220659552e-18,0.9497755253697105,2.0815305283182397e-18,0.01256809680849706,-2.4246595220659552e-18,0.01256809680849706,-2.7413691942293397e-18,0.9498586766717967,-2.6761301417267348e-18,-0.9498586766717968,0.06986662447787384,0.9951066825060193,0.06986662447787384,1000.0,83.57142857142856,[1.54965291]
4.683986319197874e-18,0.9527659412396529,-2.0850406692476085e-18,0.9527659412396529,2.1249409668650226e-18,0.01107671264496223,-2.0850406692476085e-18,0.01107671264496223,-3.574849614327571e-18,0.9528303271565722,-3.525057654604189e-18,-0.9528303271565723,0.07099701618786514,0.9949466555473414,0.07099701618786512,1000.0,83.57142857142856,[1.54965291]
3.583531702036928e-18,0.9545363531149809,-1.7324325992703417e-18,0.9545363531149809,2.1271114887923617e-18,0.009953431835157912,-1.7324325992703417e-18,0.009953431835157912,-4.475616214173316e-18,0.954588246430546,-4.438729012561634e-18,-0.954588246430546,0.07183993793015504,0.9948256362983329,0.07183993793015504,1000.0,83.57142857142856,[1.54965291]
2.4809065629486423e-18,0.9554584329157495,-1.3712102703939473e-18,0.9554584329157495,2.0902126160275963e-18,0.009061031783045239,-1.3712102703939473e-18,0.009061031783045239,-5.413281686783827e-18,0.9555013968209533,-5.386507779454499e-18,-0.9555013968209531,0.07250394068418767,0.9947292883847986,0.07250394068418765,1000.0,83.57142857142856,[1.54965291]
1.3544056826596262e-18,0.9556798792314994,-1.011395389329812e-18,0.9556798792314994,2.027267480134761e-18,0.00832829968269699,-1.011395389329812e-18,0.00832829968269699,-6.392187076013782e-18,0.955716167145632,-6.373935588356896e-18,-0.9557161671456321,0.07304471044612132,0.9946501598811941,0.07304471044612132,1000.0,83.57142857142856,[1.54965291]
2.5178054357134078e-19,0.9552091146075624,-6.490030134769616e-19,0.9552091146075624,1.936105559186517e-18,0.007718136617988755,-6.490030134769616e-19,0.007718136617988755,-7.405820816081161e-18,0.9552402955603462,-7.394798379529662e-18,-0.9552402955603462,0.07349090879448163,0.9945844220824709,0.07349090879448161,1000.0,83.57142857142856,[1.54603944]
-8.899139902090493e-19,0.9539179838906017,-2.7126436930972107e-19,0.9539179838906017,1.8254089408922206e-18,0.00721573188236702,-2.7126436930972107e-19,0.00721573188236702,-8.460694472767986e-18,0.9539452745186741,-8.456063547238335e-18,-0.953945274518674,0.07385358411019928,0.9945306914460487,0.07385358411019928,1000.0,83.57142857142856,[1.54500754]
-2.0207559143527436e-18,0.9514645529591903,9.214543869656962e-20,0.9514645529591903,1.6604492744144458e-18,0.006827606811491681,9.214543869656962e-20,0.006827606811491681,-9.572001699565628e-18,0.9514890497281636,-9.572915132589306e-18,-0.9514890497281637,0.0741267149752423,0.9944900503544309,0.07412671497524229,1000.0,83.57142857142856,[1.54500754]
-3.1689620139151515e-18,0.9470334825498262,4.681035765952897e-19,0.9470334825498262,1.426032906261818e-18,0.006593247150250427,4.681035765952897e-19,0.006593247150250427,-1.0791835022730227e-17,0.9470564333652121,-1.0797980912220858e-17,-0.9470564333652121,0.07427711681722288,0.9944676062268903,0.07427711681722288,1000.0,83.57142857142856,[1.54500754]
-4.343214376605628e-18,0.9384003405811895,8.454691623062689e-19,0.9384003405811895,1.0179747839220588e-18,0.0066270668793063335,8.454691623062689e-19,0.0066270668793063335,-1.2217867928992045e-17,0.9384237407580411,-1.2229494304691452e-17,-0.9384237407580412,0.07420673775863347,0.9944781144612702,0.07420673775863348,1000.0,83.57142857142856,[1.54500754]
-5.6216517918083846e-18,0.917000888011811,1.2528829109488492e-18,0.917000888011811,9.767348673026152e-20,0.007241506710211315,1.2528829109488492e-18,0.007241506710211315,-1.4240794365272128e-17,0.9170294804606255,-1.4260042894956923e-17,-0.9170294804606255,0.07361967150158043,0.9945653764011688,0.07361967150158043,1000.0,83.57142857142856,[1.54500754]
-7.670624491216537e-18,0.8039635382374153,1.6646716178512228e-18,0.8039635382374153,-4.6167001394503606e-18,0.006450732519643123,1.6646716178512228e-18,0.006450732519643123,-1.8868347114359184e-17,0.8039894170729265,-1.8894293043239492e-17,-0.8039894170729266,0.07353056120702071,0.9945785605658115,0.07353056120702073,1000.0,83.57142857142856,[1.54603944]
