stress_11,stress_12,stress_13,stress_21,stress_22,stress_23,stress_31,stress_32,stress_33,e1,e2,e3,anev1,anev2,anev3,temp,miss,velo
-4.210812539037941e-19,0.793403135426412,-1.5431359556822763e-17,0.793403135426412,-7.735740149036711e-18,-0.043769850213241125,-1.5431359556822763e-17,-0.043769850213241125,-2.025096958207422e-18,0.7946095488302108,-3.709663898287518e-18,-0.7946095488302107,0.1964238332414241,0.9606431988358065,0.19642383324142415,300.0,109.28571428571416,[1.66671532]
7.640237184233789e-19,0.9100777718559216,-1.4873094534230112e-17,0.9100777718559216,-3.1212105315136903e-18,-0.02750528404773257,-1.4873094534230112e-17,-0.02750528404773257,1.3706845971146698e-18,0.9104933231368506,4.745247980052315e-19,-0.9104933231368505,0.2132735536245365,0.9534300093078274,0.21327355362453654,300.0,109.28571428571416,[1.67859614]
1.0765788759602157e-18,0.9336180054549006,-1.472562622219023e-17,0.9336180054549006,-2.2725364579240844e-18,-0.019193104714060782,-1.472562622219023e-17,-0.019193104714060782,2.25842806539638e-18,0.933815268336383,1.6544261232053118e-18,-0.9338152683363833,0.219775331571006,0.9504723074691386,0.21977533157100604,300.0,109.28571428571416,[1.67803327]
1.2740963713480779e-18,0.9431793316964046,-1.4696180039949415e-17,0.9431793316964046,-1.9578107784599084e-18,-0.015608339216046438,-1.4696180039949415e-17,-0.015608339216046438,2.5840063544972517e-18,0.9433084712819871,2.097395523719444e-18,-0.9433084712819874,0.2224671038671157,0.9492190344667327,0.2224671038671157,300.0,109.28571428571416,[1.67803327]
1.4282034281891572e-18,0.9480501056632163,-1.472530403534164e-17,0.9480501056632163,-1.799362677764151e-18,-0.013891837888508295,-1.472530403534164e-17,-0.013891837888508295,2.709896626282922e-18,0.9481518791881166,2.277861240615584e-18,-0.9481518791881166,0.22373870631344808,0.948621095377058,0.2237387063134481,300.0,109.28571428571416,[1.67803327]
1.5497526561201495e-18,0.9506920273892575,-1.476537390498463e-17,0.9506920273892575,-1.7299059760892985e-18,-0.013118582995255782,-1.476537390498463e-17,-0.013118582995255782,2.7370281503746614e-18,0.9507825346320266,2.3290114231196144e-18,-0.9507825346320266,0.22431140549994733,0.9483505610929307,0.22431140549994733,300.0,109.28571428571416,[1.67803327]
1.6886660594698547e-18,0.9520118622260945,-1.4825317616024815e-17,0.9520118622260945,-1.6886660594698547e-18,-0.012927386055864807,-1.4825317616024815e-17,-0.012927386055864807,2.7066408433919133e-18,0.9520996287833715,2.3039242172450818e-18,-0.9520996287833716,0.22445887771226705,0.9482807729951607,0.22445887771226708,300.0,109.28571428571416,[1.67803327]
1.786339546200116e-18,0.9523870503894144,-1.4889907600565712e-17,0.9523870503894144,-1.6973481471792113e-18,-0.013169028657859582,-1.4889907600565712e-17,-0.013169028657859582,2.636098880753391e-18,0.9524780926957014,2.223755824597964e-18,-0.9524780926957016,0.22429235859853533,0.9483595709163334,0.22429235859853536,300.0,109.28571428571416,[1.67803327]
1.8796719890756992e-18,0.9519525220201598,-1.4969191001122542e-17,0.9519525220201598,-1.7212238883799419e-18,-0.013798821094675368,-1.4969191001122542e-17,-0.013798821094675368,2.5416811769141383e-18,0.9520525256749997,2.107608297895777e-18,-0.9520525256749994,0.22384451621019405,0.9485711703004938,0.22384451621019408,300.0,109.28571428571416,[1.67803327]
1.9773454758059607e-18,0.9506845819452562,-1.505396005670667e-17,0.9506845819452562,-1.7754869365634203e-18,-0.014846385264374476,-1.505396005670667e-17,-0.014846385264374476,2.402767773564433e-18,0.950800499318256,1.93315774228144e-18,-0.9508004993182559,0.22309248607930363,0.948925437170862,0.22309248607930363,300.0,109.28571428571416,[1.67803327]
2.072848440608883e-18,0.9483933539669532,-1.5155046180451595e-17,0.9483933539669532,-1.8579667698023078e-18,-0.01642512559742315,-1.5155046180451595e-17,-0.01642512559742315,2.2291260193773015e-18,0.9485355758217918,1.7061355090668646e-18,-0.9485355758217919,0.22195019400680555,0.9494610169778867,0.22195019400680555,300.0,109.28571428571416,[1.67803327]
2.13145253264704e-18,0.9446179061399278,-1.5276171478318654e-17,0.9446179061399278,-1.983857041587978e-18,-0.018788756524097425,-1.5276171478318654e-17,-0.018788756524097425,2.0077327827887088e-18,0.9448047448927759,1.4008341008664116e-18,-0.9448047448927759,0.22022368005794826,0.9502647323159313,0.2202236800579483,300.0,109.28571428571416,[1.67803327]
2.1661808834844663e-18,0.9382916935201153,-1.5423892028746576e-17,0.9382916935201153,-2.1878861027578578e-18,-0.022498587117880085,-1.5423892028746576e-17,-0.022498587117880085,1.693007103324533e-18,0.9385613930644853,9.538487063917718e-19,-0.9385613930644854,0.21747634297215843,0.9515293376953293,0.21747634297215845,300.0,109.28571428571416,[1.67803327]
2.159669317702449e-18,0.9265675227704165,-1.5648625834238964e-17,0.9265675227704165,-2.5547043084781732e-18,-0.028962680554361683,-1.5648625834238964e-17,-0.028962680554361683,1.2024691477458861e-18,0.9270200705043017,2.2419165126275473e-19,-0.9270200705043016,0.21257630422306042,0.9537413851593782,0.21257630422306034,300.0,109.28571428571416,[1.67859614]
1.9599813003872476e-18,0.8988918039421289,-1.6046496917142403e-17,0.8988918039421289,-3.4359362109778663e-18,-0.04262596403658656,-1.6046496917142403e-17,-0.04262596403658656,1.9751749538786218e-19,0.899901910212654,-1.3108937922283333e-18,-0.899901910212654,0.20166620976569288,0.958468298733703,0.2016662097656929,300.0,109.28571428571416,[1.68275692]
6.576681439837608e-19,0.7705017437873705,-1.7159350428848242e-17,0.7705017437873705,-8.125348834994088e-18,-0.07374209502988308,-1.7159350428848242e-17,-0.07374209502988308,-3.0897379635672724e-18,0.7740225021010532,-6.228206826583313e-18,-0.774022502101053,0.16889371931592304,0.9710560350212898,0.16889371931592298,300.0,109.28571428571416,[1.65719636]
6.511565782017434e-20,0.7963862277096596,-1.545270867484245e-17,0.7963862277096596,-7.729228583254694e-18,-0.03743423857880635,-1.545270867484245e-17,-0.03743423857880635,-1.7092860177795766e-18,0.7972655429049954,-3.17123858838509e-18,-0.7972655429049953,0.046091294253413295,0.9978733312340253,0.046091294253413316,300.0,96.42857142857144,[1.69184903]
1.983857041587978e-18,0.9136368084447033,-1.548569043381647e-17,0.9136368084447033,-3.0843116587489245e-18,-0.019742414550620892,-1.548569043381647e-17,-0.019742414550620892,2.5872621373882604e-18,0.9138500865444573,1.9171972588031187e-18,-0.9138500865444574,0.06397239222560952,0.9958991244427647,0.06397239222560955,300.0,96.42857142857144,[1.67976431]
3.032219132492785e-18,0.9365445989504105,-1.590144712611726e-17,0.9365445989504105,-2.2247849755226232e-18,-0.01250528483424892,-1.590144712611726e-17,-0.01250528483424892,4.356237508169663e-18,0.936628084125162,3.9313441041781615e-18,-0.9366280841251619,0.06978228874128062,0.9951185177435187,0.06978228874128065,300.0,96.42857142857144,[1.67976431]
3.9850782585946695e-18,0.9459818248072169,-1.641642041058103e-17,0.9459818248072169,-1.8796719890756992e-18,-0.00893828417697541,-1.641642041058103e-17,-0.00893828417697541,5.552195090133532e-18,0.9460240513801011,5.2416873861267654e-18,-0.9460240513801013,0.07252838380079567,0.9947257245524966,0.0725283838007957,300.0,96.42857142857144,[1.67976431]
4.894526946149771e-18,0.9509641278844454,-1.696201840286335e-17,0.9509641278844454,-1.6995186691065504e-18,-0.006750002394049339,-1.696201840286335e-17,-0.006750002394049339,6.544123610927522e-18,0.9509880835506526,6.303284194078941e-18,-0.9509880835506527,0.0741814427621311,0.9944818887739774,0.07418144276213114,300.0,96.42857142857144,[1.6747435]
5.777929370576803e-18,0.9538534668093247,-1.751361924485097e-17,0.9538534668093247,-1.6061862262309672e-18,-0.005223105693549812,-1.751361924485097e-17,-0.005223105693549812,7.43620812306391e-18,0.9538677670291901,7.244346108998868e-18,-0.9538677670291901,0.07532208569941183,0.9943103976182595,0.07532208569941187,300.0,96.42857142857144,[1.6747435]
6.663502316931175e-18,0.9555221785973711,-1.8088909298811186e-17,0.9555221785973711,-1.5497526561201495e-18,-0.004068232139626988,-1.8088909298811186e-17,-0.004068232139626988,8.261006455452784e-18,0.9555308390126445,8.106951943661095e-18,-0.9555308390126445,0.07617850123685947,0.9941798991624261,0.07617850123685949,300.0,96.42857142857144,[1.6747435]
7.533881609794171e-18,0.9563419792555709,-1.865945133605535e-17,0.9563419792555709,-1.5345590026287752e-18,-0.003148299066099697,-1.865945133605535e-17,-0.003148299066099697,9.051076437004233e-18,0.9563471613768049,8.92820571268603e-18,-0.9563471613768046,0.0768572493768358,0.9940754128517886,0.07685724937683582,300.0,96.42857142857144,[1.6747435]
8.410772468439185e-18,0.9564606241784741,-1.9241303827405256e-17,0.9564606241784741,-1.5345590026287752e-18,-0.002392191676554248,-1.9241303827405256e-17,-0.002392191676554248,9.802077023863577e-18,0.9564636157141023,9.705822624028846e-18,-0.9564636157141022,0.0774131824550501,0.9939891339267056,0.07741318245505013,300.0,96.42857142857144,[1.6747435]
9.276810717447504e-18,0.9558865994917042,-1.9818425259241665e-17,0.9558865994917042,-1.5671168315388626e-18,-0.0017628836886737541,-1.9818425259241665e-17,-0.0017628836886737541,1.0518349259885495e-17,0.9558882250800629,1.0445246094550273e-17,-0.9558882250800631,0.07787483345841326,0.9939170089236067,0.0778748334584133,300.0,96.42857142857144,[1.6747435]
1.0138507922601145e-17,0.9544918177434655,-2.041231736440728e-17,0.9544918177434655,-1.632232489359037e-18,-0.001245618821038328,-2.041231736440728e-17,-0.001245618821038328,1.1197722623142647e-17,0.9544926305139668,1.1144444514857834e-17,-0.9544926305139668,0.0782537963795068,0.9938574780643297,0.07825379637950682,300.0,96.42857142857144,[1.67466929]
1.0998034605827446e-17,0.9519344152882617,-2.099077841524572e-17,0.9519344152882617,-1.7364175418713157e-18,-0.0008469580671330229,-2.099077841524572e-17,-0.0008469580671330229,1.1807639284724947e-17,0.9519347920672783,1.1770286832973462e-17,-0.9519347920672782,0.07854563579042309,0.993811433923235,0.07854563579042312,300.0,96.42857142857144,[1.67443029]
1.1842367635562373e-17,0.9473991253493611,-2.1586094925426153e-17,0.9473991253493611,-1.9252529495498213e-18,-0.0006064138564982938,-2.1586094925426153e-17,-0.0006064138564982938,1.2322052981504324e-17,0.9473993194268718,1.2294419024591806e-17,-0.9473993194268717,0.07872106320816354,0.9937836728457319,0.07872106320816355,300.0,96.42857142857144,[1.67443029]
1.2636778660968502e-17,0.9386615898586845,-2.21802922602378e-17,0.9386615898586845,-2.266024892142067e-18,-0.0006384148862482878,-2.21802922602378e-17,-0.0006384148862482878,1.2625926051331806e-17,0.9386618069622311,1.2595754953783056e-17,-0.9386618069622309,0.07869291929105143,0.9937881307939356,0.07869291929105145,300.0,96.42857142857144,[1.67443029]
1.335305089699042e-17,0.9171576449768737,-2.2798195764224607e-17,0.9171576449768737,-3.1255515753683686e-18,-0.0012554052197338676,-2.2798195764224607e-17,-0.0012554052197338676,1.2328564547286341e-17,0.917158504175691,1.2266154629212397e-17,-0.9171585041756909,0.07820896527721378,0.9938645357897299,0.07820896527721383,300.0,96.42857142857144,[1.67466929]
1.3292276283024923e-17,0.8040157802299364,-2.3423865666982673e-17,0.8040157802299364,-7.792173719147529e-18,-0.0004715431109467888,-2.3423865666982673e-17,-0.0004715431109467888,9.428747252361244e-18,0.8040159185063805,9.40127311342922e-18,-0.8040159185063805,0.07875872690616806,0.9937777044551962,0.0787587269061681,300.0,96.42857142857144,[1.67443029]
5.513125695441427e-19,0.7650885451604323,-1.6707548023036353e-17,0.7650885451604323,-8.130775139812436e-18,-0.07812051045406855,-1.6707548023036353e-17,-0.07812051045406855,-3.2492713252267e-18,0.7690665095356257,-6.677668693046305e-18,-0.769066509535626,0.31344015066218106,0.8963874965134991,0.3134401506621811,300.0,122.14285714285735,[1.68981505]
2.129282010719701e-18,0.8923345237980764,-1.4311179473786995e-17,0.8923345237980764,-3.47717612759731e-18,-0.04805186029045781,-1.4311179473786995e-17,-0.04805186029045781,-7.607679355323702e-19,0.8936273740431825,-2.313852650911537e-18,-0.8936273740431822,0.3434647906879979,0.8741074734352174,0.34346479068799785,300.0,122.14285714285735,[1.69032753]
2.5742390058242255e-18,0.9210479303981683,-1.2645736303219415e-17,0.9210479303981683,-2.61330840051633e-18,-0.03369450567567343,-1.2645736303219415e-17,-0.03369450567567343,-5.285220893070817e-19,0.9216640438920666,-1.4353226844502472e-18,-0.9216640438920666,0.35406363495159276,0.8656083899834442,0.35406363495159276,300.0,122.14285714285735,[1.67364243]
2.7999732862674966e-18,0.9328952053787285,-1.1184453612141531e-17,0.9328952053787285,-2.2768775017787627e-18,-0.027265076944701337,-1.1184453612141531e-17,-0.027265076944701337,-7.846436767331009e-19,0.9332935490184321,-1.4390519599538735e-18,-0.9332935490184316,0.35855188769742635,0.8619054981012849,0.35855188769742624,300.0,122.14285714285735,[1.67364243]
2.988808693946002e-18,0.9389207060768687,-9.797384118055834e-18,0.9389207060768687,-2.0999799647006224e-18,-0.023927416079914228,-9.797384118055834e-18,-0.023927416079914228,-1.2089807135279036e-18,0.9392255392290748,-1.7046050349646444e-18,-0.9392255392290748,0.3608284731232102,0.8600032709049108,0.3608284731232102,300.0,122.14285714285735,[1.67364243]
3.1342336630777252e-18,0.9421512300946447,-8.445780613118808e-18,0.9421512300946447,-1.9881980854426565e-18,-0.022130169714049366,-8.445780613118808e-18,-0.022130169714049366,-1.7136270616342549e-18,0.9424111017917949,-2.109258269866771e-18,-0.942411101791795,0.36204020335744613,0.8589841571913874,0.36204020335744613,300.0,122.14285714285735,[1.67246337]
3.251441847154039e-18,0.9437153722033557,-7.121516358004848e-18,0.9437153722033557,-1.936105559186517e-18,-0.021262431901345788,-7.121516358004848e-18,-0.021262431901345788,-2.2747069798514236e-18,0.9439548690182589,-2.591357058546323e-18,-0.9439548690182585,0.36262186860169354,0.8584933085491304,0.36262186860169343,300.0,122.14285714285735,[1.67246337]
3.368650031230353e-18,0.9440844373835724,-5.808986487060566e-18,0.9440844373835724,-1.923082427622482e-18,-0.02106208345693689,-5.808986487060566e-18,-0.02106208345693689,-2.8629184221603318e-18,0.9443193507862707,-3.117112053557675e-18,-0.9443193507862705,0.3627559631274551,0.85837999885304,0.36275596312745517,300.0,122.14285714285735,[1.67246337]
3.4424477767598838e-18,0.9434252683658397,-4.511785927228116e-18,0.9434252683658397,-1.920911905695143e-18,-0.021433947148042354,-4.511785927228116e-18,-0.021433947148042354,-3.484772954342997e-18,0.9436687189270936,-3.685521657767856e-18,-0.9436687189270937,0.3625073536664432,0.858590028520891,0.3625073536664432,300.0,122.14285714285735,[1.67246337]
3.52709813192611e-18,0.9417036565646546,-3.229575534456353e-18,0.9417036565646546,-1.9350202982228474e-18,-0.022394429602881082,-3.229575534456353e-18,-0.022394429602881082,-4.125076922908044e-18,0.9419698972177823,-4.275608787208871e-18,-0.9419698972177821,0.3618630599265435,0.8591334306853606,0.3618630599265435,300.0,122.14285714285735,[1.67246337]
3.590043267818945e-18,0.9386734214155441,-1.9635083985191737e-18,0.9386734214155441,-1.9990506950793522e-18,-0.024076782021601306,-1.9635083985191737e-18,-0.024076782021601306,-4.801194503274188e-18,0.9389821529211718,-4.8951566454089646e-18,-0.9389821529211719,0.3607276856061067,0.86008782904685,0.3607276856061067,300.0,122.14285714285735,[1.67364243]
3.620430574801693e-18,0.933742661680367,-7.180018706827661e-19,0.933742661680367,-2.0967241818096137e-18,-0.02680107241491677,-7.180018706827661e-19,-0.02680107241491677,-5.516381478332436e-18,0.9341272160281631,-5.549669311753576e-18,-0.9341272160281632,0.35887059587419873,0.8616401748025653,0.35887059587419873,300.0,122.14285714285735,[1.67364243]
3.616089530947015e-18,0.9255519244102524,4.759717185818941e-19,0.9255519244102524,-2.2801332846697714e-18,-0.031289269841898934,4.759717185818941e-19,-0.031289269841898934,-6.305366198920216e-18,0.9260806569553005,-6.272083842679486e-18,-0.9260806569553006,0.3557597395101649,0.8642164170433926,0.35575973951016493,300.0,122.14285714285735,[1.67364243]
3.5053929126527186e-18,0.9105173224373769,1.5842775205268877e-18,0.9105173224373769,-2.6350136197897216e-18,-0.03936093783665575,1.5842775205268877e-18,-0.03936093783665575,-7.249543237312743e-18,0.9113676963146716,-7.088953614733551e-18,-0.9113676963146718,0.34999423404042157,0.8689120049101158,0.3499942340404216,300.0,122.14285714285735,[1.68756525]
3.14725679464176e-18,0.8757658970342175,2.4625588697816036e-18,0.8757658970342175,-3.4804319104883184e-18,-0.056732930657464056,2.4625588697816036e-18,-0.056732930657464056,-8.596352093226682e-18,0.8776015792084312,-8.169275673815324e-18,-0.8776015792084312,0.33671178577397143,0.8793465452492587,0.33671178577397143,300.0,122.14285714285735,[1.69032753]
1.2871195029121128e-18,0.7315270693163011,2.440751907292868e-18,0.7315270693163011,-8.137286705594453e-18,-0.09509213500567602,2.440751907292868e-18,-0.09509213500567602,-1.1861902332908425e-17,0.737681752032971,-1.1220657050510562e-17,-0.737681752032971,0.29588511791977595,0.9082422551209565,0.29588511791977584,300.0,122.14285714285735,[1.6723298]
7.249543237312743e-19,0.7247592376715705,2.559367539181441e-18,0.7247592376715705,-8.01899326055447e-18,-0.09667701824104744,2.559367539181441e-18,-0.09667701824104744,-1.2122364964189123e-17,0.7311787732464994,-1.1135677694702178e-17,-0.7311787732464994,0.42949976285675295,0.7943927916415064,0.42949976285675273,300.0,135.00000000000023,[1.64363193]
2.042461133626135e-18,0.8675314156301847,2.964152921427634e-18,0.8675314156301847,-3.099505312240299e-18,-0.058740280196464885,2.964152921427634e-18,-0.058740280196464885,-9.984400865760065e-18,0.869517784535125,-9.580008493133478e-18,-0.8695177845351252,0.4650802719728912,0.7532600356073877,0.4650802719728912,300.0,135.00000000000023,[1.68687656]
1.844943638238273e-18,0.9035374480699014,2.465187236177991e-18,0.9035374480699014,-1.9795159977333e-18,-0.04116876164897449,2.465187236177991e-18,-0.04116876164897449,-9.725023495443037e-18,0.9044748680866591,-9.465346760007047e-18,-0.9044748680866596,0.4767234098196662,0.7385591249587408,0.4767234098196663,300.0,135.00000000000023,[1.67764683]
1.3392120291682522e-18,0.9186864046007799,1.7216986900515473e-18,0.9186864046007799,-1.3750256409693481e-18,-0.03315753145996371,1.7216986900515473e-18,-0.03315753145996371,-9.851999028192377e-18,0.9192845761192919,-9.716015393541254e-18,-0.919284576119292,0.48164023205905937,0.7321511959453394,0.4816402320590595,300.0,135.00000000000023,[1.67764683]
7.271248456586134e-19,0.9264631414423116,8.898122469937053e-19,0.9264631414423116,-9.46347560319867e-19,-0.028850130442675623,8.898122469937053e-19,-0.028850130442675623,-1.0109205876582066e-17,0.9269122301910341,-1.0042549019510134e-17,-0.9269122301910339,0.4841952569849274,0.7287728769833578,0.48419525698492727,300.0,135.00000000000023,[1.67764683]
9.116192094824407e-20,0.9306755063707565,1.3447061627968296e-20,0.9306755063707565,-5.665062230355167e-19,-0.026375812073461603,1.3447061627968296e-20,-0.026375812073461603,-1.0435869426646607e-17,0.9310491832449018,-1.0428310937642944e-17,-0.9310491832449018,0.4856347605319969,0.7268547026236124,0.48563476053199683,300.0,135.00000000000023,[1.67764683]
-6.164282273643171e-19,0.9327603434619055,-8.923558273773058e-19,0.9327603434619055,-2.5286580453501035e-19,-0.024994847297676807,-8.923558273773058e-19,-0.024994847297676807,-1.0800517110439584e-17,0.9330951723841501,-1.084266260554384e-17,-0.9330951723841499,0.48642706715800615,0.7257943349683306,0.4864270671580061,300.0,135.00000000000023,[1.67764683]
-1.3327004633862348e-18,0.9333225096470277,-1.8209661538221983e-18,0.9333225096470277,3.689887276476546e-20,-0.02438410629900668,-1.8209661538221983e-18,-0.02438410629900668,-1.1184699491578612e-17,0.9336409864898968,-1.1274108698609803e-17,-0.933640986489897,0.4867708340254301,0.7253332408516615,0.4867708340254301,300.0,135.00000000000023,[1.67764683]
-2.053313743262831e-18,0.9325794834739577,-2.756325446884911e-18,0.9325794834739577,2.908499382634454e-19,-0.024416782736823763,-2.756325446884911e-18,-0.024416782736823763,-1.1592757613918371e-17,0.9328990686434256,-1.1730513046161822e-17,-0.9328990686434254,0.48674220570170645,0.7253716636161598,0.48674220570170657,300.0,135.00000000000023,[1.67764683]
-2.8021438081948357e-18,0.9304932858033009,-3.708268884048699e-18,0.9304932858033009,5.230957844887339e-19,-0.02509284223086114,-3.708268884048699e-18,-0.02509284223086114,-1.2022520955531522e-17,0.9308315667489184,-1.2215321276709554e-17,-0.9308315667489184,0.4863395677129333,0.7259115991314602,0.4863395677129334,300.0,135.00000000000023,[1.67764683]
-3.570508570472893e-18,0.9267583581634751,-4.6814936104219455e-18,0.9267583581634751,7.412332381863179e-19,-0.026539023512457387,-4.6814936104219455e-18,-0.026539023512457387,-1.2472904255454396e-17,0.9271382713462185,-1.2733936554727029e-17,-0.9271382713462185,0.4854827820578957,0.7270577258035646,0.48548278205789586,300.0,135.00000000000023,[1.67764683]
-4.393136380934429e-18,0.9206359680745664,-5.679272366098216e-18,0.9206359680745664,8.920845121363884e-19,-0.02907839290865612,-5.679272366098216e-18,-0.02907839290865612,-1.2947163296577999e-17,0.9210950757911714,-1.3294078258989906e-17,-0.9210950757911718,0.48396609568242066,0.7290772499946955,0.48396609568242094,300.0,135.00000000000023,[1.67764683]
-5.27762406632513e-18,0.9104330087563051,-6.71912194131924e-18,0.9104330087563051,9.61541213811241e-19,-0.03345062610985274,-6.71912194131924e-18,-0.03345062610985274,-1.3486537995521777e-17,0.9110473137110933,-1.3969733330313232e-17,-0.9110473137110933,0.4813045214271712,0.7325925984525936,0.4813045214271714,300.0,135.00000000000023,[1.67764683]
-6.297769372174529e-18,0.8917232643760286,-7.850506495944769e-18,0.8917232643760286,8.888287292453797e-19,-0.0415264438613152,-7.850506495944769e-18,-0.0415264438613152,-1.4126841964086823e-17,0.8926896581506968,-1.4843093668698558e-17,-0.8926896581506968,0.4761995463664225,0.7392347286760999,0.4761995463664226,300.0,135.00000000000023,[1.67764683]
-7.685818144707911e-18,0.8489921800631502,-9.232213274721708e-18,0.8489921800631502,2.854236334450975e-19,-0.059162380277518904,-9.232213274721708e-18,-0.059162380277518904,-1.507536004633403e-17,0.8510510613638186,-1.628346061778555e-17,-0.8510510613638186,0.46403196919813705,0.7545519618450399,0.464031969198137,300.0,135.00000000000023,[1.68687656]
-1.0969817820772037e-17,0.6873354135398597,-1.1508446402803292e-17,0.6873354135398597,-4.108798008453001e-18,-0.0971638710985608,-1.1508446402803292e-17,-0.0971638710985608,-1.7520452997481575e-17,0.6941691354078394,-2.0864527796924798e-17,-0.6941691354078398,0.425092036175422,0.7991204674893939,0.42509203617542196,300.0,135.00000000000023,[1.62235513]
-1.1192296318324299e-17,0.6805620305457039,-1.2126875580069374e-17,0.6805620305457039,-4.0995732902618094e-18,-0.09563808362856784,-1.2126875580069374e-17,-0.09563808362856784,-1.667286418485564e-17,0.6872490963694577,-1.9564635775130893e-17,-0.6872490963694581,0.540545968427663,0.6446860569557868,0.540545968427663,300.0,147.8571428571427,[1.60024322]
-7.71403492976332e-18,0.8407383854814876,-1.1216884262032438e-17,0.8407383854814876,3.3426037681022827e-19,-0.05734388174584829,-1.1216884262032438e-17,-0.05734388174584829,-1.3141967639556687e-17,0.8426917310592886,-1.4602951646807572e-17,-0.8426917310592884,0.5717365184083767,0.5884171199383444,0.5717365184083767,300.0,147.8571428571427,[1.51589695]
-6.180561188098214e-18,0.8847104778949052,-1.1196162560507372e-17,0.8847104778949052,9.805332806754586e-19,-0.04003602756571718,-1.1196162560507372e-17,-0.04003602756571718,-1.1082142330511838e-17,0.8856158948439637,-1.2080067716851166e-17,-0.8856158948439637,0.5811052852557741,0.5697660001225161,0.5811052852557741,300.0,147.8571428571427,[1.50695721]
-5.039951915281494e-18,0.9035208189290582,-1.1416674022562983e-17,0.9035208189290582,1.088516746560581e-18,-0.03202809947871641,-1.1416674022562983e-17,-0.03202809947871641,-9.289833849011539e-18,0.9040883084049118,-1.0096668577813397e-17,-0.9040883084049118,0.5850212787330575,0.5616940509379427,0.5850212787330575,300.0,147.8571428571427,[1.50695721]
-4.0588760041242004e-18,0.9132957303130768,-1.1722310641456427e-17,0.9132957303130768,1.0635557443961809e-18,-0.02760330519327389,-1.1722310641456427e-17,-0.02760330519327389,-7.592485701832328e-18,0.9137127740519391,-8.294974627274583e-18,-0.913712774051939,0.5870860238929891,0.557368819632962,0.5870860238929891,300.0,147.8571428571427,[1.50747196]
-3.137489445968734e-18,0.9186853031505406,-1.2068712375297708e-17,0.9186853031505406,9.327817982739974e-19,-0.024942052411585956,-1.2068712375297708e-17,-0.024942052411585956,-5.943431667536413e-18,0.9190238256994769,-6.5917144233281434e-18,-0.9190238256994772,0.5882938242177442,0.5548159629773853,0.5882938242177445,300.0,147.8571428571427,[1.50747196]
-2.2768775017787627e-18,0.9214599632375533,-1.2441363858697749e-17,0.9214599632375533,7.737910670964052e-19,-0.023322321889403058,-1.2441363858697749e-17,-0.023322321889403058,-4.315540222032054e-18,0.9217550621222896,-4.944815506130974e-18,-0.9217550621222896,0.5890140106760964,0.5532856318887368,0.5890140106760965,300.0,147.8571428571427,[1.50747196]
-1.4379707768621833e-18,0.9223713325785309,-1.2835924047801868e-17,0.9223713325785309,5.73560419299369e-19,-0.022423990381246442,-1.2835924047801868e-17,-0.022423990381246442,-2.7109818872465916e-18,0.9226438698150617,-3.334123700776312e-18,-0.9226438698150616,0.58940429598397,0.5524537553056195,0.58940429598397,300.0,147.8571428571427,[1.50747196]
-6.359629247103694e-19,0.9216962052436309,-1.3242218621075664e-17,0.9216962052436309,3.5162455222894143e-19,-0.022113751821175826,-1.3242218621075664e-17,-0.022113751821175826,-1.1161909011341551e-18,0.9219614486409498,-1.7519543872196058e-18,-0.9219614486409495,0.5895287258899399,0.5521881587839135,0.5895287258899398,300.0,147.8571428571427,[1.50747196]
1.5953336165942713e-19,0.919400313255404,-1.366526691047611e-17,0.919400313255404,9.496033432108758e-20,-0.02237514754414993,-1.366526691047611e-17,-0.02237514754414993,4.6829010582342045e-19,0.9196725413111763,-1.9888362085221008e-19,-0.9196725413111763,0.5893943650585022,0.5524749450197448,0.5893943650585022,300.0,147.8571428571427,[1.50747196]
9.116192094824407e-19,0.915127405427799,-1.4097607746877974e-17,0.915127405427799,-1.9643223442419261e-19,-0.023303307305903586,-1.4097607746877974e-17,-0.023303307305903586,2.0283527410984306e-18,0.9154240614580811,1.3117970095173383e-18,-0.9154240614580812,0.5889536500431962,0.5534141272154088,0.5889536500431964,300.0,147.8571428571427,[1.50747196]
1.617038835867663e-18,0.9080051422058381,-1.4554299126152176e-17,0.9080051422058381,-5.165842187067164e-19,-0.025160309581181962,-1.4554299126152176e-17,-0.025160309581181962,3.575934875291241e-18,0.9083536643017771,2.7678568096874144e-18,-0.908353664301777,0.5880743147218398,0.5552811906852936,0.5880743147218399,300.0,147.8571428571427,[1.50747196]
2.2388933680503277e-18,0.8960321121333313,-1.5045786685074033e-17,0.8960321121333313,-9.246423410464756e-19,-0.028557031099502597,-1.5045786685074033e-17,-0.028557031099502597,5.085532875755616e-18,0.8964870606982217,4.121287156036623e-18,-0.8964870606982218,0.586436857483018,0.5587339477523136,0.5864368574830181,300.0,147.8571428571427,[1.50747196]
2.6892766679732e-18,0.8740009867425603,-1.5616566123154e-17,0.8740009867425603,-1.4982027603458446e-18,-0.03504482195098119,-1.5616566123154e-17,-0.03504482195098119,6.528929957436148e-18,0.8747033007669203,5.282300788374247e-18,-0.8747033007669203,0.583171175653156,0.5655287435441562,0.5831711756531559,300.0,147.8571428571427,[1.50695721]
2.636098880753391e-18,0.8239566123565262,-1.6388864956425358e-17,0.8239566123565262,-2.562843765705695e-18,-0.04945992463790914,-1.6388864956425358e-17,-0.04945992463790914,7.769383238910468e-18,0.8254397513999616,5.764748394155178e-18,-0.8254397513999616,0.5751067238304697,0.5818114062219543,0.5751067238304698,300.0,147.8571428571427,[1.50695721]
3.5813611801095886e-19,0.6467517415943078,-1.789554631804987e-17,0.6467517415943078,-7.43620812306391e-18,-0.07958616086967919,-1.789554631804987e-17,-0.07958616086967919,7.881707748650269e-18,0.6516300885143694,3.559512010765567e-18,-0.6516300885143695,0.5482949272113387,0.6314628616067819,0.5482949272113387,300.0,147.8571428571427,[1.55558002]
1.8232384189648815e-19,0.6413115137569778,-1.7156347944170434e-17,0.6413115137569778,-7.539307914612519e-18,-0.07526009020991266,-1.7156347944170434e-17,-0.07526009020991266,8.252866998225263e-18,0.6457124273666031,4.189284336351326e-18,-0.645712427366603,0.6356571767328756,0.4380409881917212,0.6356571767328756,300.0,160.7142857142859,[1.37001599]
2.590517920279269e-18,0.8173109655338695,-1.4553485180429423e-17,0.8173109655338695,-2.8786547061335406e-18,-0.044200109243671876,-1.4553485180429423e-17,-0.044200109243671876,8.393950923502307e-18,0.8185052620716976,6.776983091444025e-18,-0.8185052620716977,0.6538409152443291,0.38076779683281586,0.6538409152443291,300.0,160.7142857142859,[1.00317882]
2.7207492359196178e-18,0.868332450712347,-1.2669743462739965e-17,0.868332450712347,-2.0039343694158653e-18,-0.030591565727083617,-1.2669743462739965e-17,-0.030591565727083617,7.441091797400423e-18,0.8688711577982928,6.5456753995235054e-18,-0.8688711577982926,0.6587898331652439,0.36330691080162647,0.6587898331652436,300.0,160.7142857142859,[1.00317882]
2.3409078986352675e-18,0.8904260503156572,-1.0964120200712772e-17,0.8904260503156572,-1.6528524476687588e-18,-0.024181146938142842,-1.0964120200712772e-17,-0.024181146938142842,6.299397263620033e-18,0.8907543314225228,5.697143336857725e-18,-0.8907543314225227,0.66084039053196,0.3557807702548484,0.6608403905319601,300.0,160.7142857142859,[0.99768978]
1.796106894873142e-18,0.9020374055190166,-9.326325748914928e-18,0.9020374055190166,-1.4509939084262182e-18,-0.020523969542209006,-9.326325748914928e-18,-0.020523969542209006,5.108865986474512e-18,0.902270865251255,4.680706981567736e-18,-0.9022708652512549,0.6619412126851542,0.3516641322310474,0.661941212685154,300.0,160.7142857142859,[0.99828399]
1.149291360526077e-18,0.9085532938661103,-7.720953468406713e-18,0.9085532938661103,-1.3313438871816478e-18,-0.018211946704012206,-7.720953468406713e-18,-0.018211946704012206,3.884148988973399e-18,0.9087358047296854,3.573479230011013e-18,-0.9087358047296853,0.6626118378929328,0.349129065774106,0.6626118378929325,300.0,160.7142857142859,[0.99905038]
4.406159512498464e-19,0.912037056253329,-6.136472461449138e-18,0.912037056253329,-1.2537477282792734e-18,-0.016683729168799163,-6.136472461449138e-18,-0.016683729168799163,2.6507499037629304e-18,0.9121896397121687,2.4263029930617207e-18,-0.9121896397121687,0.6630432246702848,0.3474872147830202,0.6630432246702846,300.0,160.7142857142859,[0.99905038]
-3.0821411368215854e-19,0.9133712991481877,-4.561521402328786e-18,0.9133712991481877,-1.2013838867822165e-18,-0.015685556737661442,-4.561521402328786e-18,-0.015685556737661442,1.4013432193383352e-18,0.9135059752392533,1.2450104940820271e-18,-0.9135059752392531,0.6633178120367021,0.34643752751352497,0.6633178120367023,300.0,160.7142857142859,[0.99905038]
-1.0700673101781983e-18,0.9128891420741344,-2.999423902746895e-18,0.9128891420741344,-1.1905312771455208e-18,-0.015103975544354224,-2.999423902746895e-18,-0.015103975544354224,1.4298313196346615e-19,0.9130140830206802,4.409620723386267e-20,-0.9130140830206801,0.6634714794580832,0.3458485100320725,0.6634714794580832,300.0,160.7142857142859,[1.0165645]
-1.880757250039369e-18,0.9105668562698488,-1.4458728332539024e-18,0.9105668562698488,-1.2116938659370775e-18,-0.01490930862104472,-1.4458728332539024e-18,-0.01490930862104472,-1.1205319449888334e-18,0.9106889080365003,-1.168061967952883e-18,-0.9106889080365002,0.6635134209694379,0.34568754734133433,0.6635134209694379,300.0,160.7142857142859,[1.0165645]
-2.7207492359196178e-18,0.9060163071446444,9.74360858944588e-20,0.9060163071446444,-1.248592738701843e-18,-0.01514617868307525,9.74360858944588e-20,-0.01514617868307525,-2.3908299029640678e-18,0.9061429001767429,-2.387513731352001e-18,-0.9061429001767429,0.6634293964778332,0.3460099301726994,0.6634293964778332,300.0,160.7142857142859,[1.0165645]
-3.612833748056006e-18,0.8982713203096536,1.6269079277560331e-18,0.8982713203096536,-1.3327004633862348e-18,-0.015963709810224606,1.6269079277560331e-18,-0.015963709810224606,-3.6869028088264545e-18,0.8984131593658645,-3.628175556134246e-18,-0.8984131593658643,0.663171164542552,0.3469985778624336,0.663171164542552,300.0,160.7142857142859,[0.99905038]
-4.616157508968526e-18,0.885108678889152,3.1347423791544453e-18,0.885108678889152,-1.4900633031183228e-18,-0.017722927652686616,3.1347423791544453e-18,-0.017722927652686616,-4.994370954807372e-18,0.8852860981679779,-4.868753492030519e-18,-0.885286098167978,0.662617155060919,0.34910888221004643,0.6626171550609192,300.0,160.7142857142859,[0.99905038]
-5.805060894668542e-18,0.8607559535961191,4.5990816059932874e-18,0.8607559535961191,-1.836804181010751e-18,-0.021348486038948344,4.5990816059932874e-18,-0.021348486038948344,-6.339009288793973e-18,0.8610206556798272,-6.111719835456844e-18,-0.8610206556798274,0.661430571265196,0.3535805407422658,0.661430571265196,300.0,160.7142857142859,[0.99768978]
-7.575121526413615e-18,0.8055018660670703,5.934902194650072e-18,0.8055018660670703,-2.665672242013387e-18,-0.029698397082214154,5.934902194650072e-18,-0.029698397082214154,-7.813064992698168e-18,0.8060491616686821,-7.376776643139393e-18,-0.8060491616686822,0.6583683953321293,0.3648316215127117,0.6583683953321292,300.0,160.7142857142859,[1.00317882]
-1.1824460829661825e-17,0.6176875663047897,6.860629796660218e-18,0.6176875663047897,-7.314658895132917e-18,-0.04599312967888563,6.860629796660218e-18,-0.04599312967888563,-1.0157228674224445e-17,0.6193975278810792,-9.168801043561661e-18,-0.6193975278810793,0.6482421346220419,0.3994549659239664,0.6482421346220418,300.0,160.7142857142859,[0.9555752]
-1.2145155444426184e-17,0.6146464644339473,7.546328196471256e-18,0.6146464644339473,-7.20721805972963e-18,-0.0397312721103336,7.546328196471256e-18,-0.0397312721103336,-1.0335482787507172e-17,0.6159292574838908,-9.33242094974761e-18,-0.615929257483891,0.6960902019084141,0.17583191295725173,0.6960902019084141,300.0,173.57142857142813,[0.35089085]
-8.229533887506367e-18,0.8017472866329536,7.440633952931374e-18,0.8017472866329536,-2.372380466581685e-18,-0.022061968869392524,7.440633952931374e-18,-0.022061968869392524,-8.624568878282091e-18,0.8020507727654761,-8.212840591682264e-18,-0.8020507727654762,0.7002170158475889,0.13925610017157009,0.7002170158475889,300.0,173.57142857142813,[0.39297576]
-6.8214077871450975e-18,0.8574993761851981,6.945059708193199e-18,0.8574993761851981,-1.347351486395774e-18,-0.014852449582729244,6.945059708193199e-18,-0.014852449582729244,-7.768840608428633e-18,0.8576279936059754,-7.528452530092733e-18,-0.8576279936059756,0.7011841799641935,0.12915684858296433,0.7011841799641935,300.0,173.57142857142813,[0.39297576]
-6.021027826438787e-18,0.8818427479649855,6.360646679257135e-18,0.8818427479649855,-8.212712342569489e-19,-0.011313265784058819,6.360646679257135e-18,-0.011313265784058819,-7.030591837892407e-18,0.8819153145972336,-6.867191741974977e-18,-0.8819153145972335,0.7015872165640519,0.12470266680312897,0.7015872165640519,300.0,173.57142857142813,[0.39297576]
-5.402429077147131e-18,0.8947608881399474,5.738503874630994e-18,0.8947608881399474,-4.70731942991677e-19,-0.009151774075192074,5.738503874630994e-18,-0.009151774075192074,-6.322730374338929e-18,0.8948076899053288,-6.2053257422240515e-18,-0.894807689905329,0.7018141592700469,0.12212195419396975,0.701814159270047,300.0,173.57142857142813,[0.39297576]
-4.895612207113441e-18,0.90212582980603,5.1063902349011404e-18,0.90212582980603,-1.8232384189648815e-19,-0.007650252182140398,5.1063902349011404e-18,-0.007650252182140398,-5.630062564276824e-18,0.9021582672467556,-5.543416160142327e-18,-0.9021582672467555,0.701964013390415,0.12038707492767585,0.7019640133904149,300.0,173.57142857142813,[0.39297576]
-4.438717341408551e-18,0.9061951766537505,4.45826899595716e-18,0.9061951766537505,4.191820472173723e-20,-0.0065191755648241695,4.45826899595716e-18,-0.0065191755648241695,-4.945262896201324e-18,0.9062186258517132,-4.881056994489551e-18,-0.9062186258517131,0.7020729192664267,0.11911016776679638,0.7020729192664268,300.0,173.57142857142813,[0.39297576]
-4.0257755447322785e-18,0.907940819150292,3.811504333217767e-18,0.907940819150292,2.553076417032669e-19,-0.005621382491423001,3.811504333217767e-18,-0.005621382491423001,-4.2680600548715105e-18,0.907958220966371,-4.220892137302974e-18,-0.9079582209663708,0.7021570097976819,0.11811463577370691,0.7021570097976819,300.0,173.57142857142813,[0.39297576]
-3.653531034193615e-18,0.9077380725382843,3.1539548896519082e-18,0.9077380725382843,4.209455962833354e-19,-0.004885720018052349,3.1539548896519082e-18,-0.004885720018052349,-3.594655626914541e-18,0.907751220652231,-3.56072409516401e-18,-0.9077512206522311,0.7022243494738194,0.11731123566028152,0.7022243494738195,300.0,173.57142857142813,[0.39297576]
-3.3284953755745787e-18,0.9055784968732032,2.5002716882691212e-18,0.9055784968732032,5.7410304978120375e-19,-0.004275151482254295,2.5002716882691212e-18,-0.004275151482254295,-2.9291193409441757e-18,0.9055885881123539,-2.9055228165165752e-18,-0.9055885881123541,0.7022790582339921,0.116654398682407,0.7022790582339923,300.0,173.57142857142813,[0.39297576]
-3.029505980083611e-18,0.9010671996686647,1.835939363680327e-18,0.9010671996686647,6.94702674368985e-19,-0.003774938369422632,1.835939363680327e-18,-0.003774938369422632,-2.2747069798514236e-18,0.9010751070129626,-2.2593514890520996e-18,-0.9010751070129627,0.7023227999346272,0.11612652317180173,0.7023227999346271,300.0,173.57142857142813,[0.39297576]
-2.771213870730253e-18,0.8932025224878369,1.1755411100848349e-18,0.8932025224878369,7.724344908918181e-19,-0.0033917017951604488,1.1755411100848349e-18,-0.0033917017951604488,-1.6208372492405064e-18,0.8932089620126429,-1.6119257925300966e-18,-0.8932089620126427,0.7023549480946547,0.11573700261329917,0.7023549480946544,300.0,173.57142857142813,[0.39297576]
-2.6426104465354086e-18,0.8796698589183188,5.076138585538851e-19,0.8796698589183188,7.557486035753984e-19,-0.003165101700043887,5.076138585538851e-19,-0.003165101700043887,-9.88401422662063e-19,0.8796755530069859,-9.847699867021318e-19,-0.8796755530069859,0.7023712345830846,0.11553916072253116,0.7023712345830845,300.0,173.57142857142813,[0.39297576]
-2.745167607602183e-18,0.8544595929799835,-1.6143256834584888e-19,0.8544595929799835,5.88754072790743e-19,-0.003209951541555288,-1.6143256834584888e-19,-0.003209951541555288,-3.806552830071025e-19,0.8544656223771783,-3.818988316645823e-19,-0.8544656223771784,0.7023582646607405,0.11569674206954579,0.7023582646607405,300.0,173.57142857142813,[0.39297576]
-3.399037338213101e-18,0.7971365867912845,-8.562200287276206e-19,0.7971365867912845,-9.373941573695931e-20,-0.003839968548249391,-8.562200287276206e-19,-0.003839968548249391,1.330801256699813e-19,0.7971458356911303,1.2474071420908398e-19,-0.7971458356911304,0.7022711119661315,0.11675003467111413,0.7022711119661315,300.0,173.57142857142813,[0.39297576]
-6.6909051562638315e-18,0.6057591048712068,-1.5602830789082558e-18,0.6057591048712068,-4.572204439939908e-18,-0.003074423993432751,-1.5602830789082558e-18,-0.003074423993432751,-1.2426238034016603e-19,0.6057669066705916,-1.402685575729998e-19,-0.6057669066705915,0.7022497799230738,0.11700638100543277,0.7022497799230738,300.0,173.57142857142813,[0.34746599]
-6.170522524184271e-18,0.6057147051965814,-1.9757854131706857e-18,0.6057147051965814,-4.527166109947621e-18,0.0038870451982942885,-1.9757854131706857e-18,0.0038870451982942885,4.748016716054379e-19,0.6057271772107929,4.998654094883176e-19,-0.605727177210793,0.7021381227188628,0.11833897603774993,0.7021381227188628,300.0,173.57142857142813,[0.34746599]
-1.8544396716703817e-18,0.7970036616197621,-2.7245137348873466e-18,0.7970036616197621,3.967985398416874e-20,0.004672589311421024,-2.7245137348873466e-18,0.004672589311421024,1.923625058104317e-18,0.7970173584848588,1.9554420407893746e-18,-0.7970173584848588,0.7021844203268458,0.11778828337531211,0.7021844203268458,300.0,173.57142857142813,[0.39297576]
-1.7309912370529678e-19,0.8542385687154448,-3.4571157569719803e-18,0.8542385687154448,7.985485828301173e-19,0.004061932282953773,-3.4571157569719803e-18,0.004061932282953773,2.611544851450367e-18,0.8542482259711655,2.644378515111847e-18,-0.8542482259711655,0.7022762429271581,0.11668829093028397,0.7022762429271582,300.0,173.57142857142813,[0.39297576]
9.520451803791323e-19,0.8793612337990157,-4.174702176192091e-18,0.8793612337990157,1.0517535314162743e-18,0.0040359134562198504,-4.174702176192091e-18,0.0040359134562198504,3.1962291956273495e-18,0.8793704953578741,3.2345100502100172e-18,-0.8793704953578743,0.702289883314475,0.11652398717981763,0.7022898833144751,300.0,173.57142857142813,[0.39297576]
1.8617651831751513e-18,0.8928068645801222,-4.8855396287943825e-18,0.8928068645801222,1.1497661621976825e-18,0.00428083226386363,-4.8855396287943825e-18,0.00428083226386363,3.7575804290854354e-18,0.892817127392984,3.804398423042878e-18,-0.8928171273929841,0.7022729610228771,0.1167277877470556,0.7022729610228772,300.0,173.57142857142813,[0.39297576]
2.6398972941262346e-18,0.9005851447862111,-5.588915912271445e-18,0.9005851447862111,1.1593300244400206e-18,0.004681872020667585,-5.588915912271445e-18,0.004681872020667585,4.304416297154441e-18,0.9005973145280967,4.362511661947944e-18,-0.9005973145280964,0.7022395672449845,0.1171289050198711,0.7022395672449844,300.0,173.57142857142813,[0.39297576]
3.3800452713488833e-18,0.905010746436701,-6.2865521826828504e-18,0.905010746436701,1.1235164126389247e-18,0.005199366058886863,-6.2865521826828504e-18,0.005199366058886863,4.835108908388862e-18,0.9050256817203195,4.907294373292214e-18,-0.9050256817203196,0.7021942105201271,0.11767149792550015,0.7021942105201271,300.0,173.57142857142813,[0.39297576]
4.073255711892822e-18,0.9070853913929845,-6.989758894134339e-18,0.9070853913929845,1.0524318195185677e-18,0.005826686862304439,-6.989758894134339e-18,0.005826686862304439,5.363495340075485e-18,0.9071041051380788,5.453170939377274e-18,-0.9071041051380789,0.7021376006463835,0.11834517107630403,0.7021376006463836,300.0,173.57142857142813,[0.39297576]
4.7360788454540136e-18,0.9072040333572229,-7.682791284051426e-18,0.9072040333572229,9.74971318236652e-19,0.006578568093950448,-7.682791284051426e-18,0.006578568093950448,5.885980665272155e-18,0.9072278852073388,5.997389934229661e-18,-0.9072278852073388,0.7020680782342028,0.11916722304839837,0.7020680782342029,300.0,173.57142857142813,[0.39297576]
5.347080767999983e-18,0.9053751712795999,-8.377587223034477e-18,0.9053751712795999,8.527438022033665e-19,0.007492043632101747,-8.377587223034477e-18,0.007492043632101747,6.406634612592633e-18,0.9054061693446485,6.5452743285836186e-18,-0.9054061693446482,0.7019814635460201,0.12018340016647507,0.7019814635460202,300.0,173.57142857142813,[0.39297576]
5.930951166454213e-18,0.9012235467432945,-9.06669402055954e-18,0.9012235467432945,7.027064739760481e-19,0.00863826605165794,-9.06669402055954e-18,0.00863826605165794,6.920302192459487e-18,0.9012649448663486,7.093994502150328e-18,-0.9012649448663486,0.701869545585315,0.12148366951869062,0.701869545585315,300.0,173.57142857142813,[0.39297576]
6.448078015642765e-18,0.8937773240258675,-9.743973169300862e-18,0.8937773240258675,5.051211497779566e-19,0.010154399606730664,-9.743973169300862e-18,0.010154399606730664,7.417216056199692e-18,0.8938350053417098,7.638582670929417e-18,-0.8938350053417098,0.7017158786051877,0.12324630390684828,0.7017158786051877,300.0,173.57142857142813,[0.39297576]
6.858306659909863e-18,0.8807789523717842,-1.0404888617574353e-17,0.8807789523717842,2.4567595065069943e-19,0.01232997537872212,-1.0404888617574353e-17,0.01232997537872212,7.908500128690861e-18,0.8808652514624341,8.199485107417226e-18,-0.8808652514624341,0.701483602333053,0.1258630657329114,0.7014836023330528,300.0,173.57142857142813,[0.39297576]
7.070068205445888e-18,0.8563564506704885,-1.1036239183189126e-17,0.8563564506704885,-2.048430068926318e-19,0.015882729835630792,-1.1036239183189126e-17,0.015882729835630792,8.357391194788688e-18,0.8565037254513189,8.768916047138676e-18,-0.856503725451319,0.7010717018948791,0.13037230382422357,0.701071701894879,300.0,173.57142857142813,[0.39297576]
6.70976156550759e-18,0.8005263874532078,-1.1572722679096878e-17,0.8005263874532078,-1.1589908803888739e-18,0.023105344074392496,-1.1572722679096878e-17,0.023105344074392496,8.694500381628549e-18,0.800859759217355,9.361489007971555e-18,-0.800859759217355,0.7000840153569738,0.14058713626542682,0.7000840153569738,300.0,173.57142857142813,[0.39297576]
3.8353122456082685e-18,0.61334882176179,-1.1723022843963835e-17,0.61334882176179,-5.901479548409561e-18,0.040787399820479554,-1.1723022843963835e-17,0.040787399820479554,8.178662279834356e-18,0.6147034969322135,9.726699544848909e-18,-0.6147034969322134,0.6958589082157656,0.17765348213172064,0.6958589082157655,300.0,173.57142857142813,[0.35193747]
3.7673477777584616e-18,0.6163153750978798,-1.1176551555749812e-17,0.6163153750978798,-5.93746273223623e-18,0.04707832103561536,-1.1176551555749812e-17,0.04707832103561536,7.99091213311952e-18,0.6181108394888192,9.656160343954555e-18,-0.6181108394888192,0.6476998544582954,0.40121041495629983,0.6476998544582953,300.0,160.7142857142859,[0.9555752]
6.267924695673616e-18,0.8040587751428925,-1.0498344000168476e-17,0.8040587751428925,-1.2451334693801462e-18,0.03083387356692676,-1.0498344000168476e-17,0.03083387356692676,8.398461539382559e-18,0.8046497633401937,9.20944355127232e-18,-0.8046497633401939,0.6579868388920105,0.36620573410283835,0.6579868388920106,300.0,160.7142857142859,[1.00317882]
6.266975092330405e-18,0.859243500151413,-9.405117390597595e-18,0.859243500151413,-3.6349459401907738e-19,0.022533106368407694,-9.405117390597595e-18,0.022533106368407694,7.941566673677669e-18,0.8595389074585637,8.432743189714512e-18,-0.8595389074585635,0.6610745234978557,0.35490977552635355,0.6610745234978554,300.0,160.7142857142859,[0.99768978]
5.695313879717457e-18,0.8835284908629258,-8.185813980012913e-18,0.8835284908629258,7.952927999391085e-21,0.018955909455738003,-8.185813980012913e-18,0.018955909455738003,7.356339699018852e-18,0.8837318149019038,7.703808053459576e-18,-0.8837318149019038,0.6622632942808372,0.35044922327861694,0.6622632942808372,300.0,160.7142857142859,[0.99828399]
4.93630949325105e-18,0.8966250494077084,-6.926733211529357e-18,0.8966250494077084,2.165604338597517e-19,0.01724435562084082,-6.926733211529357e-18,0.01724435562084082,6.7273292273569915e-18,0.8967908602490066,6.99400508721003e-18,-0.8967908602490068,0.6628121200550788,0.3483678903346046,0.662812120055079,300.0,160.7142857142859,[0.99905038]
4.054941933130898e-18,0.9043056107737066,-5.6436537621265294e-18,0.9043056107737066,3.3956798121067477e-19,0.016473814658412345,-5.6436537621265294e-18,0.016473814658412345,6.0770883380933435e-18,0.9044556507901351,6.2824509145415075e-18,-0.904455650790135,0.663061824642788,0.34741622501367647,0.663061824642788,300.0,160.7142857142859,[0.99905038]
3.129892619223047e-18,0.908793390543817,-4.3439647328187905e-18,0.908793390543817,4.224547873109384e-19,0.01628327014261401,-4.3439647328187905e-18,0.01628327014261401,5.4196575949453854e-18,0.9089392562667009,5.57372629708863e-18,-0.908939256266701,0.6631353772911642,0.34713533782922557,0.6631353772911643,300.0,160.7142857142859,[0.99905038]
2.1695723239959337e-18,0.9110545576799337,-3.038993534914441e-18,0.9110545576799337,4.786509565859534e-19,0.016523603604155376,-3.038993534914441e-18,0.016523603604155376,4.7493054634487365e-18,0.9112043879094567,4.859781376514351e-18,-0.9112043879094567,0.663081542392184,0.34734095105185187,0.6630815423921839,300.0,160.7142857142859,[0.99905038]
1.163671068294699e-18,0.9114772383848863,-1.717357646196869e-18,0.9114772383848863,4.997457165672807e-19,0.017150197657513265,-1.717357646196869e-18,0.017150197657513265,4.0717634780677766e-18,0.911638571679276,4.1349828438134045e-18,-0.9116385716792759,0.6629146698945926,0.3479774143203638,0.6629146698945927,300.0,160.7142857142859,[0.99905038]
1.3497933235640306e-19,0.9100851508319587,-3.893204135139018e-19,0.9100851508319587,5.038663167887136e-19,0.018192735661129927,-3.893204135139018e-19,0.018192735661129927,3.384555887229135e-18,0.9102669703969627,3.4002141298281597e-18,-0.9102669703969627,0.6626253720888653,0.3490776883849578,0.6626253720888652,300.0,160.7142857142859,[0.99905038]
-9.44177038392528e-19,0.9065451634243387,9.500781448824812e-19,0.9065451634243387,4.728685505139015e-19,0.019764679810981702,9.500781448824812e-19,0.019764679810981702,2.686393943538453e-18,0.9067605945871775,2.642867740004364e-18,-0.9067605945871773,0.662177201971459,0.3507744380346139,0.6621772019714589,300.0,160.7142857142859,[0.99828399]
-2.049854473941134e-18,0.8999746571097746,2.3115592203091563e-18,0.8999746571097746,3.9846034569230646e-19,0.022119801826831226,2.3115592203091563e-18,0.022119801826831226,1.9762263004371765e-18,0.9002464490753159,1.8606629561971605e-18,-0.9002464490753159,0.6614864674185863,0.3533713441185627,0.6614864674185863,300.0,160.7142857142859,[0.99768978]
-3.2743679850115587e-18,0.888310279761232,3.7071157942748e-18,0.888310279761232,2.491352199723962e-19,0.025819468737362232,3.7071157942748e-18,0.025819468737362232,1.2328903691337488e-18,0.8886854325886961,1.0164054760532365e-18,-0.8886854325886964,0.6603593126775132,0.3575628005262356,0.6603593126775131,300.0,160.7142857142859,[0.99768978]
-4.6571939391572815e-18,0.8661652491418717,5.163264692278449e-18,0.8661652491418717,-7.048261242957152e-20,0.03227180133310067,5.163264692278449e-18,0.03227180133310067,4.321543071737352e-19,0.8667662360649978,4.072969931492119e-20,-0.8667662360649977,0.6582681782956378,0.36519311451160263,0.6582681782956378,300.0,160.7142857142859,[1.00317882]
-6.562844362550822e-18,0.8150939471579083,6.8093342589242735e-18,0.8150939471579083,-9.192414720319638e-19,0.04592177635722199,6.8093342589242735e-18,0.04592177635722199,-5.414773920608872e-19,0.8163865213471259,-1.353079243113745e-18,-0.8163865213471261,0.6532327969759484,0.38284961265483675,0.6532327969759484,300.0,160.7142857142859,[1.00317882]
-1.0742184333642344e-17,0.6390464386674057,9.159973472177132e-18,0.6390464386674057,-5.5365266349705525e-18,0.0770230559151312,9.159973472177132e-18,0.0770230559151312,-2.6239575237223378e-18,0.6436714238771204,-4.88567609978655e-18,-0.6436714238771204,0.6346844448593049,0.44085293569088535,0.6346844448593049,300.0,160.7142857142859,[1.37001599]
-1.1040698927461706e-17,0.6444421982061174,1.0213855132514352e-17,0.6444421982061174,-5.4776681848940355e-18,0.08140229501444059,1.0213855132514352e-17,0.08140229501444059,-4.481856464714416e-18,0.6495629919125246,-7.130044557505392e-18,-0.6495629919125246,0.5468591350474276,0.6339480837027264,0.5468591350474277,300.0,147.85714285714295,[1.55558002]
-7.984468396147732e-18,0.8216103180864964,9.576050231676192e-18,0.8216103180864964,-7.028930032041788e-19,0.05135020141820023,9.576050231676192e-18,0.05135020141820023,-5.638948138416868e-18,0.8232134340326835,-6.872617391288026e-18,-0.8232134340326838,0.5740917472989141,0.5838127536861106,0.5740917472989142,300.0,147.85714285714295,[1.51334786]
-7.162858017839636e-18,0.8716187926859895,9.669588280632783e-18,0.8716187926859895,2.5388323668845057e-19,0.037008020152331775,9.669588280632783e-18,0.037008020152331775,-7.925152101602166e-18,0.8724040997834532,-8.746691812646918e-18,-0.8724040997834533,0.5822266454349482,0.5674718201735962,0.5822266454349483,300.0,147.85714285714295,[1.50695721]
-6.842773862367342e-18,0.8936151035512216,9.964005590384228e-18,0.8936151035512216,6.908703465910268e-19,0.030592475877175583,9.964005590384228e-18,0.030592475877175583,-1.0410348836797815e-17,0.8941386094309741,-1.1090772113131591e-17,-0.8941386094309742,0.5855022763048862,0.560690796146676,0.5855022763048863,300.0,147.85714285714295,[1.50695721]
-6.69002338173085e-18,0.9055544421463235,1.033370864018961e-17,0.9055544421463235,9.812454831828667e-19,0.027267459617764254,1.033370864018961e-17,0.027267459617764254,-1.296868198662326e-17,0.905964879035024,-1.3588263804338318e-17,-0.905964879035024,0.5871303179553864,0.5572754969269812,0.5871303179553863,300.0,147.85714285714295,[1.50747196]
-6.626433872140836e-18,0.9126441312825979,1.0740825637787437e-17,0.9126441312825979,1.1741845338802479e-18,0.025481658654778194,1.0740825637787437e-17,0.025481658654778194,-1.5558267260761874e-17,0.912999794793168,-1.6147930902130538e-17,-0.9129997947931682,0.5879914159201466,0.555456739637249,0.5879914159201466,300.0,147.85714285714295,[1.50747196]
-6.606933089199898e-18,0.9168855673451132,1.1170995952261964e-17,0.9168855673451132,1.339869120767349e-18,0.02462420731724481,1.1170995952261964e-17,0.02462420731724481,-1.8172525264621415e-17,0.9172161660109205,-1.8762622941029262e-17,-0.9172161660109208,0.5884088065814251,0.5545720446207563,0.5884088065814254,300.0,147.85714285714295,[1.50747196]
-6.619956220763933e-18,0.9191510735303773,1.1625001734581148e-17,0.9191510735303773,1.466501270164903e-18,0.0244330280240066,1.1625001734581148e-17,0.0244330280240066,-2.078963207851059e-17,0.9194757576089038,-2.139681296002278e-17,-0.9194757576089037,0.5885162293215532,0.5543440228326469,0.5885162293215531,300.0,147.85714285714295,[1.50747196]
-6.644001533990237e-18,0.9197968861600863,1.2079022354452569e-17,0.9197968861600863,1.569100824238071e-18,0.024812986834299076,1.2079022354452569e-17,0.024812986834299076,-2.3427409722317156e-17,0.9201315102230929,-2.4063514090793176e-17,-0.9201315102230928,0.5883616871824038,0.5546720203072716,0.5883616871824038,300.0,147.85714285714295,[1.50747196]
-6.710202452774081e-18,0.9188572612003812,1.255661348587869e-17,0.9188572612003812,1.6437252333922721e-18,0.025780535299452862,1.255661348587869e-17,0.025780535299452862,-2.6079151622429694e-17,0.9192188544960292,-2.6772745825949327e-17,-0.9192188544960291,0.5879378492083679,0.5555701314293967,0.5879378492083678,300.0,147.85714285714295,[1.50747196]
-6.803704467675238e-18,0.9160553965359091,1.3046509187410478e-17,0.9160553965359091,1.6933801617807944e-18,0.027468970909829016,1.3046509187410478e-17,0.027468970909829016,-2.875670238483449e-17,0.9164671482848721,-2.951968839801278e-17,-0.9164671482848721,0.5871796027808999,0.557171632583829,0.5871796027808999,300.0,147.85714285714295,[1.50747196]
-6.953741795902555e-18,0.9106396676738938,1.3560819021324192e-17,0.9106396676738938,1.6854441909839607e-18,0.030198408870734,1.3560819021324192e-17,0.030198408870734,-3.1446462333080577e-17,0.9111402461967881,-3.2320461053858195e-17,-0.911140246196788,0.5859267715342851,0.5598032125656476,0.585926771534285,300.0,147.85714285714295,[1.50747196]
-7.162993675460095e-18,0.9008396555351605,1.4123269293473024e-17,0.9008396555351605,1.6198791672960169e-18,0.03469086545977651,1.4123269293473024e-17,0.03469086545977651,-3.418971377679378e-17,0.901507371645432,-3.5237724961294635e-17,-0.9015073716454323,0.5838042981846162,0.5642207749120334,0.5838042981846163,300.0,147.85714285714295,[1.50695721]
-7.512345962546353e-18,0.8820052962285635,1.4770470604178268e-17,0.8820052962285635,1.3612606317934298e-18,0.04276594923646194,1.4770470604178268e-17,0.04276594923646194,-3.702667920044011e-17,0.8830414876942824,-3.8396550775445115e-17,-0.8830414876942825,0.5798022176140271,0.5724148643245672,0.5798022176140271,300.0,147.85714285714295,[1.50695721]
-8.300855881462527e-18,0.8380103641427797,1.565044131473776e-17,0.8380103641427797,6.166571495988411e-19,0.06014054876736375,1.565044131473776e-17,0.06014054876736375,-4.0131737996517934e-17,0.8401656122555565,-4.225614593830541e-17,-0.8401656122555563,0.5702592209500184,0.5912772969114883,0.5702592209500184,300.0,147.85714285714295,[1.51589695]
-1.0982128749828664e-17,0.6778127324154143,1.7427359015266955e-17,0.6778127324154143,-3.9332125349227344e-18,0.09850153696276337,1.7427359015266955e-17,0.09850153696276337,-4.471331976947205e-17,0.6849325901199893,-4.921555518828883e-17,-0.684932590119989,0.5383981147857579,0.6482707304747638,0.5383981147857579,300.0,147.85714285714295,[1.60024322]
-9.855458297514074e-18,0.6845672399510203,1.711339429026754e-17,0.6845672399510203,-4.012642191351621e-18,0.10010301517987791,1.711339429026754e-17,0.10010301517987791,-4.435550583830968e-17,0.6918474684945087,-4.857529274281821e-17,-0.6918474684945086,0.42239384502118427,0.8019768571326977,0.42239384502118416,300.0,134.9999999999996,[1.61804157]
-5.527047558741001e-18,0.8462164270836241,1.45555438908024e-17,0.8462164270836241,3.8528036000461617e-19,0.06219756587481966,1.45555438908024e-17,0.06219756587481966,-3.845790948928575e-17,0.8484991329794784,-4.045134805328819e-17,-0.8484991329794788,0.4620033366773986,0.75703753790542,0.46200333667739873,300.0,134.9999999999996,[1.68687656]
-3.0896870919596004e-18,0.8889402097866221,1.2901812318163561e-17,0.8889402097866221,9.90082305365559e-19,0.0446564007819986,1.2901812318163561e-17,0.0446564007819986,-3.406827900998005e-17,0.8900611724518075,-3.53044639864692e-17,-0.8900611724518078,0.4742841476158936,0.7416933966542582,0.4742841476158937,300.0,134.9999999999996,[1.68131649]
-1.0191109164934004e-18,0.9076434492368827,1.1490096589985933e-17,0.9076434492368827,1.091058207293862e-18,0.03667465529492616,1.1490096589985933e-17,0.03667465529492616,-2.9982826830147864e-17,0.9083840934778786,-3.0870067632304186e-17,-0.9083840934778786,0.4794055731465535,0.7350786304008904,0.47940557314655347,300.0,134.9999999999996,[1.67764683]
9.065659631203543e-19,0.9178408441753101,1.0168698632016743e-17,0.9178408441753101,1.0059118539528332e-18,0.03239588792862896,1.0168698632016743e-17,0.03239588792862896,-2.600262800658907e-17,0.9184123849290853,-2.668988432351716e-17,-0.9184123849290853,0.48205194680331076,0.7316090767385791,0.48205194680331087,300.0,134.9999999999996,[1.67764683]
2.7774710784739103e-18,0.9239586705325489,8.89546813782425e-18,0.9239586705325489,8.625705010853434e-19,0.02994935780799817,8.89546813782425e-18,0.02994935780799817,-2.2080104868228415e-17,0.9244439349605722,-2.262839071422943e-17,-0.9244439349605721,0.4835389572666046,0.7296438539527688,0.4835389572666047,300.0,134.9999999999996,[1.67764683]
4.5919426237166485e-18,0.9276900755857025,7.64443780125479e-18,0.9276900755857025,6.64563366473638e-19,0.028595337407975513,7.64443780125479e-18,0.028595337407975513,-1.818064776464638e-17,0.9281306856589123,-1.8627574426237264e-17,-0.9281306856589122,0.48435783455398923,0.7285567762448857,0.48435783455398934,300.0,134.9999999999996,[1.67764683]
6.3928823213186325e-18,0.929773827493566,6.4151068549203424e-18,0.929773827493566,4.344021963377422e-19,0.02801069596798841,6.4151068549203424e-18,0.02801069596798841,-1.4308741875919377e-17,0.9301956618801476,-1.467320716199753e-17,-0.9301956618801481,0.48471690875384843,0.7280790044605232,0.48471690875384843,300.0,134.9999999999996,[1.67764683]
8.17423644996689e-18,0.9305155201728179,5.1995965585827035e-18,0.9305155201728179,1.8524683968730912e-19,0.028068624057322016,5.1995965585827035e-18,0.028068624057322016,-1.0456650478380624e-17,0.930938763259411,-1.0759987486122721e-17,-0.930938763259411,0.48469723881506155,0.7281051938903547,0.48469723881506155,300.0,134.9999999999996,[1.67764683]
9.937717687119716e-18,0.9299531698975503,4.002657048608249e-18,0.9299531698975503,-9.877358524616876e-20,0.028769082001730086,4.002657048608249e-18,0.028769082001730086,-6.6230169958255325e-18,0.930398064422817,-6.852868285062128e-18,-0.9303980644228173,0.48430028089905425,0.7286332931195185,0.48430028089905436,300.0,134.9999999999996,[1.67764683]
1.1655634921000977e-17,0.9278693383615,2.8191333354195477e-18,0.9278693383615,-4.045013491033578e-19,0.03023880080283803,2.8191333354195477e-18,0.03023880080283803,-2.814068960893283e-18,0.9283619413490629,-2.984940932712605e-18,-0.9283619413490632,0.48344858701028265,0.7297636106545203,0.48344858701028276,300.0,134.9999999999996,[1.67764683]
1.3361063175198761e-17,0.9236592142296636,1.6597248839176996e-18,0.9236592142296636,-7.615119327945734e-19,0.032800836223616146,1.6597248839176996e-18,0.032800836223616146,9.525411785539344e-19,0.9242414397160128,8.473806464512519e-19,-0.924241439716013,0.48194029164055363,0.7317561824725749,0.4819402916405535,300.0,134.9999999999996,[1.67764683]
1.5020384795643142e-17,0.915886010053552,5.515801753970007e-19,0.915886010053552,-1.1911025229066711e-18,0.037194849776409016,5.515801753970007e-19,0.037194849776409016,4.6585060027051555e-18,0.916640954933667,4.630442604911277e-18,-0.9166409549336668,0.47929953137470444,0.735216919315638,0.47929953137470444,300.0,134.9999999999996,[1.67764683]
1.6551628665171958e-17,0.9007419641794594,-4.62822997736419e-19,0.9007419641794594,-1.7777899366357386e-18,0.045291542337460855,-4.62822997736419e-19,0.045291542337460855,8.222293162014384e-18,0.9018799309448995,8.31845186367785e-18,-0.9018799309448994,0.4742595951468487,0.7417247958793708,0.4742595951468486,300.0,134.9999999999996,[1.68131649]
1.780775040180926e-17,0.8647424164230032,-1.2452821098588128e-18,0.8647424164230032,-2.894226717206975e-18,0.06294741411430017,-1.2452821098588128e-18,0.06294741411430017,1.1418308272959447e-17,0.8670304629623872,1.1615958351943883e-17,-0.8670304629623871,0.46237994889429795,0.7565775345072129,0.46237994889429795,300.0,134.9999999999996,[1.68687656]
1.7552095137453566e-17,0.7219789682669729,-1.1132951938411999e-18,0.7219789682669729,-7.804880492901354e-18,0.10096781574103436,-1.1132951938411999e-18,0.10096781574103436,1.2720668061669968e-17,0.7290048905428264,1.2836359448123053e-17,-0.7290048905428266,0.4259307177373803,0.7982268144928735,0.4259307177373803,300.0,134.9999999999996,[1.63608283]
1.7703344905663734e-17,0.7287556115397437,-1.654800406312533e-18,0.7287556115397437,-7.923966687160893e-18,0.09947341417003396,-1.654800406312533e-18,0.09947341417003396,1.3597582236468498e-17,0.7355132231831791,1.3924712727041532e-17,-0.7355132231831794,0.29177346442980684,0.9108987270324054,0.29177346442980684,300.0,122.14285714285755,[1.66961405]
1.7703675571113602e-17,0.87301741994093,-2.7111927924533985e-18,0.87301741994093,-3.224485724126252e-18,0.061222874216438274,-2.7111927924533985e-18,0.061222874216438274,1.464527027857165e-17,0.8751615027225772,1.498922640755214e-17,-0.8751615027225774,0.33339739977870253,0.8818686680235329,0.33339739977870264,300.0,122.14285714285755,[1.69032753]
1.6225872325444234e-17,0.9077922235160635,-2.873085324918615e-18,0.9077922235160635,-2.3372578607848007e-18,0.04395732637859151,-2.873085324918615e-18,0.04395732637859151,1.3782487812454341e-17,0.908855856348295,1.405668497961392e-17,-0.9088558563482951,0.34680557406201157,0.8714653106114078,0.3468055740620116,300.0,122.14285714285755,[1.68632574]
1.4490319600903343e-17,0.9228513950434888,-2.7985353684818924e-18,0.9228513950434888,-1.975840524078997e-18,0.03599035687813064,-2.7985353684818924e-18,0.03599035687813064,1.2510010853950489e-17,0.9235529238337827,1.272633208294484e-17,-0.9235529238337831,0.35258575950178533,0.8668140310315116,0.35258575950178533,300.0,122.14285714285755,[1.68281931]
1.2634862497079522e-17,0.9310681177504648,-2.6373007224846424e-18,0.9310681177504648,-1.7594435682501497e-18,0.031605131667142204,-2.6373007224846424e-18,0.031605131667142204,1.1081394093948995e-17,0.9316043818269057,1.12706718610923e-17,-0.9316043818269056,0.3556749160262188,0.8642862420630588,0.3556749160262188,300.0,122.14285714285755,[1.67364243]
1.0748458498588559e-17,0.9360263712680302,-2.430086886709463e-18,0.9360263712680302,-1.6297366011076289e-18,0.0289820041974713,-2.430086886709463e-18,0.0289820041974713,9.586707833483478e-18,0.936474945888302,9.740814789433818e-18,-0.9364749458883022,0.35749397728148335,0.8627839314770138,0.3574939772814834,300.0,122.14285714285755,[1.67364243]
8.8430539546321e-18,0.9390856654176915,-2.201600770238684e-18,0.9390856654176915,-1.5294702521238344e-18,0.027398896752808318,-2.201600770238684e-18,0.027398896752808318,8.046706628658958e-18,0.9394852774451868,8.176110459232298e-18,-0.9394852774451868,0.35858243161720366,0.8618800841596164,0.35858243161720355,300.0,122.14285714285755,[1.67364243]
6.908898473739678e-18,0.9408379450199744,-1.9565559454706655e-18,0.9408379450199744,-1.486999348581244e-18,0.026535625403561865,-1.9565559454706655e-18,0.026535625403561865,6.478488638779029e-18,0.9412120792918921,6.5889843504297044e-18,-0.9412120792918921,0.35917408842649134,0.8613872232660513,0.35917408842649134,300.0,122.14285714285755,[1.67364243]
4.96821023056204e-18,0.941529427956237,-1.6934929006821717e-18,0.941529427956237,-1.4354430938559803e-18,0.0262588219052432,-1.6934929006821717e-18,0.0262588219052432,4.87689463496562e-18,0.9418955300007802,4.972679844695683e-18,-0.9418955300007802,0.3593656059749065,0.861227451074672,0.3593656059749065,300.0,122.14285714285755,[1.67364243]
3.010162051266329e-18,0.9411943569086738,-1.4237742863680677e-18,0.9411943569086738,-1.450364902193857e-18,0.026551964268665,-1.4237742863680677e-18,0.026551964268665,3.2519664606081566e-18,0.9415688101691012,3.3338470099885376e-18,-0.9415688101691011,0.35917002332887304,0.8613906133014648,0.3591700233288731,300.0,122.14285714285755,[1.67364243]
1.0418038928157567e-18,0.9396659222590409,-1.1289835207259262e-18,0.9396659222590409,-1.466105955380285e-18,0.027510117977333857,-1.1289835207259262e-18,0.027510117977333857,1.599360952201639e-18,0.940068535823884,1.6666893069947744e-18,-0.940068535823884,0.3585213271118454,0.8619309229932073,0.3585213271118454,300.0,122.14285714285755,[1.67364243]
-9.64012726083973e-19,0.9364728545339104,-8.135539848774758e-19,0.9364728545339104,-1.538559577650857e-18,0.029395296328449574,-8.135539848774758e-19,0.029395296328449574,-1.0805235452051164e-19,0.9369340909184212,-5.965807810176381e-20,-0.9369340909184212,0.3572339578035373,0.8629993040460933,0.3572339578035374,300.0,122.14285714285755,[1.67364243]
-2.9779857594137818e-18,0.9304866049801118,-4.635725590807113e-19,0.9304866049801118,-1.6945835932497854e-18,0.0328183096461083,-4.635725590807113e-19,0.0328183096461083,-1.899032875095539e-18,0.9310651768246105,-1.8691771698642945e-18,-0.9310651768246103,0.3548657946633473,0.8649511752439569,0.3548657946633471,300.0,122.14285714285755,[1.67364243]
-5.0945074752090865e-18,0.9186804582710114,-4.372586900997836e-20,0.9186804582710114,-2.0100125991856558e-18,0.039330438772581716,-4.372586900997836e-20,0.039330438772581716,-3.8598599159603336e-18,0.9195219778901855,-3.866965371568461e-18,-0.9195219778901856,0.3502501378564741,0.8687057510245006,0.3502501378564741,300.0,122.14285714285755,[1.68756525]
-7.376552684467198e-18,0.8900102868878641,5.886988294042867e-19,0.8900102868878641,-2.8321306337453116e-18,0.0537678462426404,5.886988294042867e-19,0.0537678462426404,-6.305798607585428e-18,0.8916329357172661,-6.411654130979279e-18,-0.8916329357172661,0.3394141696983416,0.8772662325747929,0.33941416969834165,300.0,122.14285714285755,[1.69032753]
-1.0795417231770465e-17,0.7628105319358027,1.9512185334875987e-18,0.7628105319358027,-7.453212487840859e-18,0.08391422638470422,1.9512185334875987e-18,0.08391422638470422,-1.1010983549630292e-17,0.7674122132347945,-1.1650006359558818e-17,-0.7674122132347947,0.3084789149613261,0.899823048187012,0.3084789149613262,300.0,122.14285714285755,[1.69142907]
-1.1642429499509451e-17,0.7682673192011553,1.8145569936462498e-18,0.7682673192011553,-7.485560736325589e-18,0.07961850457771398,1.8145569936462498e-18,0.07961850457771398,-1.2059455862351722e-17,0.7723818874259812,-1.2263379870727158e-17,-0.7723818874259816,0.16349896044906725,0.972900909581314,0.16349896044906728,300.0,109.28571428571402,[1.65135598]
-1.0395646942180604e-17,0.8967169797654163,5.749372646601377e-19,0.8967169797654163,-2.9248296986097493e-18,0.04859906177737052,5.749372646601377e-19,0.04859906177737052,-8.96258315580845e-18,0.8980329674378611,-9.032200049302852e-18,-0.8980329674378611,0.19708106188737434,0.9603739428424167,0.19708106188737437,300.0,109.28571428571402,[1.66671532]
-1.026939632984059e-17,0.9244526689828862,4.3861394152292075e-20,0.9244526689828862,-2.1660415164759482e-18,0.035028763708395805,4.3861394152292075e-20,0.035028763708395805,-8.149640027657473e-18,0.9251160745963296,-8.162195104681997e-18,-0.9251160745963294,0.2081035385524707,0.9557122132126807,0.20810353855247068,300.0,109.28571428571402,[1.68003985]
-1.0275017642488347e-17,0.9362381447618519,-3.028336463019735e-19,0.9362381447618519,-1.920855470005382e-18,0.028654292687626925,-3.028336463019735e-19,0.028654292687626925,-7.845417215527248e-18,0.9366765355214914,-7.830363182063545e-18,-0.9366765355214913,0.21301572207145075,0.9535452817253917,0.21301572207145075,300.0,109.28571428571402,[1.67859614]
-1.0379401942130675e-17,0.9426272284161782,-5.796944223681957e-19,0.9426272284161782,-1.838461747560731e-18,0.02503071454695902,-5.796944223681957e-19,0.02503071454695902,-7.724331131191103e-18,0.9429595051868862,-7.694354467115263e-18,-0.9429595051868863,0.2157435412518913,0.9523179347340817,0.21574354125189127,300.0,109.28571428571402,[1.67803327]
-1.0509832504901072e-17,0.9464671735474188,-8.230339222149696e-19,0.9464671735474188,-1.8382789277206595e-18,0.02274988303564755,-8.230339222149696e-19,0.02274988303564755,-7.684369893626999e-18,0.9467405493486456,-7.643540524665398e-18,-0.9467405493486455,0.21743707991104677,0.9515472834071431,0.21743707991104677,300.0,109.28571428571402,[1.67803327]
-1.0628329436371744e-17,0.9488245385374183,-1.0506575397228614e-18,0.9488245385374183,-1.866045552039429e-18,0.021250389355268306,-1.0506575397228614e-18,0.021250389355268306,-7.705724310772485e-18,0.9490624763304553,-7.66064747107353e-18,-0.9490624763304553,0.21853971919203538,0.9510419455896425,0.21853971919203538,300.0,109.28571428571402,[1.67803327]
-1.07815610776308e-17,0.9501602509907623,-1.267830287568707e-18,0.9501602509907623,-1.9491635325026814e-18,0.020278415802099048,-1.267830287568707e-18,0.020278415802099048,-7.763438679588962e-18,0.9503766183520463,-7.710430351432208e-18,-0.9503766183520461,0.21924835846825913,0.9507156854801266,0.21924835846825913,300.0,109.28571428571402,[1.67803327]
-1.0932622196962518e-17,0.9506641745065326,-1.4715842578705372e-18,0.9506641745065326,-2.0420525710270192e-18,0.01972045389237044,-1.4715842578705372e-18,0.01972045389237044,-7.853436382599129e-18,0.9508686917718492,-7.795519832386096e-18,-0.9508686917718491,0.21965030645414815,0.9505301077552447,0.2196503064541481,300.0,109.28571428571402,[1.67803327]
-1.109671280680923e-17,0.9503599879361819,-1.6659802369673273e-18,0.9503599879361819,-2.1618056602683834e-18,0.01954677538252172,-1.6659802369673273e-18,0.01954677538252172,-7.969213272797087e-18,0.9505609833660934,-7.902799622263396e-18,-0.9505609833660936,0.2197686211564395,0.9504754106814097,0.2197686211564395,300.0,109.28571428571402,[1.67803327]
-1.1276011907699553e-17,0.9491127449820356,-1.8553682772276134e-18,0.9491127449820356,-2.3209035000261914e-18,0.01980195532385731,-1.8553682772276134e-18,0.01980195532385731,-8.134096101950774e-18,0.9493192930315817,-8.057978367738256e-18,-0.9493192930315815,0.2195698328756434,0.9505672921902601,0.2195698328756434,300.0,109.28571428571402,[1.67803327]
-1.145802204134873e-17,0.9465449956887265,-2.023841595305599e-18,0.9465449956887265,-2.5182610942930637e-18,0.02063507382729096,-2.023841595305599e-18,0.02063507382729096,-8.348903055083581e-18,0.946769895558171,-8.264598661042772e-18,-0.9467698955581709,0.21894037350707443,0.9508576264074265,0.21894037350707443,300.0,109.28571428571402,[1.67803327]
-1.1650893263235882e-17,0.9417499863948005,-2.1730706743703994e-18,0.9417499863948005,-2.796746184894876e-18,0.02240711595279173,-2.1730706743703994e-18,0.02240711595279173,-8.670877938641019e-18,0.9420165156301289,-8.569497165176601e-18,-0.9420165156301288,0.21760086459775826,0.951472399732444,0.21760086459775824,300.0,109.28571428571402,[1.67803327]
-1.1904547577689808e-17,0.932266097454856,-2.270887436214456e-18,0.932266097454856,-3.241009391954145e-18,0.026042696670699906,-2.270887436214456e-18,0.026042696670699906,-9.18602980364422e-18,0.9326297756953662,-9.061610068975724e-18,-0.9326297756953662,0.21481432348007098,0.9527379560275735,0.21481432348007098,300.0,109.28571428571402,[1.67803327]
-1.2290063218879908e-17,0.9088053262210786,-2.2529731452987166e-18,0.9088053262210786,-4.193179565463065e-18,0.03439978302033982,-2.2529731452987166e-18,0.03439978302033982,-1.0263891597960414e-17,0.9094561375017752,-1.0088319565961217e-17,-0.9094561375017751,0.20813033041517803,0.9557005446909286,0.20813033041517803,300.0,109.28571428571402,[1.68003985]
-1.3521011988320843e-17,0.7922137220276553,-1.826755713714079e-18,0.7922137220276553,-8.942953802827812e-18,0.05069875580589123,-1.826755713714079e-18,0.05069875580589123,-1.384273887279088e-17,0.793834331085004,-1.3581815090124413e-17,-0.7938343310850045,0.19044016501843417,0.9630498881654589,0.19044016501843417,300.0,109.28571428571402,[1.67894792]
-1.3363547405373411e-17,0.7952675767370498,-2.175456804478692e-18,0.7952675767370498,-8.950402187812048e-18,0.0444515641878104,-2.175456804478692e-18,0.0444515641878104,-1.359853183981171e-17,0.7965089203316953,-1.3348561522153016e-17,-0.7965089203316953,0.03983337395233749,0.9984120415134957,0.03983337395233749,300.0,96.42857142857196,[1.69539666]
-1.2020617509544461e-17,0.9126096187496593,-2.7430232501084774e-18,0.9126096187496593,-4.209552870596406e-18,0.0268075878093056,-2.7430232501084774e-18,0.0268075878093056,-9.246936365842116e-18,0.9130032656012529,-9.088470701970117e-18,-0.9130032656012528,0.05850519437781708,0.9965712641159326,0.05850519437781707,300.0,96.42857142857196,[1.68381195]
-1.156054528801039e-17,0.9356076292972385,-2.9276551924858656e-18,0.9356076292972385,-3.265218050733208e-18,0.019620725562268012,-2.9276551924858656e-18,0.019620725562268012,-7.419656833542789e-18,0.9358133408275331,-7.298454117165131e-18,-0.9358133408275331,0.06442110616878235,0.9958412735772612,0.06442110616878234,300.0,96.42857142857196,[1.67976431]
-1.120954391297543e-17,0.9451354531280787,-3.0235513524230862e-18,0.9451354531280787,-2.8314997065798482e-18,0.016101558062896128,-3.0235513524230862e-18,0.016101558062896128,-6.173807452267175e-18,0.9452725982126381,-6.0726830432206604e-18,-0.945272598212638,0.06719039250440398,0.9954752143123448,0.06719039250440396,300.0,96.42857142857196,[1.67976431]
-1.0891653595583992e-17,0.9502090907228947,-3.0809390963731166e-18,0.9502090907228947,-2.557315585193858e-18,0.013957426986412454,-3.0809390963731166e-18,0.013957426986412454,-5.122492158554492e-18,0.9503115940892821,-5.033395604175339e-18,-0.9503115940892822,0.06884217552994089,0.9952494711059182,0.0688421755299409,300.0,96.42857142857196,[1.67976431]
-1.059816681232288e-17,0.9531905676813286,-3.124320985879657e-18,0.9531905676813286,-2.3658837383519053e-18,0.012470588256635266,-3.124320985879657e-18,0.012470588256635266,-4.179701371471026e-18,0.9532721405181838,-4.0990213138228566e-18,-0.9532721405181842,0.06997194591775305,0.9950918819732008,0.06997194591775305,300.0,96.42857142857196,[1.67976431]
-1.0310119051782035e-17,0.954952210401854,-3.1608114285234515e-18,0.954952210401854,-2.2175920084019053e-18,0.011351496936376593,-3.1608114285234515e-18,0.011351496936376593,-3.290629942264045e-18,0.9550196755219671,-3.2165467237494513e-18,-0.9550196755219672,0.07081332516475097,0.9949728367941623,0.07081332516475097,300.0,96.42857142857196,[1.67976431]
-1.0026954965577703e-17,0.9558656964197679,-3.192020563678578e-18,0.9558656964197679,-2.1070144879599452e-18,0.010462974280302455,-3.192020563678578e-18,0.010462974280302455,-2.450666571663111e-18,0.9559229589369838,-2.3818593679017483e-18,-0.9559229589369838,0.07147518483413129,0.9948781814402473,0.07147518483413128,300.0,96.42857142857196,[1.67976431]
-9.74270985771034e-18,0.9560787304792269,-3.2143875112861405e-18,0.9560787304792269,-2.0211279792229177e-18,0.009733854360664705,-3.2143875112861405e-18,0.009733854360664705,-1.6421773587463352e-18,0.9561282794664557,-1.5775322655089264e-18,-0.9561282794664558,0.07201330785036561,0.9948005664377645,0.0720133078503656,300.0,96.42857142857196,[1.67976431]
-9.461718413083666e-18,0.9555997422221387,-3.237026535883954e-18,0.9555997422221387,-1.968614503661107e-18,0.009127091799287933,-3.237026535883954e-18,0.009127091799287933,-8.643457082280646e-19,0.9556433284127144,-8.034001166719585e-19,-0.9556433284127142,0.07245630701663047,0.9947362299358679,0.07245630701663044,300.0,96.42857142857196,[1.67976431]
-9.206236960054187e-18,0.9543005853623727,-3.255469513956769e-18,0.9543005853623727,-1.925870098988207e-18,0.008627943677206519,-3.255469513956769e-18,0.008627943677206519,-1.353502711623448e-19,0.9543395876914387,-7.722130893484404e-20,-0.9543395876914383,0.07281502695459315,0.9946838410767532,0.07281502695459315,300.0,96.42857142857196,[1.67976431]
-8.94207553896567e-18,0.9518393383667576,-3.273947135064496e-18,0.9518393383667576,-1.9409171654121614e-18,0.008243030863954441,-3.273947135064496e-18,0.008243030863954441,5.334126525071337e-19,0.951875030463711,5.895485768172381e-19,-0.9518750304637107,0.07308298323509384,0.994644537069861,0.07308298323509382,300.0,96.42857142857196,[1.67788597]
-8.71481299064192e-18,0.9474006834720833,-3.2885761667019688e-18,0.9474006834720833,-2.0284073883332346e-18,0.008012016651047449,-3.2885761667019688e-18,0.008012016651047449,1.1047734046872681e-18,0.947434561040596,1.1597949116333378e-18,-0.9474345610405961,0.07322593274879224,0.9946235094477403,0.07322593274879224,300.0,96.42857142857196,[1.67788597]
-8.498409410905823e-18,0.9387602357761,-3.2907420518942336e-18,0.9387602357761,-2.2851997788463558e-18,0.008049719547120545,-3.2907420518942336e-18,0.008049719547120545,1.4579961732572386e-18,0.9387947476734124,1.5136657813073782e-18,-0.9387947476734126,0.07314294820560949,0.9946357213852636,0.0731429482056095,300.0,96.42857142857196,[1.67788597]
-8.37425089343132e-18,0.9173539015814158,-3.2859898621166124e-18,0.9173539015814158,-3.0615627104103145e-18,0.008669855331040583,-3.2859898621166124e-18,0.008669855331040583,1.2238230349787927e-18,0.9173948698014979,1.2852413449371539e-18,-0.9173948698014978,0.07252679878728581,0.9947259556859552,0.07252679878728581,300.0,96.42857142857196,[1.67976431]
-9.023894041304822e-18,0.8043106661976198,-3.2586171946814747e-18,0.8043106661976198,-7.62657352083878e-18,0.007891650266722915,-3.2586171946814747e-18,0.007891650266722915,-1.6258300855684824e-18,0.8043493804953119,-1.5625018029062488e-18,-0.804349380495312,0.07227307022841253,0.9947628896573888,0.07227307022841253,300.0,96.42857142857196,[1.67976431]
-8.356227506763191e-18,0.8043516691380312,-3.61990089405853e-18,0.8043516691380312,-7.47554850180157e-18,0.0009301984443494827,-3.61990089405853e-18,0.0009301984443494827,-1.1557250291588467e-18,0.8043522070052911,-1.1473622637355537e-18,-0.8043522070052911,0.0799833839231727,0.993582063340717,0.07998338392317268,300.0,83.57142857142804,[1.66289036]
-6.3690850071797296e-18,0.917488250285753,-3.736592247771744e-18,0.917488250285753,-2.6144545351876176e-18,0.00015759491080468666,-3.736592247771744e-18,0.00015759491080468666,2.6316974268646023e-18,0.9174882638206161,2.6329808135665107e-18,-0.9174882638206161,0.07929153358655026,0.9936929633458143,0.07929153358655026,300.0,83.57142857142804,[1.66289036]
-5.151386171887034e-18,0.9389860681092915,-3.8734460465209946e-18,0.9389860681092915,-1.5512311122181173e-18,0.0007787454958436729,-3.8734460465209946e-18,0.0007787454958436729,3.802013068998878e-18,0.9389863910344464,3.808431758732762e-18,-0.9389863910344464,0.07975356253488068,0.9936190107510974,0.07975356253488068,300.0,83.57142857142804,[1.66289036]
-4.015088267820517e-18,0.9477172088552563,-4.0229509450836416e-18,0.9477172088552563,-9.960452791492176e-19,0.000812861138758226,-4.0229509450836416e-18,0.000812861138758226,4.386288320664164e-18,0.9477175574524448,4.39318309021597e-18,-0.9477175574524447,0.07977348602597316,0.9936158119990482,0.07977348602597317,300.0,83.57142857142804,[1.66289036]
-2.9341365532508278e-18,0.9522459851707825,-4.182172718146078e-18,0.9522459851707825,-6.154504061762256e-19,0.0005736480608579326,-4.182172718146078e-18,0.0005736480608579326,4.746728498572601e-18,0.9522461579581046,4.751764529712068e-18,-0.9522461579581049,0.07959411976000577,0.9936445804206149,0.0795941197600058,300.0,83.57142857142804,[1.66289036]
-1.8586069041988473e-18,0.9547968053146814,-4.349348048479093e-18,0.9547968053146814,-3.045834838799312e-19,0.00017592100771410296,-4.349348048479093e-18,0.00017592100771410296,5.016548856102049e-18,0.9547968215213765,5.018151354419111e-18,-0.9547968215213763,0.07930030395845675,0.9936915636072358,0.07930030395845676,300.0,83.57142857142804,[1.66289036]
-7.83624124929341e-19,0.9561849600653305,-4.513980758895059e-18,0.9561849600653305,-4.11962650706731e-20,-0.0003406546997406005,-4.513980758895059e-18,-0.0003406546997406005,5.223967238133076e-18,0.9561850207469064,5.22075013504627e-18,-0.9561850207469063,0.07892050229569891,0.9937520357890035,0.07892050229569891,300.0,83.57142857142804,[1.66289036]
2.810465555349849e-19,0.9567523275215412,-4.677376024078312e-18,0.9567523275215412,2.0021435298520367e-19,-0.0009694504114639193,-4.677376024078312e-18,-0.0009694504114639193,5.385534934186804e-18,0.9567528186799278,5.376050774167259e-18,-0.9567528186799278,0.0784588136235868,0.9938251501796271,0.07845881362358682,300.0,83.57142857142804,[1.66289036]
1.3544035630093066e-18,0.9566270050187127,-4.852692732571951e-18,0.9566270050187127,3.896680361663272e-19,-0.0017251956161704086,-4.852692732571951e-18,-0.0017251956161704086,5.5154938747610754e-18,0.9566285606393872,5.497977108647931e-18,-0.9566285606393873,0.07790352478722806,0.9939125120710832,0.07790352478722806,300.0,83.57142857142804,[1.66320357]
2.3892338062733584e-18,0.9558005132807781,-5.026551850275458e-18,0.9558005132807781,5.812925062310797e-19,-0.0026449168188863712,-5.026551850275458e-18,-0.0026449168188863712,5.6076048691399505e-18,0.9558041728161569,5.5797635452076604e-18,-0.955804172816157,0.07722612324672233,0.9940182351328191,0.07722612324672233,300.0,83.57142857142804,[1.66320357]
3.441428224956124e-18,0.9541251007135017,-5.20741485566726e-18,0.9541251007135017,7.360181035310669e-19,-0.0037997560530391205,-5.20741485566726e-18,-0.0037997560530391205,5.661052911775517e-18,0.9541326668538355,5.619543769845464e-18,-0.9541326668538355,0.07637192340477886,0.99415021934862,0.07637192340477886,300.0,83.57142857142804,[1.66320357]
4.47896738132871e-18,0.9512290504632342,-5.398248894879994e-18,0.9512290504632342,8.377013062754138e-19,-0.005326864083911154,-5.398248894879994e-18,-0.005326864083911154,5.6506072750001974e-18,0.9512439655136609,5.590124968494473e-18,-0.951243965513661,0.07523477478336463,0.9943236180070312,0.07523477478336463,300.0,83.57142857142804,[1.66320357]
5.492628676850246e-18,0.9462400150145357,-5.604362135346222e-18,0.9462400150145357,8.588040149454399e-19,-0.007515756177176985,-5.604362135346222e-18,-0.007515756177176985,5.537196974384147e-18,0.9462698624629355,5.448104668393985e-18,-0.9462698624629354,0.07358745514260598,0.9945701447817896,0.07358745514260599,300.0,83.57142857142804,[1.66320357]
6.493813710590222e-18,0.9367959988875513,-5.839947490650146e-18,0.9367959988875513,7.239001951316748e-19,-0.011084152606956003,-5.839947490650146e-18,-0.011084152606956003,5.221792476905098e-18,0.9368615703350947,5.084145639979906e-18,-0.9368615703350949,0.07085201350887199,0.9949673282894654,0.07085201350887199,300.0,83.57142857142804,[1.66822438]
7.353370068920998e-18,0.9138812245505328,-6.171561616514415e-18,0.9138812245505328,5.898178722949259e-20,-0.01832472614273467,-6.171561616514415e-18,-0.01832472614273467,4.332828619951839e-18,0.9140649255792436,4.08694615895425e-18,-0.9140649255792433,0.06506833265667648,0.9957571110318821,0.0650683326566765,300.0,83.57142857142804,[1.66822438]
7.376192343912854e-18,0.7966229035466317,-6.891835686100793e-18,0.7966229035466317,-4.376811496563077e-18,-0.036027095141836454,-6.891835686100793e-18,-0.036027095141836454,9.17240522130198e-19,0.7974371461371889,2.9584333411128856e-19,-0.797437146137189,0.04734477576691851,0.9977559543371118,0.04734477576691851,300.0,83.57142857142804,[1.6803091]
6.321602720368866e-18,0.7936372246234261,-5.549427820402134e-18,0.7936372246234261,-4.309627722421633e-18,-0.042323753193398254,-5.549427820402134e-18,-0.042323753193398254,-7.538896702450503e-19,0.7947649617291582,-1.3223403518449299e-18,-0.7947649617291581,0.1976686115471236,0.9601324075449515,0.1976686115471236,300.0,70.71428571428592,[1.60817314]
4.463640189867197e-18,0.9103030010984567,-1.5871585889848228e-18,0.9103030010984567,2.5809193487629464e-19,-0.02607034094645476,-1.5871585889848228e-18,-0.02607034094645476,-9.43062102324383e-19,0.9106762413096772,-1.0346809263301912e-18,-0.9106762413096772,0.21434013220856968,0.9529515283841179,0.21434013220856968,300.0,70.71428571428592,[1.6194911]
1.7526498240193266e-18,0.9338348895012158,1.9633724097033526e-18,0.9338348895012158,1.0614493418910116e-18,-0.01776278021512191,1.9633724097033526e-18,-0.01776278021512191,-3.653838913402547e-18,0.9340038100622069,-3.57759995561792e-18,-0.9340038100622068,0.2208072877780432,0.9499938333106216,0.2208072877780432,300.0,70.71428571428592,[1.6194911]
-1.12653903399477e-18,0.9433878453657876,5.387792163060032e-18,0.9433878453657876,1.3293659884771084e-18,-0.014180905578377609,5.387792163060032e-18,-0.014180905578377609,-6.915927764112274e-18,0.9434944222765316,-6.753047170682586e-18,-0.9434944222765317,0.22348463568444094,0.9487408683228448,0.22348463568444096,300.0,70.71428571428592,[1.6194911]
-4.017670001909871e-18,0.9482500888718632,8.764273308635467e-18,0.9482500888718632,1.438157306090314e-18,-0.012466779567793832,8.764273308635467e-18,-0.012466779567793832,-1.0385300928970309e-17,0.9483320365980937,-1.0153941733198758e-17,-0.9483320365980937,0.2247483925582112,0.9481436178580757,0.2247483925582112,300.0,70.71428571428592,[1.6194911]
-6.925626754062491e-18,0.9508832782261321,1.2128714376721686e-17,0.9508832782261321,1.471659174261523e-18,-0.01169576987662494,1.2128714376721686e-17,-0.01169576987662494,-1.39402735224252e-17,0.9509552039097755,-1.3640956904260557e-17,-0.9509552039097754,0.22531624402328776,0.9478740319042804,0.22531624402328776,300.0,70.71428571428592,[1.6194911]
-9.843346615587496e-18,0.9521941611273205,1.5470703446231265e-17,0.9521941611273205,1.4654138895509137e-18,-0.011506857966305394,1.5470703446231265e-17,-0.011506857966305394,-1.756443362196435e-17,0.9522636863102668,-1.718999243590308e-17,-0.9522636863102669,0.22546054165269588,0.9478054063547782,0.22546054165269588,300.0,70.71428571428592,[1.6194911]
-1.2787104261639295e-17,0.952560168354957,1.8803772828478467e-17,0.952560168354957,1.411010679490047e-18,-0.011750921370021702,1.8803772828478467e-17,-0.011750921370021702,-2.1229151110720007e-17,0.9526326461388297,-2.076385450920033e-17,-0.9526326461388297,0.22529195415752368,0.9478855789512618,0.22529195415752368,300.0,70.71428571428592,[1.6194911]
-1.5744978778820073e-17,0.9521162238540519,2.2126429693486598e-17,0.9521162238540519,1.3395148742076747e-18,-0.012383336271603448,2.2126429693486598e-17,-0.012383336271603448,-2.4917067112399266e-17,0.9521967500171983,-2.4339988010495863e-17,-0.9521967500171986,0.22484292260162206,0.9480987924852144,0.224842922601622,300.0,70.71428571428592,[1.6194911]
-1.8694709599472692e-17,0.9508386276056522,2.5442405155730845e-17,0.9508386276056522,1.2495712222806593e-18,-0.013433777017528886,2.5442405155730845e-17,-0.013433777017528886,-2.8637677660434224e-17,0.9509335213946121,-2.791721014649546e-17,-0.950933521394612,0.2240905704584847,0.9484549712364746,0.22409057045848474,300.0,70.71428571428592,[1.6194911]
-2.165801042147182e-17,0.9485374990811859,2.874523799112428e-17,0.9485374990811859,1.1215077790047502e-18,-0.015015694248858824,2.874523799112428e-17,-0.015015694248858824,-3.2404954429906976e-17,0.9486563435918016,-3.149180784579348e-17,-0.9486563435918016,0.22294902899174213,0.9489928666450971,0.22294902899174207,300.0,70.71428571428592,[1.6194911]
-2.4633791744553148e-17,0.9447519021149718,3.202777245890494e-17,0.9447519021149718,9.405383936625293e-19,-0.017382845813298506,3.202777245890494e-17,-0.017382845813298506,-3.622025399702211e-17,0.9449118053439833,-3.5037352137567065e-17,-0.9449118053439837,0.22122489339923435,0.9497995015165016,0.22122489339923437,300.0,70.71428571428592,[1.6194911]
-2.765758738667558e-17,0.9384152874330979,3.528027532352212e-17,0.9384152874330979,6.960815069019284e-19,-0.021096583174516906,3.528027532352212e-17,-0.021096583174516906,-4.0120202859478306e-17,0.9386523943983648,-3.852656602424984e-17,-0.9386523943983647,0.21848290100913384,0.9510680543122382,0.21848290100913378,300.0,70.71428571428592,[1.6194911]
-3.0724801945946065e-17,0.9266804571382219,3.8461743870474955e-17,0.9266804571382219,2.830032577363276e-19,-0.02756501181420743,3.8461743870474955e-17,-0.02756501181420743,-4.420776515120372e-17,0.9270903405376522,-4.1907696716628816e-17,-0.9270903405376525,0.21359484370876125,0.9532861508917769,0.21359484370876122,300.0,70.71428571428592,[1.62005396]
-3.396130873694773e-17,0.8989938164228902,4.1461277928799407e-17,0.8989938164228902,-6.492372348372848e-19,-0.04123310166647032,4.1461277928799407e-17,-0.04123310166647032,-4.880784193302209e-17,0.8999389149490263,-4.497853302467438e-17,-0.8999389149490266,0.20271738626078525,0.9580246983325594,0.20271738626078523,300.0,70.71428571428592,[1.62421475]
-3.830261542826566e-17,0.7705925668425927,4.37545270797347e-17,0.7705925668425927,-5.3777187236330314e-18,-0.0723545536163874,4.37545270797347e-17,-0.0723545536163874,-5.568018385752363e-17,0.7739819671685394,-4.731276349409886e-17,-0.7739819671685397,0.1701264854807514,0.9706255497749559,0.1701264854807513,300.0,70.71428571428592,[1.59752883]
-3.913233134939616e-17,0.7651665119770619,4.404336335019446e-17,0.7651665119770619,-5.384719398726312e-18,-0.07673899736646314,4.404336335019446e-17,-0.07673899736646314,-5.587334441167942e-17,0.7690049835780995,-4.6941552390161715e-17,-0.7690049835780997,0.31457897516772776,0.8955892678928463,0.3145789751677277,300.0,57.857142857142705,[1.5963722]
-3.5964547861058743e-17,0.8923977081581,4.272717973201165e-17,0.8923977081581,-6.747864399653926e-19,-0.0466770783345497,4.272717973201165e-17,-0.0466770783345497,-4.986090010921013e-17,0.8936176023152625,-4.536747727621987e-17,-0.8936176023152627,0.34441625130423487,0.873358398182027,0.34441625130423487,300.0,57.857142857142705,[1.59973766]
-3.3930039655432e-17,0.9210957049896676,4.068300671579609e-17,0.9210957049896676,2.366674367921141e-19,-0.03232703063344326,4.068300671579609e-17,-0.03232703063344326,-4.60973878387051e-17,0.9216628096326706,-4.323953953706367e-17,-0.9216628096326707,0.35497193967144464,0.8648640610476218,0.35497193967144464,300.0,57.857142857142705,[1.58705434]
-3.209034427138522e-17,0.9329269320005845,3.8430717687638045e-17,0.9329269320005845,6.305874914996935e-19,-0.0259055216637163,3.8430717687638045e-17,-0.0259055216637163,-4.2816614270427506e-17,0.9332865350494954,-4.067818571412272e-17,-0.9332865350494954,0.359439556658424,0.8611657274987153,0.3594395566584239,300.0,57.857142857142705,[1.58360212]
-3.031874053420743e-17,0.9389357359896039,3.610439351311467e-17,0.9389357359896039,8.627368936354372e-19,-0.022576430906882942,3.610439351311467e-17,-0.022576430906882942,-3.9715790535688374e-17,0.9392071185584319,-3.7974572484491364e-17,-0.9392071185584318,0.3617027944631423,0.8592683963437198,0.36170279446314224,300.0,57.857142857142705,[1.58242306]
-2.8572911744916794e-17,0.9421489044188788,3.37391525587222e-17,0.9421489044188788,1.0275979963733476e-18,-0.02078844281427611,3.37391525587222e-17,-0.02078844281427611,-3.669568308512217e-17,0.9423782242031786,-3.5204320363651266e-17,-0.9423782242031784,0.3629043497528088,0.8582545460765016,0.3629043497528087,300.0,57.857142857142705,[1.58242306]
-2.6868322872245604e-17,0.943695022354315,3.1354325770419727e-17,0.943695022354315,1.1350112763224796e-18,-0.019930689444089576,3.1354325770419727e-17,-0.019930689444089576,-3.37211587146804e-17,0.943905465392604,-3.239420899504977e-17,-0.9439054653926039,0.3634774689926708,0.8577693507402584,0.36347746899267075,300.0,57.857142857142705,[1.58242306]
-2.513959542173404e-17,0.9440453855754057,2.8950947802519513e-17,0.9440453855754057,1.2032173843087286e-18,-0.019741089640784262,2.8950947802519513e-17,-0.019741089640784262,-3.0781292746615514e-17,0.944251767616255,-2.9568096684778115e-17,-0.9442517676162551,0.3636039742822729,0.8576621128231516,0.3636039742822729,300.0,57.857142857142705,[1.58242306]
-2.3484657238150726e-17,0.9433668281740231,2.6538870259794815e-17,0.9433668281740231,1.2661339049222483e-18,-0.02012450404889804,2.6538870259794815e-17,-0.02012450404889804,-2.7871612718753005e-17,0.9435814581488612,-2.673735602480237e-17,-0.9435814581488613,0.36334844992469684,0.8578786673385927,0.3633484499246968,300.0,57.857142857142705,[1.58242306]
-2.180638594384852e-17,0.9416251335722405,2.410715640898686e-17,0.9416251335722405,1.289983150493983e-18,-0.02109737682248534,2.410715640898686e-17,-0.02109737682248534,-2.498160092620669e-17,0.9418614502588639,-2.3899311118434578e-17,-0.9418614502588637,0.36269787432741785,0.858429090791281,0.36269787432741774,300.0,57.857142857142705,[1.58242306]
-2.0155534446081526e-17,0.9385741139496266,2.1661163666278615e-17,0.9385741139496266,1.2898209972445285e-18,-0.022792996117964988,2.1661163666278615e-17,-0.022792996117964988,-2.2132559854689217e-17,0.9388508337581426,-2.1081033916075898e-17,-0.9388508337581427,0.36155704484943146,0.859391067349139,0.36155704484943146,300.0,57.857142857142705,[1.58360212]
-1.851604427402795e-17,0.9336218616476779,1.9187954878422133e-17,0.9336218616476779,1.2301051486137062e-18,-0.02553146609693056,1.9187954878422133e-17,-0.02553146609693056,-1.93197372481839e-17,0.9339708969274871,-1.8276274861678174e-17,-0.9339708969274869,0.35969588630650223,0.8609516471604892,0.3596958863065021,300.0,57.857142857142705,[1.58360212]
-1.6928392270192152e-17,0.9254089182506039,1.6673081713969695e-17,0.9254089182506039,1.116058422989176e-18,-0.0300347909092887,1.6673081713969695e-17,-0.0300347909092887,-1.65796334851954e-17,0.9258961899925489,-1.549840235959684e-17,-0.9258961899925487,0.3565837127436843,0.8635369775590731,0.3565837127436843,300.0,57.857142857142705,[1.58705434]
-1.5438939426365893e-17,0.9103513921955898,1.4072658667746622e-17,0.9103513921955898,8.153128972083646e-19,-0.038122567850525986,1.4072658667746622e-17,-0.038122567850525986,-1.3991459898169683e-17,0.9111492673826644,-1.2812807492624471e-17,-0.9111492673826646,0.35082337116797657,0.8682430100407791,0.3508233711679766,300.0,57.857142857142705,[1.60097717]
-1.4218376943491328e-17,0.8755763215790087,1.1234359719092934e-17,0.8755763215790087,2.1895987802161488e-20,-0.055511683323408355,1.1234359719092934e-17,-0.055511683323408355,-1.1811412262293954e-17,0.8773342817280226,-1.0388585826880779e-17,-0.8773342817280229,0.33756650430644586,0.878690907168529,0.33756650430644586,300.0,57.857142857142705,[1.59973766]
-1.4484198050780144e-17,0.731313125703571,7.501483284570639e-18,0.731313125703571,-4.577495087137797e-18,-0.09388905425720391,7.501483284570639e-18,-0.09388905425720391,-1.1549427722083736e-17,0.737315429335125,-1.0223135317436327e-17,-0.7373154293351248,0.2968999033132885,0.9075796906195731,0.2968999033132886,300.0,57.857142857142705,[1.58378018]
-1.389837757403182e-17,0.7245180198198283,5.807610834003102e-18,0.7245180198198283,-4.610099548354917e-18,-0.09549229497229143,5.807610834003102e-18,-0.09549229497229143,-9.843210957967037e-18,0.7307839211714502,-8.610762721861767e-18,-0.7307839211714504,0.4303773705360158,0.7934422712844394,0.43037737053601577,300.0,45.00000000000011,[1.55058352]
-1.1894137974969923e-17,0.8672597967648377,6.2937097118997864e-18,0.8672597967648377,-8.785102714892401e-20,-0.05757397611252383,6.2937097118997864e-18,-0.05757397611252383,-7.30368758507832e-18,0.8691687510547029,-6.497331233031797e-18,-0.8691687510547031,0.46578171366020066,0.7523927102514576,0.46578171366020055,300.0,45.00000000000011,[1.59016916]
-1.1387694163392494e-17,0.9032344158721918,5.8761947696588315e-18,0.9032344158721918,6.642327010237699e-19,-0.04002178312281792,5.8761947696588315e-18,-0.04002178312281792,-6.64302649484319e-18,0.9041206518713689,-6.121754124407834e-18,-0.9041206518713689,0.47737690260844906,0.7377144337153277,0.47737690260844895,300.0,45.00000000000011,[1.57397585]
-1.1195382529189735e-17,0.9183509553645293,5.2115802666212316e-18,0.9183509553645293,8.834490567340645e-19,-0.032030796156580124,5.2115802666212316e-18,-0.032030796156580124,-6.365636336109631e-18,0.9189093802554028,-6.006393206948415e-18,-0.9189093802554027,0.48226744565476243,0.7313249768217012,0.48226744565476243,300.0,45.00000000000011,[1.57397585]
-1.1103372748113624e-17,0.9260942827962307,4.4643685547082925e-18,0.9260942827962307,9.333710610628649e-19,-0.027744564790573804,4.4643685547082925e-18,-0.027744564790573804,-6.2233696459542125e-18,0.9265097848934375,-5.9675187393132964e-18,-0.9265097848934377,0.4848031465253112,0.7279641599957483,0.48480314652531126,300.0,45.00000000000011,[1.57397585]
-1.1063591150914111e-17,0.9302722601440433,3.663318784500968e-18,0.9302722601440433,9.35541582990204e-19,-0.02529234850833559,3.663318784500968e-18,-0.02529234850833559,-6.152149395213396e-18,0.9306160222597576,-5.9558195113473936e-18,-0.9306160222597578,0.48622626840133204,0.7260633800385691,0.48622626840133215,300.0,45.00000000000011,[1.57397585]
-1.1062471975545327e-17,0.9323217487125406,2.8413954928144317e-18,0.9323217487125406,8.81197988094578e-19,-0.023934421274744357,2.8413954928144317e-18,-0.023934421274744357,-6.103685710304527e-18,0.9326289185116268,-5.9579508959573134e-18,-0.9326289185116268,0.48700362459673713,0.7250206474710088,0.48700362459673713,300.0,45.00000000000011,[1.57397585]
-1.1085669428643764e-17,0.9328476258374402,2.002415110049244e-18,0.9328476258374402,7.737613919919298e-19,-0.023347653078491175,2.002415110049244e-18,-0.023347653078491175,-6.094325334492877e-18,0.9331397569146983,-5.993441256972009e-18,-0.9331397569146983,0.4873332027809462,0.7245776003538407,0.4873332027809462,300.0,45.00000000000011,[1.57397585]
-1.1125891913109767e-17,0.9320673938162463,1.1447998214987024e-18,0.9320673938162463,6.62996944887404e-19,-0.023405233942454168,1.1447998214987024e-18,-0.023405233942454168,-6.105084679515507e-18,0.9323612130453041,-6.049285216817079e-18,-0.9323612130453038,0.48729084133921285,0.724634578179819,0.48729084133921274,300.0,45.00000000000011,[1.57397585]
-1.1163977790053546e-17,0.9299431007595693,2.7585765155243974e-19,0.9299431007595693,5.186233223142362e-19,-0.024107122189985782,2.7585765155243974e-19,-0.024107122189985782,-6.1256113732111635e-18,0.9302555154314354,-6.110938461859131e-18,-0.9302555154314356,0.48687482285416606,0.7251936387899779,0.48687482285416606,300.0,45.00000000000011,[1.57397585]
-1.1254393594089268e-17,0.9261692191057754,-6.18122357882311e-19,0.9261692191057754,3.427644138927328e-19,-0.025580045385286687,-6.18122357882311e-19,-0.025580045385286687,-6.1753892413182265e-18,0.9265224018559484,-6.2123526775672845e-18,-0.9265224018559484,0.48600507225539635,0.7263595111816556,0.48600507225539635,300.0,45.00000000000011,[1.57397585]
-1.1375094961892393e-17,0.9200070510917807,-1.5302010015715396e-18,0.9200070510917807,1.2352474202892187e-19,-0.02814705461964236,-1.5302010015715396e-18,-0.02814705461964236,-6.259988724876782e-18,0.9204375213681567,-6.3585391980524565e-18,-0.9204375213681566,0.48447611911043037,0.7283994645957615,0.4844761191104305,300.0,45.00000000000011,[1.57397585]
-1.1562879023012343e-17,0.9097635286176141,-2.4908885262165347e-18,0.9097635286176141,-1.7174254750070982e-19,-0.03254780609288956,-2.4908885262165347e-18,-0.03254780609288956,-6.393823446060565e-18,0.9103455594905889,-6.579427613660655e-18,-0.9103455594905887,0.4818037026596776,0.7319360519928294,0.4818037026596776,300.0,45.00000000000011,[1.57397585]
-1.1889712145102458e-17,0.8910124786103868,-3.5438809932446545e-18,0.8910124786103868,-6.324866981861153e-19,-0.04065299664178511,-3.5438809932446545e-18,-0.04065299664178511,-6.632640208276821e-18,0.891939405551399,-6.972762566134089e-18,-0.8919394055513987,0.47669128456260235,0.7386005946681279,0.47669128456260235,300.0,45.00000000000011,[1.57397585]
-1.259526742910814e-17,0.8482393931748771,-4.842431240418152e-18,0.8482393931748771,-1.600590349387046e-18,-0.05831913190636426,-4.842431240418152e-18,-0.05831913190636426,-7.1783738581796e-18,0.8502418416427147,-7.857421220859281e-18,-0.8502418416427144,0.4645268102439776,0.7539427598492547,0.4645268102439776,300.0,45.00000000000011,[1.59986986]
-1.5165301048698145e-17,0.686539981312535,-7.037041933815154e-18,0.686539981312535,-6.38882107130615e-18,-0.09635161446802654,-7.037041933815154e-18,-0.09635161446802654,-9.218079446390167e-18,0.6932681873209037,-1.1629937907598915e-17,-0.6932681873209033,0.42565660565304275,0.798519197094134,0.4256566056530429,300.0,45.00000000000011,[1.53736203]
-1.5363089859326924e-17,0.6797210821639623,-7.439754298048713e-18,0.6797210821639623,-6.4122220108352754e-18,-0.094854965214912,-7.439754298048713e-18,-0.094854965214912,-8.286459216491347e-18,0.6863076671319286,-1.0432771538530613e-17,-0.6863076671319286,0.5409830920941907,0.6439523182165093,0.5409830920941907,300.0,32.14285714285738,[1.5086242]
-1.2564405320453787e-17,0.8398489839124844,-6.192301931218851e-18,0.8398489839124844,-1.7033764326883446e-18,-0.05658784410070785,-6.192301931218851e-18,-0.05658784410070785,-4.972309634280276e-18,0.8417532298000396,-5.8568286493621876e-18,-0.8417532298000396,0.5720792471214904,0.5877505168230966,0.5720792471214904,300.0,32.14285714285738,[1.46942598]
-1.1679103689340332e-17,0.8837719896868049,-5.8322252733402364e-18,0.8837719896868049,-7.6422720485406695e-19,-0.03930752943713611,-5.8322252733402364e-18,-0.03930752943713611,-3.129536517969343e-18,0.8846456983591936,-3.679348778874077e-18,-0.8846456983591936,0.5814172226024207,0.5691291826313025,0.5814172226024207,300.0,32.14285714285738,[1.46737132]
-1.1192092831893611e-17,0.9025326777475,-5.709476323328313e-18,0.9025326777475,-3.562877829322091e-19,-0.03132755954644711,-5.709476323328313e-18,-0.03132755954644711,-1.5578412417399992e-18,0.9030762151608298,-1.9700068316828895e-18,-0.9030762151608299,0.5853136321217978,0.5610845783879441,0.5853136321217979,300.0,32.14285714285738,[1.46737132]
-1.0877502810049894e-17,0.9122574407715502,-5.6724810064740024e-18,0.9122574407715502,-1.2419455152993668e-19,-0.02693109898822368,-5.6724810064740024e-18,-0.02693109898822368,-8.107238542662852e-20,0.9126548758078119,-4.235956080144113e-19,-0.9126548758078122,0.5873624857774647,0.556785973784034,0.5873624857774649,300.0,32.14285714285738,[1.46864665]
-1.0614055711119105e-17,0.9175964445778981,-5.687194559167972e-18,0.9175964445778981,5.1465109761518005e-20,-0.02429850927503819,-5.687194559167972e-18,-0.02429850927503819,1.3527777912141219e-18,0.9179181078151739,1.0457326537300567e-18,-0.917918107815174,0.5885560087778573,0.5542595502677039,0.5885560087778574,300.0,32.14285714285738,[1.46864665]
-1.0400327130086429e-17,0.9203201933796534,-5.722259934406225e-18,0.9203201933796534,1.538526988027192e-19,-0.02270772199237218,-5.722259934406225e-18,-0.02270772199237218,2.757580279874154e-18,0.9206002927331954,2.4682444745671062e-18,-0.9206002927331957,0.5892627417770444,0.5527556804835208,0.5892627417770446,300.0,32.14285714285738,[1.46864665]
-1.023265431119948e-17,0.9211803912052389,-5.771285326649806e-18,0.9211803912052389,2.432341134824429e-19,-0.02183856182910297,-5.771285326649806e-18,-0.02183856182910297,4.1442046473927206e-18,0.921439219874974,3.864709321629701e-18,-0.921439219874974,0.589640036358884,0.5519504099512818,0.589640036358884,300.0,32.14285714285738,[1.46864665]
-1.0061183078939687e-17,0.9204539176152197,-5.833381542589615e-18,0.9204539176152197,3.054161752601979e-19,-0.021557667871980588,-5.833381542589615e-18,-0.021557667871980588,5.517738054537023e-18,0.9207063307576875,5.236261052931237e-18,-0.9207063307576875,0.5897517512108498,0.5517116492221923,0.5897517512108498,300.0,32.14285714285738,[1.46864665]
-9.934343203810806e-18,0.918106593437865,-5.9135106836239915e-18,0.918106593437865,3.491488006555702e-19,-0.021848523964636053,-5.9135106836239915e-18,-0.021848523964636053,6.883945950176557e-18,0.9183665253663785,6.592029310107095e-18,-0.9183665253663784,0.5896048413878265,0.5520255990659053,0.5896048413878265,300.0,32.14285714285738,[1.46864665]
-9.841417733796599e-18,0.9137822594234357,-6.011695006081293e-18,0.9137822594234357,3.4083977140247505e-19,-0.022806199892885046,-6.011695006081293e-18,-0.022806199892885046,8.224921528410771e-18,0.9140668139641402,7.913425211304955e-18,-0.9140668139641404,0.5891516636245218,0.5529924362022657,0.5891516636245219,300.0,32.14285714285738,[1.46864665]
-9.788511261817707e-18,0.9066086708568756,-6.130690055377086e-18,0.9066086708568756,2.98277192983559e-19,-0.024692711877534922,-6.130690055377086e-18,-0.024692711877534922,9.552263515788887e-18,0.9069448781997381,9.20853315935795e-18,-0.906944878199738,0.5882598621685081,0.5548879788957188,0.588259862168508,300.0,32.14285714285738,[1.46864665]
-9.821204748348253e-18,0.8945845137710541,-6.28235103574927e-18,0.8945845137710541,1.8778406111995068e-19,-0.02811887233174561,-6.28235103574927e-18,-0.02811887233174561,1.0840875252526046e-17,0.8950263254565206,1.0424056192525522e-17,-0.8950263254565206,0.5866097611656037,0.5583708232084361,0.5866097611656038,300.0,32.14285714285738,[1.46864665]
-1.0025369467138592e-17,0.8725025595510176,-6.5128269739576366e-18,0.8725025595510176,-1.064912320600768e-19,-0.0346359652155489,-6.5128269739576366e-18,-0.0346359652155489,1.2063421728099819e-17,0.8731897654630922,1.152225258035815e-17,-0.8731897654630923,0.5833307269244667,0.5651995453391186,0.5833307269244669,300.0,32.14285714285738,[1.46737132]
-1.073431619165574e-17,0.8224077564034017,-6.942234214317082e-18,0.8224077564034017,-8.854372887339123e-19,-0.04908016536508866,-6.942234214317082e-18,-0.04908016536508866,1.3085669727066328e-17,0.8238709731655445,1.2139222931246449e-17,-0.8238709731655447,0.575249639154778,0.5815287656725117,0.575249639154778,300.0,32.14285714285738,[1.46737132]
-1.3675509060820741e-17,0.6451529605076964,-8.111908132317079e-18,0.6451529605076964,-5.4785669166295744e-18,-0.0792352255892487,-8.111908132317079e-18,-0.0792352255892487,1.2982366449087031e-17,0.65000043340449,1.0773436153348014e-17,-0.65000043340449,0.5484000431767981,0.6312802747491576,0.548400043176798,300.0,32.14285714285738,[1.495259]
-1.3257819247428414e-17,0.6396614810491438,-7.65462113130305e-18,0.6396614810491438,-5.5028157162865664e-18,-0.0749338917520172,-7.65462113130305e-18,-0.0749338917520172,1.3209932107406494e-17,0.6440356344730369,1.1225792383924012e-17,-0.6440356344730371,0.6357204829041562,0.437857208724731,0.6357204829041563,300.0,19.285714285714306,[1.35719133]
-9.010514808487083e-18,0.815608306185218,-5.968861112421459e-18,0.815608306185218,-9.55504449700829e-19,-0.0438945445828172,-5.968861112421459e-18,-0.0438945445828172,1.3280474070045017e-17,0.8167886141239072,1.2587428775033434e-17,-0.8167886141239074,0.6539111627767007,0.38052645426047205,0.6539111627767006,300.0,19.285714285714306,[1.01216698]
-7.036018142710755e-18,0.8665777672605735,-4.99960225179631e-18,0.8665777672605735,-2.0619958309721876e-19,-0.03030624364101811,-4.99960225179631e-18,-0.03030624364101811,1.2254224171274976e-17,0.8671075452987071,1.1875153915860053e-17,-0.867107545298707,0.6588559875267073,0.36306690209989567,0.6588559875267073,300.0,19.285714285714306,[1.01216698]
-5.5814971361526104e-18,0.8886200371613173,-4.2108125390379406e-18,0.8886200371613173,2.2519164996143625e-20,-0.023915630030028535,-4.2108125390379406e-18,-0.023915630030028535,1.1049245357550604e-17,0.8889418022594694,1.0811410367019367e-17,-0.8889418022594693,0.660901610845531,0.35555326121913744,0.660901610845531,300.0,19.285714285714306,[1.005431]
-4.2998039380588455e-18,0.9001808489280719,-3.48920726281174e-18,0.9001808489280719,9.055146165617994e-20,-0.02027777445599471,-3.48920726281174e-18,-0.02027777445599471,9.789121721109772e-18,0.9004092119218643,9.623488356019132e-18,-0.9004092119218643,0.6619975064133928,0.3514521347280453,0.6619975064133928,300.0,19.285714285714306,[1.00602521]
-3.109272660913325e-18,0.9066470716582448,-2.7971965443487326e-18,0.9066470716582448,9.570645123361041e-20,-0.01798454454239109,-2.7971965443487326e-18,-0.01798454454239109,8.497864660773669e-18,0.9068254277361589,8.382183953721475e-18,-0.9068254277361588,0.6626633182015226,0.3489335945710808,0.6626633182015226,300.0,19.285714285714306,[1.00556121]
-1.971919170987613e-18,0.9100821371574581,-2.1234063400335836e-18,0.9100821371574581,3.337177463283935e-20,-0.016474546121222792,-2.1234063400335836e-18,-0.016474546121222792,7.190260857172293e-18,0.9102312382263023,7.110516212617078e-18,-0.9102312382263021,0.6630900188849183,0.34730858571362416,0.6630900188849183,300.0,19.285714285714306,[1.00556121]
-8.79332695813271e-19,0.9113687418123501,-1.4659332038792321e-18,0.9113687418123501,-2.4011398821189287e-20,-0.01549397492400061,-1.4659332038792321e-18,-0.01549397492400061,5.8751958844456884e-18,0.9115004370879763,5.822347658683621e-18,-0.9115004370879763,0.6633600415790291,0.3462757722863935,0.663360041579029,300.0,19.285714285714306,[1.00556121]
1.8123858093281858e-19,0.910840093727354,-8.20156298188804e-19,0.910840093727354,-1.429153031532368e-19,-0.01492933407754725,-8.20156298188804e-19,-0.01492933407754725,4.552466256163168e-18,0.9109624368530538,4.5246647853559586e-18,-0.9109624368530538,0.6635092484911074,0.3457035642476537,0.6635092484911075,300.0,19.285714285714306,[1.02307533]
1.2108799202143253e-18,0.908472551017085,-1.7863565034026734e-19,0.908472551017085,-2.74028393326567e-19,-0.014750904892134636,-1.7863565034026734e-19,-0.014750904892134636,3.2147464608199616e-18,0.9085922986392891,3.20883089900843e-18,-0.9085922986392889,0.6635468001576726,0.3455593841889232,0.6635468001576724,300.0,19.285714285714306,[1.02307533]
2.196296875226297e-18,0.9038780638987347,4.503621034196758e-19,0.9038780638987347,-4.491623813387442e-19,-0.015003269868343926,4.503621034196758e-19,-0.015003269868343926,1.8748561435494155e-18,0.9040025732839856,1.890264831521065e-18,-0.9040025732839855,0.6634583911786723,0.3458987226764723,0.6634583911786724,300.0,19.285714285714306,[1.02307533]
3.1532257299419427e-18,0.8960905403474113,1.068731930476808e-18,0.8960905403474113,-6.567185406405499e-19,-0.01583551460006743,1.068731930476808e-18,-0.01583551460006743,5.161772458453403e-19,0.8962304502876282,5.547779637900512e-19,-0.8962304502876282,0.6631956435707066,0.3469049966455848,0.6631956435707065,300.0,19.285714285714306,[1.00556121]
3.9975587596768696e-18,0.8828868430427576,1.6572952347387811e-18,0.8828868430427576,-9.372584997491344e-19,-0.01760862819789374,1.6572952347387811e-18,-0.01760862819789374,-8.520655141010731e-19,0.8830624221452401,-7.853614543116665e-19,-0.8830624221452402,0.6626366644198801,0.34903481478641946,0.6626366644198802,300.0,19.285714285714306,[1.00556121]
4.634064314869074e-18,0.8584946190698279,2.2040039237886067e-18,0.8584946190698279,-1.3979517788268678e-18,-0.021247230110316494,2.2040039237886067e-18,-0.021247230110316494,-2.2717225122013322e-18,0.85875750695945,-2.1559428532000125e-18,-0.8587575069594501,0.6614437172071364,0.35353135353800297,0.6614437172071362,300.0,19.285714285714306,[1.005431]
4.717086778589796e-18,0.8032026628979064,2.6272980926261332e-18,0.8032026628979064,-2.3677681074860894e-18,-0.029609300434867283,2.6272980926261332e-18,-0.029609300434867283,-3.809265982480199e-18,0.8037482369240572,-3.606892254176332e-18,-0.8037482369240571,0.6583697829795709,0.3648266132272494,0.6583697829795709,300.0,19.285714285714306,[1.01216698]
2.2855595894881193e-18,0.6153521934678319,2.6421271662625245e-18,0.6153521934678319,-7.122703362183862e-18,-0.04591527861265468,2.6421271662625245e-18,-0.04591527861265468,-6.226549121433713e-18,0.6170628289046017,-5.85522849421853e-18,-0.6170628289046017,0.6481982858067166,0.3995972529365891,0.6481982858067166,300.0,19.285714285714306,[0.96928219]
2.0723058101270483e-18,0.6122744928298858,3.767076462517544e-18,0.6122744928298858,-7.03330499030158e-18,-0.039660673414315666,3.767076462517544e-18,-0.039660673414315666,-7.182121399944771e-18,0.6135576774727629,-6.727897158138303e-18,-0.6135576774727629,0.6960734665239454,0.17596436685498595,0.6960734665239453,300.0,6.428571428571418,[0.34353643]
4.349725942387646e-18,0.7993381015157232,5.444423589280376e-18,0.7993381015157232,-2.106898503344016e-18,-0.0219948928582401,5.444423589280376e-18,-0.0219948928582401,-6.966425783415443e-18,0.7996406541982506,-6.657480832484501e-18,-0.7996406541982505,0.7002171120577876,0.13925513262678613,0.7002171120577876,300.0,6.428571428571418,[0.39407701]
4.09740276833447e-18,0.8550545284355171,6.741352833871909e-18,0.8550545284355171,-9.810759111572934e-19,-0.014788303052874804,6.741352833871909e-18,-0.014788303052874804,-7.605373175775904e-18,0.8551824018917067,-7.368436443374267e-18,-0.8551824018917067,0.7011865074975735,0.12913157401158823,0.7011865074975736,300.0,6.428571428571418,[0.39407701]
3.2780307407639435e-18,0.8793638400686323,7.945907717532347e-18,0.8793638400686323,-3.651903142748111e-19,-0.011251446880810236,7.945907717532347e-18,-0.011251446880810236,-8.356373762635248e-18,0.8794358181681952,-8.151302856318797e-18,-0.8794358181681952,0.7015902255821942,0.12466880417751527,0.7015902255821942,300.0,6.428571428571418,[0.39407701]
2.253001760578032e-18,0.8922495712205195,9.11343654940884e-18,0.8922495712205195,9.333244287558322e-20,-0.009091673851726744,9.11343654940884e-18,-0.009091673851726744,-9.13776165647734e-18,0.8922958903170108,-8.950767433208392e-18,-0.8922958903170112,0.7018174890424649,0.12208367682970336,0.7018174890424649,300.0,6.428571428571418,[0.39407701]
1.12921403269819e-18,0.8995838004694087,1.0271571091068568e-17,0.8995838004694087,4.6937536678709e-19,-0.007591256203262362,1.0271571091068568e-17,-0.007591256203262362,-9.936242410497228e-18,0.8996158298061061,-9.762135511138946e-18,-0.8996158298061061,0.7019675553298539,0.12034576240340704,0.7019675553298539,300.0,6.428571428571418,[0.39407701]
-6.131724444733084e-20,0.9036241736717635,1.1409679176508082e-17,0.9036241736717635,7.916978729969531e-19,-0.006460665548094344,1.1409679176508082e-17,-0.006460665548094344,-1.0750052475628949e-17,0.9036472693719062,-1.0586329004871766e-17,-0.903647269371906,0.7020766479681357,0.11906620324698829,0.7020766479681356,300.0,6.428571428571418,[0.39407701]
-1.2930884382122954e-18,0.9053426199883248,1.2552043519789488e-17,0.9053426199883248,1.096113573306268e-18,-0.005562737978540571,1.2552043519789488e-17,-0.005562737978540571,-1.1567253981272136e-17,0.9053597095194494,-1.1412646875070906e-17,-0.9053597095194491,0.7021609349461142,0.11806795869835983,0.7021609349461141,300.0,6.428571428571418,[0.39407701]
-2.5666421790785385e-18,0.9051144897397866,1.3682444556666692e-17,0.9051144897397866,1.3679714447054959e-18,-0.004826320068645726,1.3682444556666692e-17,-0.004826320068645726,-1.2385812063119913e-17,0.905127357283117,-1.2239615426199908e-17,-0.9051273572831171,0.7022284981910155,0.11726155660224422,0.7022284981910157,300.0,6.428571428571418,[0.39407701]
-3.8684127050001905e-18,0.9029313743155976,1.4819391073731026e-17,0.9029313743155976,1.6121551615311499e-18,-0.004214376381783774,1.4819391073731026e-17,-0.004214376381783774,-1.3213594863158879e-17,0.9029412094326744,-1.307504175533433e-17,-0.9029412094326744,0.7022834675858687,0.1166012963527278,0.7022834675858687,300.0,6.428571428571418,[0.39407701]
-5.205996842722938e-18,0.8983984087124048,1.5946688942540237e-17,0.8983984087124048,1.8343623438424946e-18,-0.0037121713423097125,1.5946688942540237e-17,-0.0037121713423097125,-1.4047617913738944e-17,0.8984060780031798,-1.3915688511101754e-17,-0.8984060780031801,0.7023275137032853,0.11606949207575326,0.7023275137032854,300.0,6.428571428571418,[0.39407701]
-6.602727702965679e-18,0.8905139580281617,1.7073868110931546e-17,0.8905139580281617,2.0047483151386174e-18,-0.003326330714390061,1.7073868110931546e-17,-0.003326330714390061,-1.4888423845341945e-17,0.890520170416709,-1.476075057554812e-17,-0.890520170416709,0.7023600160713417,0.11567547557079523,0.7023600160713415,300.0,6.428571428571418,[0.39407701]
-8.11992253017574e-18,0.8769634353651651,1.8195451402478935e-17,0.8769634353651651,2.0864142026547528e-18,-0.0030965207837368963,1.8195451402478935e-17,-0.0030965207837368963,-1.5745237376159072e-17,0.8769689021900587,-1.5616651175848428e-17,-0.8769689021900589,0.7023767147920263,0.11547251203607524,0.7023767147920263,300.0,6.428571428571418,[0.39407701]
-9.829208547955316e-18,0.8517372401872546,1.931254103534863e-17,0.8517372401872546,2.0226551210391654e-18,-0.003137563027017237,1.931254103534863e-17,-0.003137563027017237,-1.6635965312090874e-17,0.8517430191222874,-1.6493595564251304e-17,-0.8517430191222874,0.7023642333570973,0.11562425092251956,0.7023642333570973,300.0,6.428571428571418,[0.39407701]
-1.2139729139607836e-17,0.7944002459426679,2.041085904498735e-17,0.7944002459426679,1.4395986683076877e-18,-0.003763184334413211,2.041085904498735e-17,-0.003763184334413211,-1.761568464704358e-17,0.794409159256177,-1.742219582580893e-17,-0.794409159256177,0.7022777192111139,0.11667051983801043,0.7022777192111139,300.0,6.428571428571418,[0.39407701]
-1.70809223071954e-17,0.6030107243616536,2.1493288155829848e-17,0.6030107243616536,-2.9394293200990366e-18,-0.0029926672415778303,2.1493288155829848e-17,-0.0029926672415778303,-1.9368109788129022e-17,0.6030181504336211,-1.915470615919305e-17,-0.6030181504336211,0.702259078813106,0.11689470667714408,0.702259078813106,300.0,6.428571428571418,[0.34203823]
-1.7146037965015573e-17,0.6029533114316591,2.0942976061236588e-17,0.6029533114316591,-2.928576710462341e-18,0.003975297296160388,2.0942976061236588e-17,0.003975297296160388,-1.8684395381017192e-17,0.602966415942875,-1.8960468659642685e-17,-0.602966415942875,0.7021234055228344,0.11851348798358338,0.7021234055228343,300.0,6.428571428571418,[0.34203823]
-1.2389339161251839e-17,0.7942281354428861,1.8135270290602945e-17,0.7942281354428861,1.4781254325179575e-18,0.004768479792239801,1.8135270290602945e-17,0.004768479792239801,-1.5572409567694693e-17,0.7942424500922958,-1.5790061386166407e-17,-0.7942424500922958,0.7021726515091067,0.11792851625176046,0.7021726515091067,300.0,6.428571428571418,[0.39407701]
-1.025137506282278e-17,0.8514506827869551,1.5345149139021262e-17,0.8514506827869551,2.0967241818096137e-18,0.004165508118085821,1.5345149139021262e-17,0.004165508118085821,-1.3234486136709518e-17,0.8514608720759008,-1.3384538649196382e-17,-0.8514608720759008,0.7022649147713558,0.11682456489266488,0.7022649147713559,300.0,6.428571428571418,[0.39407701]
-8.695110840920613e-18,0.8765627767299995,1.2573460466619405e-17,0.8765627767299995,2.1992813428763883e-18,0.0041472057450714275,1.2573460466619405e-17,0.0041472057450714275,-1.0985825419986163e-17,0.8765725873332444,-1.1104747904601338e-17,-0.8765725873332446,0.7022782080177399,0.11666463511614908,0.70227820801774,300.0,6.428571428571418,[0.39407701]
-7.337449375369978e-18,0.8899996380664157,9.804976705500882e-18,0.8899996380664157,2.1330804240925444e-18,0.0043998559622833765,9.804976705500882e-18,0.0043998559622833765,-8.770536477895649e-18,0.8900105136967988,-8.867422890747864e-18,-0.8900105136967988,0.7022606669207255,0.11687562360096887,0.7022606669207255,300.0,6.428571428571418,[0.39407701]
-6.1165307912417095e-18,0.8977709606781187,7.04559896215565e-18,0.8977709606781187,1.999593325561187e-18,0.004808625735378591,7.04559896215565e-18,0.004808625735378591,-6.572340395982931e-18,0.8977838385259422,-6.6478254590973094e-18,-0.8977838385259421,0.7022265157286245,0.11728529837652954,0.7022265157286244,300.0,6.428571428571418,[0.39407701]
-4.930340557950867e-18,0.9021914237727775,4.284338969326554e-18,0.9021914237727775,1.809130026437177e-18,0.005333831908436253,4.284338969326554e-18,0.005333831908436253,-4.382826401779568e-18,0.9022071906674094,-4.433530897144189e-18,-0.9022071906674093,0.7021803060110832,0.11783732727944857,0.702180306011083,300.0,6.428571428571418,[0.39407701]
-3.783219719352129e-18,0.9042627533986144,1.530523188420129e-18,0.9042627533986144,1.5893646812940888e-18,0.005968830405631307,1.530523188420129e-18,0.005968830405631307,-2.1943976685398752e-18,0.9042824526222185,-2.2146951527827764e-18,-0.9042824526222184,0.7021227580249171,0.1185211598279715,0.7021227580249171,300.0,6.428571428571418,[0.39407701]
-2.6784240583365045e-18,0.9043799044255599,-1.2292615277864787e-18,0.9043799044255599,1.3457235949502697e-18,0.006728338326791585,-1.2292615277864787e-18,0.006728338326791585,-1.5736283973208798e-20,0.9044049325746876,2.3837528328869703e-21,-0.9044049325746877,0.7020522039796607,0.11935411921924505,0.702052203979661,300.0,6.428571428571418,[0.39407701]
-1.611612531049315e-18,0.902551373942958,-3.978397120787079e-18,0.902551373942958,1.076036245478381e-18,0.007649373051459632,-3.978397120787079e-18,0.007649373051459632,2.1607545786661185e-18,0.9025837886392609,2.2278536458042878e-18,-0.9025837886392608,0.7019644366348572,0.12038213903987362,0.7019644366348571,300.0,6.428571428571418,[0.39407701]
-5.849556594178995e-19,0.8984018986579316,-6.723700386009721e-18,0.8984018986579316,7.830157852875965e-19,0.00880307078774263,-6.723700386009721e-18,0.00880307078774263,4.332361766968933e-18,0.8984450264581972,4.463732088167488e-18,-0.8984450264581972,0.7018511872741678,0.12169561143969848,0.7018511872741677,300.0,6.428571428571418,[0.39407701]
3.8743816403003736e-19,0.8909596349751352,-9.456523150150162e-18,0.8909596349751352,4.351896464314985e-19,0.010326579622052214,-9.456523150150162e-18,0.010326579622052214,6.493116345635052e-18,0.891019477565848,6.7111271213663754e-18,-0.891019477565848,0.7016958899430173,0.12347370600315812,0.7016958899430173,300.0,6.428571428571418,[0.39407701]
1.2415385424379907e-18,0.8779670213000572,-1.2181138628252853e-17,0.8779670213000572,8.682087709356578e-21,0.012509414733452653,-1.2181138628252853e-17,0.012509414733452653,8.629995183100439e-18,0.8780561348498565,8.976122736200805e-18,-0.8780561348498563,0.7014614051003961,0.12611024664616377,0.701461405100396,300.0,6.428571428571418,[0.39407701]
1.907888774131108e-18,0.8535520627704599,-1.4868550003944746e-17,0.8535520627704599,-5.816998765268908e-19,0.016069297017701486,-1.4868550003944746e-17,0.016069297017701486,1.0742455648883262e-17,0.8537033127301018,1.1298982083645476e-17,-0.8537033127301018,0.7010459159215948,0.13064933042042084,0.7010459159215948,300.0,6.428571428571418,[0.39407701]
1.981686519660639e-18,0.7977313113028417,-1.745896618100867e-17,0.7977313113028417,-1.6799839717604981e-18,0.02329889239333598,-1.745896618100867e-17,0.02329889239333598,1.2736622669626102e-17,0.7980714776382549,1.3743105968180806e-17,-0.7980714776382549,0.7000498304215589,0.1409271792575622,0.7000498304215591,300.0,6.428571428571418,[0.39407701]
-4.536390828138812e-19,0.6105648065414899,-1.9668286187799003e-17,0.6105648065414899,-6.581022483692287e-18,0.040987767862599125,-1.9668286187799003e-17,0.040987767862599125,1.3872890898588144e-17,0.6119390329938148,1.643688478021058e-17,-0.6119390329938149,0.6957798082267679,0.17827203069422834,0.6957798082267681,300.0,6.428571428571418,[0.34458305]
1.1069661829429638e-19,0.6135411095254504,-1.9926035666670526e-17,0.6135411095254504,-6.6309444880210876e-18,0.04728389102422234,-1.9926035666670526e-17,0.04728389102422234,1.3845759374496405e-17,0.6153604305024098,1.6815626394046266e-17,-0.6153604305024101,0.6475077919657993,0.40182996240592783,0.6475077919657996,300.0,19.28571428571425,[0.96544249]
3.3773321189397094e-18,0.8012930071708672,-1.8794210224778507e-17,0.8012930071708672,-1.816726853182864e-18,0.0310426412990428,-1.8794210224778507e-17,0.0310426412990428,1.2924915446822773e-17,0.8018940883431874,1.4358398150122625e-17,-0.8018940883431875,0.6578851988296285,0.36657077123224113,0.6578851988296287,300.0,19.28571428571425,[1.01216698]
4.158720012781801e-18,0.85648803444449,-1.7252766597911452e-17,0.85648803444449,-8.02007852151814e-19,0.02274437304922412,-1.7252766597911452e-17,0.02274437304922412,1.1133692226286142e-17,0.8567899740613145,1.204452084614097e-17,-0.8567899740613145,0.6609914690503597,0.35521902494840374,0.6609914690503597,300.0,19.28571428571425,[1.005431]
4.3736016835883764e-18,0.880785122399963,-1.558943459906226e-17,0.880785122399963,-3.1146989657316725e-19,0.01916896557712472,-1.558943459906226e-17,0.01916896557712472,9.214950842518338e-18,0.8809936895814948,9.891204193176574e-18,-0.8809936895814947,0.6621867965132611,0.3507382115581502,0.6621867965132612,300.0,19.28571428571425,[1.00602521]
4.382283771297733e-18,0.8938955597489936,-1.387285698418303e-17,0.8938955597489936,1.7364175418713157e-20,0.017458482817447704,-1.387285698418303e-17,0.017458482817447704,7.261481107913108e-18,0.8940660324390214,7.80193313158829e-18,-0.8940660324390214,0.6627386443742203,0.34864735551275994,0.6627386443742204,300.0,19.28571428571425,[1.00556121]
4.293292372276828e-18,0.9015917643495487,-1.2135455924563387e-17,0.9015917643495487,2.778268066994105e-19,0.016688287604143846,-1.2135455924563387e-17,0.016688287604143846,5.27762406632513e-18,0.9017461995961451,5.7264345396109886e-18,-0.901746199596145,0.6629899115075059,0.3476906016540269,0.6629899115075057,300.0,19.28571428571425,[1.00556121]
4.16089053470914e-18,0.9060969309892907,-1.0388897975562784e-17,0.9060969309892907,4.764295630509422e-19,0.016497358476097727,-1.0388897975562784e-17,0.016497358476097727,3.2905112418461436e-18,0.9062471027180722,3.667907064852783e-18,-0.9062471027180722,0.6630642879469205,0.3474068221824177,0.6630642879469206,300.0,19.28571428571425,[1.00556121]
3.965543561248617e-18,0.9083772042201267,-8.63297965075053e-18,0.9083772042201267,6.587534049474304e-19,0.01673657387372739,-8.63297965075053e-18,0.01673657387372739,1.2882047638757823e-18,0.9085313742803846,1.6070799818170514e-18,-0.9085313742803847,0.6630108263469452,0.34761082879202976,0.6630108263469452,300.0,19.28571428571425,[1.00556121]
3.752832412369381e-18,0.9088206823044899,-6.8563735388183266e-18,0.9088206823044899,8.074341569701619e-19,0.017361315273524938,-6.8563735388183266e-18,0.017361315273524938,-7.184427579492569e-19,0.9089864948680072,-4.549535780653588e-19,-0.9089864948680071,0.6628439760716112,0.34824664646074416,0.662843976071611,300.0,19.28571428571425,[1.00556121]
3.496710824943362e-18,0.9074510520333865,-5.078410850681534e-18,0.9074510520333865,9.31153906828493e-19,0.01840126684631106,-5.078410850681534e-18,0.01840126684631106,-2.7391986723020005e-18,0.907637603043224,-2.532371081588334e-18,-0.907637603043224,0.662554328083406,0.34934728376773194,0.6625543280834061,300.0,19.28571428571425,[1.00556121]
3.2145429743892736e-18,0.9039351470981497,-3.289629467313162e-18,0.9039351470981497,1.0309979154860937e-18,0.01996989353797711,-3.289629467313162e-18,0.01996989353797711,-4.762125108582083e-18,0.9041557093815599,-4.614823692683397e-18,-0.9041557093815599,0.6621052850536612,0.3510458417472283,0.6621052850536612,300.0,19.28571428571425,[1.00602521]
2.8716005098696883e-18,0.8973903105226615,-1.47785411727704e-18,0.8973903105226615,1.0765788759602157e-18,0.02232097173406459,-1.47785411727704e-18,0.02232097173406459,-6.805671503171889e-18,0.8976678646354185,-6.723408312804739e-18,-0.8976678646354186,0.6614127832463464,0.35364708441699827,0.6614127832463463,300.0,19.28571428571425,[1.005431]
2.444007690183877e-18,0.8857531491851661,3.6841218276070512e-19,0.8857531491851661,1.0472768299411373e-18,0.02601587501301198,3.6841218276070512e-19,0.02601587501301198,-8.878519943780771e-18,0.8861351291107532,-8.88593835785585e-18,-0.8861351291107534,0.660282068497486,0.3578479845428255,0.660282068497486,300.0,19.28571428571425,[1.005431]
1.8275794628195598e-18,0.8636368369301126,2.277691447501515e-18,0.8636368369301126,8.443330297349274e-19,0.03246273255904148,2.277691447501515e-18,0.03246273255904148,-1.1007801954500472e-17,0.8642467327724477,-1.1156376185024935e-17,-0.8642467327724477,0.6581830052322237,0.3655000181216924,0.6581830052322236,300.0,19.28571428571425,[1.01216698]
7.119311921672394e-19,0.8125957089752907,4.3705833015331704e-18,0.8125957089752907,1.4433970816805312e-19,0.046106531305162284,4.3705833015331704e-18,0.046106531305162284,-1.3315066763261984e-17,0.8139026959496133,-1.3760769978552427e-17,-0.8139026959496134,0.6531246491486226,0.38321845643050345,0.6531246491486226,300.0,19.28571428571425,[1.01216698]
-2.6892766679732e-18,0.6365797808914296,7.175575919757639e-18,0.6365797808914296,-4.356237508169663e-18,0.07720094528671519,7.175575919757639e-18,0.07720094528671519,-1.6727127233039118e-17,0.6412439499854505,-1.7674400809833348e-17,-0.6412439499854504,0.6344549267451448,0.44151318423986635,0.6344549267451448,300.0,19.28571428571425,[1.35719133]
-2.7413691942293397e-18,0.6420059981404789,8.035746976681119e-18,0.6420059981404789,-4.321509157332237e-18,0.0815693641129659,8.035746976681119e-18,0.0815693641129659,-1.7894868029947578e-17,0.6471671057850097,-1.980318247147861e-17,-0.6471671057850094,0.5465327089368983,0.634510832156703,0.5465327089368982,300.0,32.142857142857125,[1.495259]
4.558096047412204e-20,0.8192035781566689,6.557757201783621e-18,0.8192035781566689,2.4961002164400163e-19,0.05150222192191719,6.557757201783621e-18,0.05150222192191719,-1.6322324893590368e-17,0.820820919158122,-1.7088989376854138e-17,-0.820820919158122,0.5739398973981701,0.584111280792587,0.5739398973981702,300.0,32.142857142857125,[1.46942598]
5.70847266890195e-19,0.8692429943228575,5.827783546095374e-18,0.8692429943228575,1.0027811304306848e-18,0.03714397501374332,5.827783546095374e-18,0.03714397501374332,-1.58860499861952e-17,0.8700362395091306,-1.6340876112259253e-17,-0.8700362395091303,0.5821174961273332,0.567695729598954,0.5821174961273332,300.0,32.142857142857125,[1.46737132]
6.207692712189954e-19,0.8912716663658635,5.2794554442013225e-18,0.8912716663658635,1.2719258494207387e-18,0.0307113817529609,5.2794554442013225e-18,0.0307113817529609,-1.5649463096115233e-17,0.8918006348034067,-1.5997733529054814e-17,-0.891800634803407,0.5854137852086865,0.5608755656785878,0.5854137852086866,300.0,32.142857142857125,[1.46737132]
4.94878999433325e-19,0.9032447206378573,4.820118741328176e-18,0.9032447206378573,1.3695993361510003e-18,0.027368369662790496,4.820118741328176e-18,0.027368369662790496,-1.5485588690601127e-17,0.9036592571418498,-1.5761158751875933e-17,-0.9036592571418498,0.5870560102195028,0.557432042252971,0.5870560102195028,300.0,32.142857142857125,[1.46864665]
2.7565628477207137e-19,0.910369411850079,4.391372831868466e-18,0.910369411850079,1.3826224677150351e-18,0.02556366509921203,4.391372831868466e-18,0.02556366509921203,-1.535535737496078e-17,0.9107282618902106,-1.558877515645824e-17,-0.9107282618902105,0.5879286756441752,0.5555895469774182,0.5879286756441751,300.0,32.142857142857125,[1.46864665]
2.1705219273391446e-20,0.9146470656210365,3.984433884897491e-18,0.9146470656210365,1.3522351607322871e-18,0.024686443815233137,3.984433884897491e-18,0.024686443815233137,-1.5243575495702813e-17,0.9149801501439336,-1.5448173463463784e-17,-0.9149801501439336,0.5883563816045749,0.55468327579831,0.5883563816045748,300.0,32.142857142857125,[1.46864665]
-2.626331532080365e-19,0.9169499320230413,3.599098413984563e-18,0.9169499320230413,1.2806079371300953e-18,0.0244746717686329,3.599098413984563e-18,0.0244746717686329,-1.514590200897255e-17,0.9172765054198446,-1.532787437275524e-17,-0.9172765054198448,0.5884734416831063,0.5544348626009008,0.5884734416831063,300.0,32.142857142857125,[1.46864665]
-5.751883107448733e-19,0.9176341722169123,3.22271634602191e-18,0.9176341722169123,1.1937870600365295e-18,0.024833260431917945,3.22271634602191e-18,0.024833260431917945,-1.5063422175733664e-17,0.9179701328713794,-1.5232464725087247e-17,-0.9179701328713794,0.5883281076250134,0.5547432519253767,0.5883281076250135,300.0,32.142857142857125,[1.46864665]
-9.203012971917973e-19,0.9167339652968048,2.8690569294860878e-18,0.9167339652968048,1.0765788759602157e-18,0.0257787083992774,2.8690569294860878e-18,0.0257787083992774,-1.4990709691167802e-17,0.9170963444129183,-1.514071096481084e-17,-0.9170963444129184,0.587913121364227,0.5556224648585976,0.587913121364227,300.0,32.142857142857125,[1.46864665]
-1.2958015906214693e-18,0.9139724308671806,2.5173984628520317e-18,0.9139724308671806,9.398359945378496e-19,0.0274443615905978,2.5173984628520317e-18,0.0274443615905978,-1.4940787686839002e-17,0.9143843816297276,-1.5079806384498798e-17,-0.9143843816297273,0.5871633008737709,0.5572059908274817,0.5871633008737708,300.0,32.142857142857125,[1.46864665]
-1.7255649322346202e-18,0.9085978650667418,2.201384035993498e-18,0.9085978650667418,7.401479772226483e-19,0.030150384782120516,2.201384035993498e-18,0.030150384782120516,-1.4911485640819924e-17,0.909097973876497,-1.5049149555930883e-17,-0.909097973876497,0.5859182045466862,0.5598211456899207,0.5859182045466863,300.0,32.142857142857125,[1.46737132]
-2.205250278176571e-18,0.8988397686567883,1.9237607157247756e-18,0.8988397686567883,4.818558678692901e-19,0.03461884472365648,1.9237607157247756e-18,0.03461884472365648,-1.4931020338165976e-17,0.8995061946028998,-1.5070310539713243e-17,-0.8995061946028999,0.5838020848520193,0.5642253551949536,0.5838020848520195,300.0,32.142857142857125,[1.46737132]
-2.8412132028869403e-18,0.8800479970820282,1.737740203670788e-18,0.8800479970820282,3.689887276476546e-20,0.04266940111294436,1.737740203670788e-18,0.04266940111294436,-1.504497273935128e-17,0.8810818094589328,-1.5180445111781086e-17,-0.8810818094589326,0.5798029720562481,0.5724133359640425,0.5798029720562479,300.0,32.142857142857125,[1.46737132]
-3.898257381501104e-18,0.8360962438563392,1.7841351098676622e-18,0.8360962438563392,-9.072781656277625e-19,0.06001899408927341,1.7841351098676622e-18,0.06001899408927341,-1.542698459856297e-17,0.8382477012447858,-1.5633383403142573e-17,-0.8382477012447858,0.5702513535484075,0.5912924720917888,0.5702513535484074,300.0,32.142857142857125,[1.46942598]
-6.865360856173715e-18,0.6759423012926489,2.7263790271686537e-18,0.6759423012926489,-5.645527533009115e-18,0.09835454834939594,2.7263790271686537e-18,0.09835454834939594,-1.7288207151256287e-17,0.6830604745246323,-1.7543341231501015e-17,-0.6830604745246321,0.5383152060821056,0.6484084189780084,0.5383152060821056,300.0,32.142857142857125,[1.51135667]
-6.991251127959385e-18,0.6827387387178226,2.2104730965642307e-18,0.6827387387178226,-5.704131625047272e-18,0.09992663191430698,2.2104730965642307e-18,0.09992663191430698,-1.71558053136886e-17,0.6900126934424762,-1.7603478604663146e-17,-0.6900126934424762,0.4223198445059493,0.802054797300622,0.42231984450594934,300.0,45.0,[1.53225009]
-4.894526946149771e-18,0.8444281482002925,9.411247419322072e-20,0.8444281482002925,-1.0635557443961809e-18,0.06198783983403204,9.411247419322072e-20,0.06198783983403204,-1.4431800294877973e-17,0.8467002951223441,-1.44355534983865e-17,-0.8467002951223442,0.4620526961391938,0.7569772863045521,0.46205269613919386,300.0,45.0,[1.59986986]
-4.673133709561178e-18,0.8871925918064747,-1.1204302017734894e-18,0.8871925918064747,-2.2573428044327104e-19,0.04441302787817644,-1.1204302017734894e-18,0.04441302787817644,-1.3207625927858697e-17,0.8883035584762665,-1.3081020951118402e-17,-0.8883035584762667,0.474375879667725,0.7415760578517516,0.47437587966772493,300.0,45.0,[1.5761212]
-4.82072920062024e-18,0.9059368433776219,-2.08827949493606e-18,0.9059368433776219,1.0418505251227895e-19,0.03639740654412042,-2.08827949493606e-18,0.03639740654412042,-1.2289495152594237e-17,0.9066677094681093,-1.2105201664822153e-17,-0.9066677094681094,0.47952487319947185,0.7349229836969727,0.479524873199472,300.0,45.0,[1.57397585]
-5.115920182738364e-18,0.9161755157068266,-2.967781762774904e-18,0.9161755157068266,2.6914471899005393e-19,0.0320846081169135,-2.967781762774904e-18,0.0320846081169135,-1.1478805212733066e-17,0.9167371475284976,-1.1268054473765203e-17,-0.9167371475284976,0.48219432907971643,0.7314213956446207,0.4821943290797164,300.0,45.0,[1.57397585]
-5.467544734967305e-18,0.9223348004480061,-3.804212736118112e-18,0.9223348004480061,3.5162455222894143e-19,0.029603963834942258,-3.804212736118112e-18,0.029603963834942258,-1.0718037277200696e-17,0.9228097738928671,-1.0467635818703103e-17,-0.922809773892867,0.48370252562837796,0.7294269897676239,0.48370252562837796,300.0,45.0,[1.57397585]
-5.8604092038156905e-18,0.926107762542573,-4.606746261549204e-18,0.926107762542573,3.906939469210461e-19,0.028215816333037658,-4.606746261549204e-18,0.028215816333037658,-9.993082953469422e-18,0.9265374898691099,-9.711151102536939e-18,-0.9265374898691098,0.4845416165169847,0.7283123256723141,0.4845416165169845,300.0,45.0,[1.57397585]
-6.281490457719485e-18,0.9282330899777262,-5.40409088299775e-18,0.9282330899777262,4.058876004124201e-19,0.027597102792067767,-5.40409088299775e-18,0.027597102792067767,-9.289833849011539e-18,0.928643241192286,-8.967719015182021e-18,-0.9286432411922858,0.4849203371303988,0.7278080332578648,0.4849203371303988,300.0,45.0,[1.57397585]
-6.724276930896671e-18,0.9290162988713071,-6.17969637076779e-18,0.9290162988713071,3.906939469210461e-19,0.02762107926683708,-6.17969637076779e-18,0.02762107926683708,-8.608289963827048e-18,0.9294268166931743,-8.23971350337908e-18,-0.9294268166931742,0.4849199546509548,0.7278085429305101,0.4849199546509548,300.0,45.0,[1.57397585]
-7.184427579492569e-18,0.9284953302455876,-6.93664893572476e-18,0.9284953302455876,3.4728350837426314e-19,0.02828776890633637,-6.93664893572476e-18,0.02828776890633637,-7.939769210206591e-18,0.9289261413899171,-7.516000108270114e-18,-0.9289261413899171,0.4845420541143907,0.728311743410206,0.4845420541143907,300.0,45.0,[1.57397585]
-7.674965535071215e-18,0.9264526732400808,-7.678458718798027e-18,0.9264526732400808,2.734857628447322e-19,0.029723962696147892,-7.678458718798027e-18,0.029723962696147892,-7.301635763568882e-18,0.9269293768740172,-6.813284403034079e-18,-0.926929376874017,0.48370929485915476,0.7294180119339794,0.48370929485915465,300.0,45.0,[1.57397585]
-8.182867666068575e-18,0.922283446790389,-8.396697990316596e-18,0.922283446790389,1.454249691317227e-19,0.03225277339571173,-8.396697990316596e-18,0.03225277339571173,-6.70040118969594e-18,0.9228472233340006,-6.1149224552003e-18,-0.922847223334001,0.4822199443691415,0.731387619874198,0.4822199443691416,300.0,45.0,[1.57397585]
-8.764567542595466e-18,0.9145507966395782,-9.061318587348865e-18,0.9145507966395782,-5.2092526256139477e-20,0.036613916408162375,-9.061318587348865e-18,0.036613916408162375,-6.16645279557051e-18,0.9152834197716198,-5.4589361736376996e-18,-0.9152834197716196,0.4795983742666712,0.7348270536674137,0.47959837426667107,300.0,45.0,[1.57397585]
-9.441770383925279e-18,0.8994468973322847,-9.642306261368347e-18,0.8994468973322847,-4.015465565577418e-19,0.044678143301870483,-9.642306261368347e-18,0.044678143301870483,-5.7692472828674464e-18,0.9005558603493605,-4.8443120870255135e-18,-0.9005558603493604,0.4745784196545105,0.7413168332072698,0.4745784196545104,300.0,45.0,[1.5761212]
-1.042718733893725e-17,0.8634870279463114,-9.978855860523816e-18,0.8634870279463114,-1.2849489809847736e-18,0.06230200171270631,-9.978855860523816e-18,0.06230200171270631,-5.745371541666716e-18,0.8657317060434856,-4.394392238066358e-18,-0.8657317060434854,0.4627213146063071,0.7561600161460682,0.46272131460630694,300.0,45.0,[1.59986986]
-1.2901582336103877e-17,0.7207627323298411,-9.411111761701614e-18,0.7207627323298411,-5.953741646691274e-18,0.10029088639870838,-9.411111761701614e-18,0.10029088639870838,-7.607679355323702e-18,0.7277067941212427,-5.340924911228742e-18,-0.7277067941212426,0.42631994846248233,0.797811132465506,0.42631994846248217,300.0,45.0,[1.54082294]
-1.2532593608456223e-17,0.7275757049158711,-9.843342376286857e-18,0.7275757049158711,-6.057926699203553e-18,0.09876331227490992,-9.843342376286857e-18,0.09876331227490992,-6.711253799332636e-18,0.7342483219152346,-4.567892356091074e-18,-0.7342483219152345,0.29225059862732566,0.9105927603511572,0.29225059862732555,300.0,57.8571428571429,[1.58228149]
-9.888897900957143e-18,0.8718711309252329,-1.1131759105194606e-17,0.8718711309252329,-1.5931630946669323e-18,0.06047814229340086,-1.1131759105194606e-17,0.06047814229340086,-2.4505192559658943e-18,0.8739661747665669,-9.837847812180481e-19,-0.8739661747665669,0.333870153196474,0.8815108857008666,0.333870153196474,300.0,57.8571428571429,[1.59973766]
-8.738521279467396e-18,0.9066790906147493,-1.1524131815168828e-17,0.9066790906147493,-9.376654726105105e-19,0.043178793241581734,-1.1524131815168828e-17,0.043178793241581734,-9.550296480292236e-20,0.9077066605152725,9.782459242959893e-19,-0.9077066605152723,0.3472968229003747,0.8710739541546467,0.34729682290037456,300.0,57.8571428571429,[1.59973766]
-7.86597146467706e-18,0.9217709133018603,-1.167491526030867e-17,0.9217709133018603,-7.813878938420922e-19,0.03517888757879472,-1.167491526030867e-17,0.03517888757879472,1.8406025943835946e-18,0.9224419606352625,2.727118958091026e-18,-0.9224419606352628,0.35309644235250903,0.8663981791278202,0.35309644235250914,300.0,57.8571428571429,[1.5932118]
-7.071560439270933e-18,0.9300197419763211,-1.1746220297062272e-17,0.9300197419763211,-8.0526363504282275e-19,0.030761622565295733,-1.1746220297062272e-17,0.030761622565295733,3.62911266251105e-18,0.9305283434095667,4.3901569813805116e-18,-0.9305283434095668,0.3562050952017809,0.8638494430770794,0.35620509520178084,300.0,57.8571428571429,[1.58705434]
-6.337924027830303e-18,0.9350095191841794,-1.1770973573495345e-17,0.9350095191841794,-8.964255559910667e-19,0.028107378157467944,-1.1770973573495345e-17,0.028107378157467944,5.343824985108974e-18,0.9354318925886148,6.035680368667598e-18,-0.9354318925886148,0.3580434581640962,0.8623281070055588,0.3580434581640961,300.0,57.8571428571429,[1.58360212]
-5.6216517918083846e-18,0.9380997207314432,-1.176546248266421e-17,0.9380997207314432,-1.0331684374134328e-18,0.026494098491146333,-1.176546248266421e-17,0.026494098491146333,7.015126869160115e-18,0.9384737733635768,7.67355609038552e-18,-0.9384737733635766,0.35915092547870653,0.8614065390137093,0.35915092547870653,300.0,57.8571428571429,[1.58360212]
-4.92274373120518e-18,0.9398822603928021,-1.1750569819518229e-17,0.9398822603928021,-1.2111512354552427e-18,0.0256016170109782,-1.1750569819518229e-17,0.0256016170109782,8.65387092430117e-18,0.9402308791965194,9.285661970487698e-18,-0.9402308791965192,0.35976128823750436,0.8608969920794141,0.35976128823750425,300.0,57.8571428571429,[1.58360212]
-4.2411998460206886e-18,0.9406033278745827,-1.1720737860919234e-17,0.9406033278745827,-1.3999866431337483e-18,0.025296578560355932,-1.1720737860919234e-17,0.025296578560355932,1.0273080282096171e-17,0.9409434293811718,1.0895482217550815e-17,-0.9409434293811716,0.35997124145505305,0.8607214477696115,0.359971241455053,300.0,57.8571428571429,[1.58360212]
-3.572679092400232e-18,0.9402971404434659,-1.1675184455899267e-17,0.9402971404434659,-1.6213798797223412e-18,0.025562470159682344,-1.1675184455899267e-17,0.025562470159682344,1.1859731810981086e-17,0.9406445408371984,1.248091459346868e-17,-0.9406445408371985,0.3597939233642736,0.8608697145447076,0.3597939233642736,300.0,57.8571428571429,[1.58360212]
-2.8867941633610623e-18,0.9387968657226811,-1.1612966360066078e-17,0.9387968657226811,-1.875330945221021e-18,0.0264943624418637,-1.1612966360066078e-17,0.0264943624418637,1.3418166554810594e-17,0.9391706481422486,1.406012205203529e-17,-0.9391706481422485,0.35916351863491425,0.8613960376990222,0.3591635186349142,300.0,57.8571428571429,[1.58360212]
-2.266024892142067e-18,0.9356312140274573,-1.1531976641001916e-17,0.9356312140274573,-2.1726924492664838e-18,0.02835427022153404,-1.1531976641001916e-17,0.02835427022153404,1.492016772852928e-17,0.9360607529975231,1.5607874514547134e-17,-0.9360607529975231,0.3578948610837502,0.8624514692547554,0.3578948610837502,300.0,57.8571428571429,[1.58360212]
-1.6713018840511415e-18,0.9296716188241956,-1.1408186942683036e-17,0.9296716188241956,-2.550363264623495e-18,0.03175300194357514,-1.1408186942683036e-17,0.03175300194357514,1.634403011286376e-17,0.9302137238181499,1.710551196838937e-17,-0.9302137238181498,0.35554668835013126,0.8643917542448618,0.3555466883501312,300.0,57.8571428571429,[1.58705434]
-1.1330124460710335e-18,0.9178913493409513,-1.1218181488028074e-17,0.9178913493409513,-3.0864821806762636e-18,0.03824183341036172,-1.1218181488028074e-17,0.03824183341036172,1.7594250743011106e-17,0.9186876329947727,1.8486808468180367e-17,-0.9186876329947726,0.35095455410859133,0.8681369718546031,0.3509545541085912,300.0,57.8571428571429,[1.60097717]
-7.94411025406127e-19,0.8892462648398132,-1.0813989607871388e-17,0.8892462648398132,-4.1500379250724445e-18,0.052656919195587064,-1.0813989607871388e-17,0.052656919195587064,1.8358274461434485e-17,0.8908039462590689,1.9561090935912853e-17,-0.890803946259069,0.34015404311997327,0.8766929074073038,0.34015404311997327,300.0,57.8571428571429,[1.59973766]
-1.5931630946669323e-18,0.7620707953409538,-9.682927240094448e-18,0.7620707953409538,-8.994642866893415e-18,0.08278194298169839,-9.682927240094448e-18,0.08278194298169839,1.687146694120717e-17,0.7665538123285406,1.8623191619310733e-17,-0.7665538123285403,0.3093456940558688,0.8992277148410107,0.3093456940558688,300.0,57.8571428571429,[1.59798622]
-4.818558678692901e-19,0.7675492130229543,-1.0244024115514174e-17,0.7675492130229543,-9.014177564239468e-18,0.07846534061748775,-1.0244024115514174e-17,0.07846534061748775,1.7646343269267246e-17,0.7715494825935499,1.9377694739450718e-17,-0.77154948259355,0.16445553023801848,0.972578406684142,0.1644555302380185,300.0,70.71428571428567,[1.59168845]
2.0793600063909005e-18,0.8960180970530276,-1.2115497297153401e-17,0.8960180970530276,-4.189107319764549e-18,0.04742560696690276,-1.2115497297153401e-17,0.04742560696690276,2.1173441401193356e-17,0.8972723212284598,2.240199817375477e-17,-0.8972723212284595,0.19793908981277017,0.9600209546922319,0.19793908981277017,300.0,70.71428571428567,[1.60817314]
3.511904478434736e-18,0.9237725264505358,-1.3279465116492855e-17,0.9237725264505358,-3.1581094042784558e-18,0.03383610113644194,-1.3279465116492855e-17,0.03383610113644194,2.2419320987486025e-17,0.9243919960519571,2.337122637814262e-17,-0.9243919960519569,0.2089558343871583,0.9553402108940734,0.20895583438715828,300.0,70.71428571428567,[1.62149767]
4.788171371710153e-18,0.9355762541358797,-1.42539616330579e-17,0.9355762541358797,-2.656718839063113e-18,0.027443475316735952,-1.42539616330579e-17,0.027443475316735952,2.3161639486636012e-17,0.9359786705050414,2.3988228254057488e-17,-0.9359786705050414,0.21387280137636774,0.9531615024028454,0.21387280137636774,300.0,70.71428571428567,[1.6194911]
6.008004694874752e-18,0.9419830973597043,-1.5165063647862342e-17,0.9419830973597043,-2.30943533068885e-18,0.023802763222603922,-1.5165063647862342e-17,0.023802763222603922,2.3712952056180155e-17,0.9422837827578345,2.4466306507466406e-17,-0.9422837827578346,0.21660837386307807,0.9519252201432558,0.21660837386307805,300.0,70.71428571428567,[1.6194911]
7.188768623347247e-18,0.9458403065026919,-1.6043243253901714e-17,0.9458403065026919,-2.0381200897714568e-18,0.02150578480352979,-1.6043243253901714e-17,0.02150578480352979,2.418178479248541e-17,0.9460847658561689,2.4902894804845464e-17,-0.9460847658561689,0.2183107176912946,0.9511471290406253,0.2183107176912945,300.0,70.71428571428567,[1.6194911]
8.352168376401028e-18,0.9482144374979435,-1.689261257279617e-17,0.9482144374979435,-1.8080447654735075e-18,0.019991096071594123,-1.689261257279617e-17,0.019991096071594123,2.4594183958679848e-17,0.9484251490769768,2.5297844750556178e-17,-0.9484251490769766,0.21942253236910828,0.9506353162898248,0.2194225323691082,300.0,70.71428571428567,[1.6194911]
9.519909173309488e-18,0.9495664162057748,-1.774360978313613e-17,0.9495664162057748,-1.634403011286376e-18,0.019004843021387,-1.774360978313613e-17,0.019004843021387,2.4971854774036862e-17,0.949756580837504,2.5677205525714207e-17,-0.9497565808375038,0.22014045282077094,0.9503033000383255,0.2201404528207709,300.0,70.71428571428567,[1.6194911]
1.0661603707089878e-17,0.9500861051321248,-1.858004075647934e-17,0.9500861051321248,-1.4542496913172269e-18,0.018433480014838723,-1.858004075647934e-17,0.018433480014838723,2.530828567277443e-17,0.9502649106173435,2.6023989256361866e-17,-0.9502649106173434,0.22055171522948055,0.9501125627096341,0.22055171522948055,300.0,70.71428571428567,[1.6194911]
1.1811980328579625e-17,0.9497971826377054,-1.9409994078445645e-17,0.9497971826377054,-1.321847853749539e-18,0.01824724104339806,-1.9409994078445645e-17,0.01824724104339806,2.5620840830311266e-17,0.9499724469437092,2.6360066585416485e-17,-0.9499724469437092,0.22067943309463922,0.9500532488329574,0.22067943309463925,300.0,70.71428571428567,[1.6194911]
1.2949333818505338e-17,0.9485647024943366,-2.022027704544544e-17,0.9485647024943366,-1.2068101916005644e-18,0.018490663005988537,-2.022027704544544e-17,0.018490663005988537,2.5894326593155998e-17,0.948744907462786,2.6675561524121776e-17,-0.9487449074627862,0.22049033054898406,0.950141057037743,0.22049033054898412,300.0,70.71428571428567,[1.6194911]
1.40563000014483e-17,0.9460112153470407,-2.1028118175276977e-17,0.9460112153470407,-1.14169453378039e-18,0.019312787676999787,-2.1028118175276977e-17,0.019312787676999787,2.6100526176253217e-17,0.9462083297721711,2.6953750736281707e-17,-0.9462083297721708,0.21987126528098525,0.9504279317273231,0.21987126528098516,300.0,70.71428571428567,[1.6194911]
1.515241357475457e-17,0.9412299686341695,-2.1807623819635205e-17,0.9412299686341695,-1.1590587091991032e-18,0.02107456177983686,-2.1807623819635205e-17,0.02107456177983686,2.621990488225687e-17,0.9414658735234601,2.7189262978127782e-17,-0.9414658735234602,0.21854381499882908,0.9510400632210588,0.21854381499882897,300.0,70.71428571428567,[1.6194911]
1.6209457753368732e-17,0.9317593442930814,-2.2538394463843646e-17,0.9317593442930814,-1.3413825510955914e-18,0.024700562111101956,-2.2538394463843646e-17,0.024700562111101956,2.6128742961308626e-17,0.9320866877313917,2.7316855950227943e-17,-0.9320866877313917,0.21577355888205021,0.9523043329601881,0.2157735588820502,300.0,70.71428571428567,[1.6194911]
1.7144952704051903e-17,0.9083113417186156,-2.314846374024896e-17,0.9083113417186156,-2.0337790459167785e-18,0.03304871784183552,-2.314846374024896e-17,0.03304871784183552,2.5490609514670917e-17,0.9089123782002649,2.7160289631488155e-17,-0.9089123782002647,0.20912002189158774,0.9552683564779709,0.20912002189158768,300.0,70.71428571428567,[1.62149767]
1.720789783994474e-17,0.7917320127390142,-2.3349542248173864e-17,0.7917320127390142,-6.518077347799452e-18,0.04933937233286361,-2.3349542248173864e-17,0.04933937233286361,2.2334670632319798e-17,0.7932678952648796,2.5226718884107677e-17,-0.7932678952648796,0.19157806660293378,0.9625984047324012,0.19157806660293375,300.0,70.71428571428567,[1.62212329]
1.775921040948888e-17,0.7947966596844883,-2.3963460809559695e-17,0.7947966596844883,-6.476837431180008e-18,0.04308482948672912,-2.3963460809559695e-17,0.04308482948672912,2.2006921821291587e-17,0.7959635875952622,2.452284076373164e-17,-0.7959635875952623,0.04102035064511781,0.9983159127580323,0.04102035064511777,300.0,83.57142857142856,[1.68385674]
1.8536257259476295e-17,0.9121482694366707,-2.442630765336221e-17,0.9121482694366707,-1.9122298179857864e-18,0.02543445620160997,-2.442630765336221e-17,0.02543445620160997,2.476999623479432e-17,0.912502809309968,2.6121634415839056e-17,-0.9125028093099682,0.05955461516565281,0.996446935679438,0.05955461516565277,300.0,83.57142857142856,[1.67227202]
1.844726586045539e-17,0.9351556976145255,-2.4515875597270065e-17,0.9351556976145255,-1.1373534899257118e-18,0.018241724672825504,-2.4515875597270065e-17,0.018241724672825504,2.5006583124874288e-17,0.9353335978675998,2.596112798565544e-17,-0.9353335978676,0.06545185649549624,0.9957068388650276,0.0654518564954962,300.0,83.57142857142856,[1.66822438]
1.8258430452776885e-17,0.9446927843612118,-2.4498562293459024e-17,0.9446927843612118,-8.725498147903361e-19,0.01471717195102198,-2.4498562293459024e-17,0.01471717195102198,2.4678834313846074e-17,0.9448074152833348,2.5440611965839245e-17,-0.9448074152833343,0.06821595917973726,0.9953357050896833,0.06821595917973719,300.0,83.57142857142856,[1.66822438]
1.8021843562696918e-17,0.9497755253697105,-2.4456644088737287e-17,0.9497755253697105,-7.770468499874139e-19,0.01256809680849707,-2.4456644088737287e-17,0.01256809680849707,2.4136203832011288e-17,0.9498586766717967,2.4782753948276296e-17,-0.9498586766717968,0.06986662447787383,0.9951066825060193,0.06986662447787383,300.0,83.57142857142856,[1.66822438]
1.7770063019125577e-17,0.9527659412396529,-2.4392342376639865e-17,0.9527659412396529,-7.575121526413615e-19,0.011076712644962221,-2.4392342376639865e-17,0.011076712644962221,2.34937293415189e-17,0.9528303271565723,2.4060096152188453e-17,-0.9528303271565722,0.07099701618786515,0.9949466555473414,0.07099701618786512,300.0,83.57142857142856,[1.66822438]
1.7520452997481575e-17,0.9545363531149809,-2.4327277590427362e-17,0.9545363531149809,-7.8572893769677045e-19,0.009953431835157905,-2.4327277590427362e-17,0.009953431835157905,2.2796991802843036e-17,0.954588246430546,2.3303790747989864e-17,-0.954588246430546,0.07183993793015507,0.9948256362983329,0.07183993793015503,300.0,83.57142857142856,[1.66822438]
1.7246967234636843e-17,0.9554584329157495,-2.425088539290656e-17,0.9554584329157495,-8.465035516622665e-19,0.009061031783045258,-2.425088539290656e-17,0.009061031783045258,2.205467330369305e-17,0.955501396820953,2.251419378236094e-17,-0.9555013968209533,0.07250394068418767,0.9947292883847986,0.07250394068418764,300.0,83.57142857142856,[1.66822438]
1.6984334081428807e-17,0.9556798792314994,-2.417415405133461e-17,0.9556798792314994,-9.376654726105105e-19,0.00832829968269699,-2.417415405133461e-17,0.00832829968269699,2.1275455931778296e-17,0.9557161671456322,2.1696305439328e-17,-0.955716167145632,0.07304471044612133,0.9946501598811941,0.0730447104461213,300.0,83.57142857142856,[1.66822438]
1.6717359884366092e-17,0.9552091146075624,-2.4094370413302338e-17,0.9552091146075624,-1.0461915689774677e-18,0.007718136617988756,-2.4094370413302338e-17,0.007718136617988756,2.0465851252880795e-17,0.9552402955603463,2.0854906049283403e-17,-0.9552402955603462,0.07349090879448164,0.9945844220824709,0.07349090879448161,300.0,83.57142857142856,[1.66423547]
1.6413486814538612e-17,0.9539179838906017,-2.4010890105112567e-17,0.9539179838906017,-1.1829344503998338e-18,0.007215731882367011,-2.4010890105112567e-17,0.007215731882367011,1.9606324569654493e-17,0.9539452745186742,1.9969343133871356e-17,-0.953945274518674,0.07385358411019932,0.9945306914460487,0.07385358411019928,300.0,83.57142857142856,[1.66320357]
1.6122636876275166e-17,0.9514645529591903,-2.392573103386962e-17,0.9514645529591903,-1.3695993361510003e-18,0.006827606811491682,-2.392573103386962e-17,0.006827606811491682,1.869904640402673e-17,0.9514890497281637,1.9042225648330007e-17,-0.9514890497281636,0.0741267149752423,0.9944900503544309,0.07412671497524229,300.0,83.57142857142856,[1.66320357]
1.58361279818664e-17,0.9470334825498262,-2.383855405552235e-17,0.9470334825498262,-1.6365735332137152e-18,0.006593247150250409,-2.383855405552235e-17,0.006593247150250409,1.768324214203201e-17,0.9470564333652121,1.8014964124211164e-17,-0.9470564333652121,0.0742771168172229,0.9944676062268903,0.07427711681722288,300.0,83.57142857142856,[1.66320357]
1.5491014995419475e-17,0.9384003405811895,-2.373737042786272e-17,0.9384003405811895,-2.072848440608883e-18,0.0066270668793063335,-2.373737042786272e-17,0.0066270668793063335,1.644170359959402e-17,0.9384237407580411,1.677694649119892e-17,-0.9384237407580411,0.07420673775863351,0.9944781144612702,0.07420673775863346,300.0,83.57142857142856,[1.66320357]
1.5063422175733664e-17,0.917000888011811,-2.362523244735105e-17,0.917000888011811,-3.0083433912920544e-18,0.007241506710211315,-2.362523244735105e-17,0.007241506710211315,1.4620635702556478e-17,0.9170294804606256,1.499374194053458e-17,-0.9170294804606254,0.07361967150158046,0.9945653764011688,0.07361967150158041,300.0,83.57142857142856,[1.66320357]
1.3865294071842457e-17,0.8039635382374153,-2.348965961290514e-17,0.8039635382374153,-7.748763280600746e-18,0.006450732519643123,-2.348965961290514e-17,0.006450732519643123,1.0188429926929945e-17,0.8039894170729267,1.056549960404609e-17,-0.8039894170729265,0.07353056120702074,0.9945785605658115,0.0735305612070207,300.0,83.57142857142856,[1.66423547]
