stress_11,stress_12,stress_13,stress_21,stress_22,stress_23,stress_31,stress_32,stress_33,e1,e2,e3,anev1,anev2,anev3,temp,miss,velo
1.6159535749039932e-17,0.7934031354264118,-1.222312466178482e-17,0.7934031354264118,-3.802754416698181e-18,-0.04376985021324108,-1.222312466178482e-17,-0.04376985021324108,5.827851374905603e-19,0.7946095488302106,-7.321300345430998e-19,-0.7946095488302105,0.19642383324142412,0.9606431988358065,0.19642383324142418,100.0,109.28571428571416,[1.57659452]
1.65958106564351e-17,0.9100777718559215,-1.235500082607323e-17,0.9100777718559215,6.337924027830302e-19,-0.02750528404773249,-1.235500082607323e-17,-0.02750528404773249,4.067558091833557e-18,0.9104933231368507,3.333759170419739e-18,-0.9104933231368509,0.21327355362453665,0.9534300093078273,0.21327355362453668,100.0,109.28571428571416,[1.58847533]
1.616170627096727e-17,0.9336180054549006,-1.2901811258338401e-17,0.9336180054549006,1.276266893275417e-18,-0.019193104714060653,-1.2901811258338401e-17,-0.019193104714060653,5.022587739862781e-18,0.9338152683363834,4.497146895952102e-18,-0.9338152683363834,0.21977533157100618,0.9504723074691386,0.21977533157100615,100.0,109.28571428571416,[1.58791247]
1.5595200047931754e-17,0.9431793316964047,-1.3568178447234076e-17,0.9431793316964047,1.4086687308431049e-18,-0.015608339216046293,-1.3568178447234076e-17,-0.015608339216046293,5.42956060123887e-18,0.9433084712819874,4.982674825180849e-18,-0.9433084712819874,0.22246710386711585,0.9492190344667326,0.22246710386711582,100.0,109.28571428571416,[1.58791247]
1.4991794952131472e-17,0.9480501056632166,-1.4278820892006956e-17,0.9480501056632166,1.3761109019330177e-18,-0.013891837888508085,-1.4278820892006956e-17,-0.013891837888508085,5.628163357590402e-18,0.9481518791881167,5.211950371969439e-18,-0.9481518791881166,0.22373870631344822,0.9486210953770579,0.22373870631344825,100.0,109.28571428571416,[1.58791247]
1.4379707768621833e-17,0.950692027389258,-1.5011762058142736e-17,0.950692027389258,1.2567321959293647e-18,-0.013118582995255526,-1.5011762058142736e-17,-0.013118582995255526,5.738859975884698e-18,0.9507825346320266,5.326870978744194e-18,-0.9507825346320266,0.2243114054999474,0.9483505610929306,0.22431140549994746,100.0,109.28571428571416,[1.58791247]
1.3765450063184857e-17,0.9520118622260949,-1.576002405678907e-17,0.9520118622260949,1.0896020075242506e-18,-0.012927386055864512,-1.576002405678907e-17,-0.012927386055864512,5.781185153467812e-18,0.952099628783372,5.3546016162386344e-18,-0.9520996287833717,0.22445887771226727,0.9482807729951606,0.2244588777122673,100.0,109.28571428571416,[1.58791247]
1.3107781919201096e-17,0.9523870503894151,-1.6522530105583568e-17,0.9523870503894151,9.029371217730842e-19,-0.01316902865785924,-1.6522530105583568e-17,-0.01316902865785924,5.795293545995516e-18,0.9524780926957023,5.340046459634777e-18,-0.9524780926957024,0.22429235859853552,0.9483595709163332,0.22429235859853552,100.0,109.28571428571416,[1.58791247]
1.2441431687507978e-17,0.9519525220201606,-1.729016570815166e-17,0.9519525220201606,6.837144071118306e-19,-0.013798821094674984,-1.729016570815166e-17,-0.013798821094674984,5.7714178047947855e-18,0.9520525256750002,5.2716984869360445e-18,-0.9520525256750004,0.22384451621019433,0.9485711703004935,0.22384451621019436,100.0,109.28571428571416,[1.58791247]
1.1790275109306234e-17,0.950684581945257,-1.807417348978886e-17,0.950684581945257,4.362749073951681e-19,-0.014846385264374056,-1.807417348978886e-17,-0.014846385264374056,5.717154756611307e-18,0.9508004993182567,5.154824433172347e-18,-0.9508004993182566,0.2230924860793039,0.9489254371708619,0.22309248607930393,100.0,109.28571428571416,[1.58791247]
1.1121754355685777e-17,0.9483933539669541,-1.8861979684798904e-17,0.9483933539669541,1.6713018840511414e-19,-0.016425125597422683,-1.8861979684798904e-17,-0.016425125597422683,5.623822313735724e-18,0.9485355758217928,4.972578811091871e-18,-0.9485355758217927,0.2219501940068059,0.9494610169778864,0.2219501940068059,100.0,109.28571428571416,[1.58791247]
1.0438039948573946e-17,0.944617906139929,-1.9675598981401855e-17,0.944617906139929,-1.606186226230967e-19,-0.018788756524096912,-1.9675598981401855e-17,-0.018788756524096912,5.478397344604001e-18,0.9448047448927771,4.698021232305942e-18,-0.9448047448927771,0.22022368005794862,0.9502647323159312,0.22022368005794868,100.0,109.28571428571416,[1.58791247]
9.715256146770011e-18,0.9382916935201167,-2.051383801646774e-17,0.9382916935201167,-5.491420476168036e-19,-0.022498587117879526,-2.051383801646774e-17,-0.022498587117879526,5.240725193560365e-18,0.9385613930644867,4.263426286131583e-18,-0.9385613930644866,0.2174763429721588,0.9515293376953291,0.21747634297215884,100.0,109.28571428571416,[1.58791247]
8.940379818709937e-18,0.9265675227704178,-2.1424415417818063e-17,0.9265675227704178,-1.111307226797642e-18,-0.02896268055436111,-2.1424415417818063e-17,-0.02896268055436111,4.82072920062024e-18,0.9270200705043031,3.490011929511359e-18,-0.9270200705043031,0.21257630422306084,0.9537413851593782,0.21257630422306087,100.0,109.28571428571416,[1.58847533]
7.998373302244748e-18,0.8988918039421304,-2.2520642392416433e-17,0.8988918039421304,-2.192227146612536e-18,-0.042625964036585945,-2.2520642392416433e-17,-0.042625964036585945,3.8939163376464254e-18,0.8999019102126553,1.7973450170899212e-18,-0.8999019102126551,0.20166620976569338,0.9584682987337028,0.20166620976569338,100.0,109.28571428571416,[1.59263612]
5.955912168618613e-18,0.7705017437873722,-2.4317132943997435e-17,0.7705017437873722,-7.056366785779559e-18,-0.07374209502988241,-2.4317132943997435e-17,-0.07374209502988241,6.891407119301784e-19,0.7740225021010549,-3.889912655637695e-18,-0.7740225021010547,0.16889371931592376,0.9710560350212898,0.16889371931592378,100.0,109.28571428571416,[1.56642059]
1.52761333246129e-17,0.7963862277096593,-1.0537850042826432e-17,0.7963862277096593,-3.811436504407538e-18,-0.03743423857880633,-1.0537850042826432e-17,-0.03743423857880633,-5.317778721980904e-19,0.7972655429049945,-1.496964015019936e-18,-0.7972655429049946,0.046091294253413295,0.9978733312340253,0.046091294253413316,100.0,96.42857142857144,[1.6894144]
1.3709016493074039e-17,0.913636808444703,-7.844656261062487e-18,0.913636808444703,5.882114423089082e-19,-0.01974241455062087,-7.844656261062487e-18,-0.01974241455062087,9.832464330846325e-19,0.913850086544457,6.480618721020019e-19,-0.913850086544457,0.06397239222560953,0.9958991244427647,0.06397239222560955,100.0,96.42857142857144,[1.63913081]
1.1271520368672178e-17,0.93654459895041,-5.544615220590402e-18,0.93654459895041,1.2089807135279036e-18,-0.012505284834248877,-5.544615220590402e-18,-0.012505284834248877,-2.279048023706102e-20,0.9366280841251614,-1.6898325858161476e-19,-0.9366280841251613,0.06978228874128066,0.9951185177435187,0.06978228874128066,100.0,96.42857142857144,[1.63913081]
8.7276686698307e-18,0.9459818248072166,-3.3317002868579154e-18,0.9459818248072166,1.3131657660401825e-18,-0.008938284176975378,-3.3317002868579154e-18,-0.008938284176975378,-1.6061862262309672e-18,0.9460240513801009,-1.6680657560987919e-18,-0.9460240513801008,0.07252838380079571,0.9947257245524966,0.07252838380079571,100.0,96.42857142857144,[1.63913081]
6.1469180982244576e-18,0.9509641278844447,-1.150749679946008e-18,0.9509641278844447,1.2371974985833124e-18,-0.006750002394049325,-1.150749679946008e-18,-0.006750002394049325,-3.40120786014044e-18,0.950988083550652,-3.417017046995621e-18,-0.9509880835506519,0.07418144276213114,0.9944818887739774,0.07418144276213112,100.0,96.42857142857144,[1.62961053]
3.5509738731268406e-18,0.9538534668093239,1.0126163079139403e-18,0.9538534668093239,1.1026251390882855e-18,-0.005223105693549803,1.0126163079139403e-18,-0.005223105693549803,-5.296073502707513e-18,0.9538677670291894,-5.284728097330598e-18,-0.9538677670291893,0.07532208569941184,0.9943103976182595,0.07532208569941184,100.0,96.42857142857144,[1.62961053]
9.398359945378496e-19,0.9555221785973702,3.159839038939304e-18,0.9555221785973702,9.116192094824407e-19,-0.004068232139626962,3.159839038939304e-18,-0.004068232139626962,-7.243031671530726e-18,0.9555308390126437,-7.215973676943166e-18,-0.9555308390126435,0.07617850123685951,0.9941798991624261,0.0761785012368595,100.0,96.42857142857144,[1.62961053]
-1.662619796341785e-18,0.9563419792555701,5.310961926552855e-18,0.9563419792555701,6.858849290391697e-19,-0.0031482990660996256,5.310961926552855e-18,-0.0031482990660996256,-9.239911844682739e-18,0.9563471613768042,-9.204863340423638e-18,-0.956347161376804,0.07685724937683587,0.9940754128517886,0.07685724937683584,100.0,96.42857142857144,[1.62961053]
-4.295462894204167e-18,0.9564606241784733,7.452707481152198e-18,0.9564606241784733,4.406159512498464e-19,-0.0023921916765542307,7.452707481152198e-18,-0.0023921916765542307,-1.12671793248175e-17,0.9564636157141014,-1.1229853161586228e-17,-0.9564636157141015,0.07741318245505013,0.9939891339267056,0.07741318245505012,100.0,96.42857142857144,[1.62961053]
-6.908771294720498e-18,0.9558865994917032,9.599438453303399e-18,0.9558865994917032,1.7147123225979242e-19,-0.001762883688673701,9.599438453303399e-18,-0.001762883688673701,-1.3329175155789689e-17,0.9558882250800619,-1.3293747159576578e-17,-0.955888225080062,0.07787483345841333,0.9939170089236067,0.07787483345841333,100.0,96.42857142857144,[1.62961053]
-9.554637524146915e-18,0.9544918177434644,1.1736859921250622e-17,0.9544918177434644,-1.3240183756768782e-19,-0.0012456188210383105,1.1736859921250622e-17,-0.0012456188210383105,-1.5434581425308657e-17,0.9544926305139657,-1.5403938219490987e-17,-0.9544926305139658,0.07825379637950683,0.9938574780643297,0.07825379637950683,100.0,96.42857142857144,[1.62953631]
-1.2183139578154619e-17,0.9519344152882607,1.3871466493573328e-17,0.9519344152882607,-4.731737801599335e-19,-0.000846958067133023,1.3871466493573328e-17,-0.000846958067133023,-1.7605103352647802e-17,0.9519347920672773,-1.7580415508980387e-17,-0.9519347920672772,0.07854563579042315,0.993811433923235,0.0785456357904231,100.0,96.42857142857144,[1.62929731]
-1.4835517373363053e-17,0.94739912534936,1.6003834715158463e-17,0.94739912534936,-9.029371217730842e-19,-0.0006064138564982229,1.6003834715158463e-17,-0.0006064138564982229,-1.987112824478987e-17,0.9473993194268706,-1.9850638665364297e-17,-0.9473993194268706,0.07872106320816359,0.9937836728457319,0.07872106320816359,100.0,96.42857142857144,[1.62929731]
-1.7526964563263593e-17,0.9386615898586833,1.8128521323985125e-17,0.9386615898586833,-1.4933190860093315e-18,-0.0006384148862483237,1.8128521323985125e-17,-0.0006384148862483237,-2.235203480773851e-17,0.9386618069622298,-2.2327372908619924e-17,-0.9386618069622297,0.07869291929105142,0.9937881307939356,0.0786929192910514,100.0,96.42857142857144,[1.62929731]
-2.0305232630257698e-17,0.9171576449768724,2.023619985864678e-17,0.9171576449768724,-2.595944225097617e-18,-0.0012554052197338676,2.023619985864678e-17,-0.0012554052197338676,-2.5425493856850743e-17,0.9171585041756896,-2.5370085883610985e-17,-0.9171585041756897,0.07820896527721381,0.9938645357897299,0.07820896527721378,100.0,96.42857142857144,[1.62953631]
-2.385186545952986e-17,0.804015780229935,2.2326175073838572e-17,0.804015780229935,-7.499153258956745e-18,-0.00047154311094664683,2.2326175073838572e-17,-0.00047154311094664683,-3.11122613064793e-17,0.8040159185063791,-3.1086070894596064e-17,-0.8040159185063792,0.07875872690616821,0.9937777044551962,0.07875872690616818,100.0,96.42857142857144,[1.62929731]
4.996541476734711e-18,0.765088545160434,-2.4349103629768975e-17,0.765088545160434,-7.171404447928534e-18,-0.07812051045406787,-2.4349103629768975e-17,-0.07812051045406787,6.815438851844914e-19,0.769066509535627,-4.343388038441338e-18,-0.7690665095356274,0.31344015066218167,0.8963874965134988,0.31344015066218184,100.0,122.14285714285735,[1.66266959]
5.6498685768637934e-18,0.892334523798078,-2.2219552423458676e-17,0.892334523798078,-2.5384253940231296e-18,-0.048051860290457195,-2.2219552423458676e-17,-0.048051860290457195,3.3870994676127356e-18,0.8936273740431839,9.720208035217776e-19,-0.8936273740431836,0.3434647906879985,0.874107473435217,0.3434647906879984,100.0,122.14285714285735,[1.6629289]
5.165842187067164e-18,0.9210479303981698,-2.0813872399566302e-17,0.9210479303981698,-1.677813449833159e-18,-0.03369450567567287,-2.0813872399566302e-17,-0.03369450567567287,3.8407385504266164e-18,0.9216640438920679,2.316749113517616e-18,-0.9216640438920677,0.35406363495159315,0.8656083899834439,0.3540636349515931,100.0,122.14285714285735,[1.6462438]
4.460422560681942e-18,0.9328952053787298,-1.961513383638303e-17,0.9328952053787298,-1.3446383339866e-18,-0.027265076944700813,-1.961513383638303e-17,-0.027265076944700813,3.8125217653712075e-18,0.9332935490184333,2.672998641688842e-18,-0.9332935490184334,0.3585518876974268,0.8619054981012847,0.35855188769742674,100.0,122.14285714285735,[1.6462438]
3.7159335396046156e-18,0.9389207060768698,-1.8494542541185246e-17,0.9389207060768698,-1.1785934065451555e-18,-0.02392741607991377,-1.8494542541185246e-17,-0.02392741607991377,3.610663226128667e-18,0.9392255392290759,2.670040995198175e-18,-0.939225539229076,0.3608284731232105,0.8600032709049106,0.3608284731232105,100.0,122.14285714285735,[1.6462438]
2.9367161676898627e-18,0.9421512300946456,-1.7407992830121316e-17,0.9421512300946456,-1.0787493978875549e-18,-0.022130169714048964,-1.7407992830121316e-17,-0.022130169714048964,3.327410114610909e-18,0.9424111017917955,2.509919791948298e-18,-0.9424111017917958,0.3620402033574463,0.8589841571913871,0.36204020335744636,100.0,122.14285714285735,[1.64506474]
2.0967241818096137e-18,0.9437153722033566,-1.6342266563797796e-17,0.9437153722033566,-1.0396800031954503e-18,-0.021262431901345424,-1.6342266563797796e-17,-0.021262431901345424,2.988808693946002e-18,0.9439548690182596,2.251916871795156e-18,-0.9439548690182598,0.3626218686016937,0.8584933085491302,0.36262186860169365,100.0,122.14285714285735,[1.64506474]
1.2697553274933996e-18,0.9440844373835734,-1.529798268010803e-17,0.9440844373835734,-1.0266568716314154e-18,-0.021062083456936585,-1.529798268010803e-17,-0.021062083456936585,2.620905227262017e-18,0.9443193507862714,1.9388903987243473e-18,-0.9443193507862715,0.3627559631274553,0.8583799988530397,0.3627559631274554,100.0,122.14285714285735,[1.64506474]
4.471275170318638e-19,0.9434252683658406,-1.4266849107001476e-17,0.9434252683658406,-1.0364242203044416e-18,-0.02143394714804208,-1.4266849107001476e-17,-0.02143394714804208,2.2258702364862928e-18,0.9436687189270943,1.5779942114895254e-18,-0.9436687189270944,0.36250735366644343,0.8585900285208908,0.36250735366644343,100.0,122.14285714285735,[1.64506474]
-4.2325177583113325e-19,0.9417036565646553,-1.3244948730687395e-17,0.9417036565646553,-1.0700673101781983e-18,-0.022394429602880874,-1.3244948730687395e-17,-0.022394429602880874,1.806959504509838e-18,0.9419698972177828,1.174821134418166e-18,-0.9419698972177828,0.36186305992654366,0.8591334306853605,0.36186305992654366,100.0,122.14285714285735,[1.64506474]
-1.2958015906214693e-18,0.9386734214155447,-1.2238708330935012e-17,0.9386734214155447,-1.1330124460710335e-18,-0.02407678202160115,-1.2238708330935012e-17,-0.02407678202160115,1.3522351607322871e-18,0.9389821529211725,7.249861354384564e-19,-0.9389821529211723,0.36072768560610685,0.8600878290468499,0.3607276856061068,100.0,122.14285714285735,[1.6462438]
-2.1792040150485012e-18,0.9337426616803675,-1.1265449690156651e-17,0.9337426616803675,-1.2404532814743211e-18,-0.02680107241491664,-1.1265449690156651e-17,-0.02680107241491664,8.497593345532752e-19,0.9341272160281636,1.988412759982506e-19,-0.934127216028164,0.3588705958741988,0.8616401748025652,0.3588705958741988,100.0,122.14285714285735,[1.6462438]
-3.1212105315136903e-18,0.9255519244102526,-1.0332990078731243e-17,0.9255519244102526,-1.4390560378258529e-18,-0.03128926984189888,-1.0332990078731243e-17,-0.03128926984189888,2.897646772997758e-19,0.9260806569553005,-4.106641554459434e-19,-0.9260806569553006,0.3557597395101649,0.8642164170433926,0.355759739510165,100.0,122.14285714285735,[1.6462438]
-4.152208446999784e-18,0.910517322437377,-9.483569888229115e-18,0.910517322437377,-1.7895953290911247e-18,-0.03936093783665574,-9.483569888229115e-18,-0.03936093783665574,-4.286780806494811e-19,0.9113676963146722,-1.2681228592474065e-18,-0.911367696314672,0.34999423404042157,0.8689120049101158,0.34999423404042157,100.0,122.14285714285735,[1.66016663]
-5.465374213039966e-18,0.8757658970342175,-8.869057824753777e-18,0.8757658970342175,-2.654548317135774e-18,-0.056732930657464105,-8.869057824753777e-18,-0.056732930657464105,-1.5551789609384973e-18,0.8776015792084311,-2.6857712610729275e-18,-0.8776015792084311,0.3367117857739713,0.8793465452492587,0.3367117857739714,100.0,122.14285714285735,[1.6629289]
-8.252324367743428e-18,0.7315270693163011,-9.157805069900113e-18,0.7315270693163011,-7.326596765733283e-18,-0.0950921350056761,-9.157805069900113e-18,-0.0950921350056761,-4.6015064859589866e-18,0.7376817520329715,-7.313736164669311e-18,-0.7376817520329713,0.2958851179197759,0.9082422551209564,0.29588511791977595,100.0,122.14285714285735,[1.64827204]
-8.899139902090493e-18,0.7247592376715705,-8.4831458089539e-18,0.7247592376715705,-7.285356849113839e-18,-0.09667701824104752,-8.4831458089539e-18,-0.09667701824104752,-4.841349158929962e-18,0.7311787732464992,-7.015820603339843e-18,-0.7311787732464992,0.42949976285675284,0.7943927916415066,0.4294997628567527,100.0,135.00000000000023,[1.61720145]
-6.7937336325715234e-18,0.8675314156301847,-6.703945245030424e-18,0.8675314156301847,-2.5026117822220337e-18,-0.05874028019646498,-6.703945245030424e-18,-0.05874028019646498,-2.8759415537243666e-18,0.869517784535125,-3.892955119187082e-18,-0.8695177845351251,0.46508027197289115,0.7532600356073877,0.46508027197289115,100.0,135.00000000000023,[1.65904763]
-6.227227409536007e-18,0.9035374480699014,-5.830869756960809e-18,0.9035374480699014,-1.524791653955749e-18,-0.041168761648974574,-5.830869756960809e-18,-0.041168761648974574,-2.79129119855814e-18,0.9044748680866592,-3.306116638452718e-18,-0.9044748680866594,0.47672340981966627,0.7385591249587408,0.47672340981966616,100.0,135.00000000000023,[1.6481629]
-5.9342069493452214e-18,0.9186864046007799,-5.197823471090302e-18,0.9186864046007799,-1.06572626632352e-18,-0.0331575314599638,-5.197823471090302e-18,-0.0331575314599638,-3.0897379635672724e-18,0.9192845761192917,-3.4654482840357963e-18,-0.9192845761192919,0.4816402320590592,0.7321511959453394,0.48164023205905926,100.0,135.00000000000023,[1.6481629]
-5.762735717085429e-18,0.9264631414423116,-4.66153498301196e-18,0.9264631414423116,-7.672795013143876e-19,-0.028850130442675693,-4.66153498301196e-18,-0.028850130442675693,-3.524927609998771e-18,0.9269122301910343,-3.818743891602826e-18,-0.9269122301910342,0.48419525698492727,0.7287728769833579,0.48419525698492727,100.0,135.00000000000023,[1.6481629]
-5.6520390987911326e-18,0.9306755063707566,-4.1652315785638185e-18,0.9306755063707566,-5.48056786653134e-19,-0.02637581207346167,-4.1652315785638185e-18,-0.02637581207346167,-4.024147653286774e-18,0.931049183244902,-4.251317255634192e-18,-0.9310491832449018,0.48563476053199695,0.7268547026236124,0.48563476053199683,100.0,135.00000000000023,[1.6481629]
-5.554365612060871e-18,0.9327603434619055,-3.6909216658325434e-18,0.9327603434619055,-3.7767081535701116e-19,-0.024994847297676863,-3.6909216658325434e-18,-0.024994847297676863,-4.562437091266882e-18,0.9330951723841499,-4.756448748794007e-18,-0.93309517238415,0.4864270671580061,0.7257943349683306,0.48642706715800604,100.0,135.00000000000023,[1.6481629]
-5.495761520022714e-18,0.9333225096470278,-3.2449641957771363e-18,0.9333225096470278,-2.279048023706102e-19,-0.024384106299006725,-3.2449641957771363e-18,-0.024384106299006725,-5.120261226593042e-18,0.9336409864898966,-5.289399169450908e-18,-0.9336409864898965,0.48677083402543003,0.7253332408516615,0.48677083402543003,100.0,135.00000000000023,[1.6481629]
-5.43064586220254e-18,0.9325794834739578,-2.8105206662581602e-18,0.9325794834739578,-1.1286714022163552e-19,-0.024416782736823777,-2.8105206662581602e-18,-0.024416782736823777,-5.7106431908292895e-18,0.9328990686434258,-5.856035763683946e-18,-0.9328990686434253,0.4867422057017064,0.7253716636161598,0.4867422057017063,100.0,135.00000000000023,[1.6481629]
-5.417622730638505e-18,0.930493285803301,-2.3870823611988963e-18,0.930493285803301,-1.3023131564034869e-20,-0.02509284223086119,-2.3870823611988963e-18,-0.02509284223086119,-6.309707242774894e-18,0.9308315667489182,-6.438395847260103e-18,-0.9308315667489184,0.4863395677129333,0.7259115991314603,0.4863395677129333,100.0,135.00000000000023,[1.6481629]
-5.410025903892818e-18,0.9267583581634753,-1.9880624278221978e-18,0.9267583581634753,4.341043854678289e-20,-0.026539023512457387,-1.9880624278221978e-18,-0.026539023512457387,-6.934817557848568e-18,0.9271382713462187,-7.045953212765452e-18,-0.9271382713462188,0.4854827820578957,0.7270577258035646,0.48548278205789586,100.0,135.00000000000023,[1.6481629]
-5.463203691112627e-18,0.9206359680745668,-1.6156144308528466e-18,0.9206359680745668,6.185987492916562e-20,-0.029078392908656117,-1.6156144308528466e-18,-0.029078392908656117,-7.58705939701398e-18,0.921095075791172,-7.688682163724583e-18,-0.921095075791172,0.48396609568242077,0.7290772499946955,0.4839660956824208,100.0,135.00000000000023,[1.6481629]
-5.564132960733897e-18,0.9104330087563054,-1.2794209329510817e-18,0.9104330087563054,-5.4263048183478615e-21,-0.03345062610985275,-1.2794209329510817e-18,-0.03345062610985275,-8.29573480629021e-18,0.9110473137110936,-8.385524414523702e-18,-0.9110473137110935,0.4813045214271713,0.7325925984525936,0.4813045214271713,100.0,135.00000000000023,[1.6481629]
-5.7942082850318466e-18,0.8917232643760287,-1.0380181973448312e-18,0.8917232643760287,-2.2573428044327104e-19,-0.04152644386131519,-1.0380181973448312e-18,-0.04152644386131519,-9.114021572897068e-18,0.8926896581506973,-9.209443712865802e-18,-0.8926896581506971,0.4761995463664225,0.7392347286760999,0.4761995463664225,100.0,135.00000000000023,[1.6481629]
-6.4030396856504774e-18,0.8489921800631506,-1.048667320550839e-18,0.8489921800631506,-9.69138040556928e-19,-0.05916238027751894,-1.048667320550839e-18,-0.05916238027751894,-1.0239437192222415e-17,0.851051061363819,-1.0372638636201655e-17,-0.8510510613638191,0.46403196919813705,0.7545519618450399,0.46403196919813683,100.0,135.00000000000023,[1.65904763]
-8.90565146787251e-18,0.68733541353986,-1.953571477820574e-18,0.68733541353986,-5.5152962173687665e-18,-0.09716387109856077,-1.953571477820574e-18,-0.09716387109856077,-1.285545874514792e-17,0.6941691354078399,-1.3116147485029877e-17,-0.69416913540784,0.42509203617542207,0.7991204674893938,0.4250920361754221,100.0,135.00000000000023,[1.59592466]
-8.673405621647222e-18,0.6805620305457042,-2.035712167008315e-18,0.6805620305457042,-5.396460141846948e-18,-0.0956380836285678,-2.035712167008315e-18,-0.0956380836285678,-1.2366548681014776e-17,0.687249096369458,-1.2743273304953658e-17,-0.6872490963694582,0.540545968427663,0.6446860569557866,0.540545968427663,100.0,147.8571428571427,[1.56230694]
-5.060571873591216e-18,0.8407383854814878,-1.4334601609819317e-18,0.8407383854814878,-6.272808370010128e-19,-0.05734388174584815,-1.4334601609819317e-18,-0.05734388174584815,-9.37611209562327e-18,0.8426917310592886,-9.54414681460226e-18,-0.8426917310592886,0.5717365184083768,0.5884171199383443,0.5717365184083767,100.0,147.8571428571427,[1.51079017]
-3.3751615970123703e-18,0.8847104778949053,-1.7239370407891158e-18,0.8847104778949053,3.4348509500141964e-19,-0.04003602756571702,-1.7239370407891158e-18,-0.04003602756571702,-7.849149919740182e-18,0.8856158948439639,-8.000592609955405e-18,-0.8856158948439634,0.5811052852557742,0.569766000122516,0.5811052852557742,100.0,147.8571428571427,[1.50067839]
-2.0967241818096137e-18,0.9035208189290583,-2.2556470841769767e-18,0.9035208189290583,8.106899398611706e-19,-0.0320280994787162,-2.2556470841769767e-18,-0.0320280994787162,-6.601099811520174e-18,0.904088308404912,-6.752990442145151e-18,-0.904088308404912,0.5850212787330578,0.5616940509379424,0.5850212787330578,100.0,147.8571428571427,[1.50067839]
-9.74564345375276e-19,0.9132957303130768,-2.8778407604107884e-18,0.9132957303130768,1.1020825086064507e-18,-0.02760330519327363,-2.8778407604107884e-18,-0.02760330519327363,-5.444754254730244e-18,0.913712774051939,-5.615137072521842e-18,-0.913712774051939,0.5870860238929893,0.5573688196329618,0.5870860238929893,100.0,147.8571428571427,[1.50119314]
8.356509420255707e-20,0.9186853031505406,-3.5366280797633334e-18,0.9186853031505406,1.3240183756768782e-18,-0.024942052411585678,-3.5366280797633334e-18,-0.024942052411585678,-4.3377880717872805e-18,0.9190238256994774,-4.523667295386108e-18,-0.9190238256994773,0.5882938242177446,0.5548159629773852,0.5882938242177447,100.0,147.8571428571427,[1.50119314]
1.0939430513789289e-18,0.9214599632375534,-4.221597319864407e-18,0.9214599632375534,1.4965748689003402e-18,-0.023322321889402746,-4.221597319864407e-18,-0.023322321889402746,-3.2503565861903695e-18,0.9217550621222897,-3.4624778138840777e-18,-0.9217550621222899,0.5890140106760965,0.5532856318887366,0.5890140106760966,100.0,147.8571428571427,[1.50119314]
2.076104223499892e-18,0.9223713325785308,-4.928170036023528e-18,0.9223713325785308,1.629519336949863e-18,-0.02242399038124606,-4.928170036023528e-18,-0.02242399038124606,-2.181917167457675e-18,0.9226438698150617,-2.4190142773490037e-18,-0.922643869815062,0.5894042959839702,0.5524537553056192,0.5894042959839704,100.0,147.8571428571427,[1.50119314]
3.034389654420124e-18,0.9216962052436309,-5.638134192694116e-18,0.9216962052436309,1.742929107653333e-18,-0.0221137518211754,-5.638134192694116e-18,-0.0221137518211754,-1.124330358361677e-18,0.9219614486409494,-1.3912976358017243e-18,-0.9219614486409495,0.5895287258899399,0.5521881587839133,0.5895287258899401,100.0,147.8571428571427,[1.50119314]
3.974225648957974e-18,0.9194003132554038,-6.3736698108211696e-18,0.9194003132554038,1.8308352457105685e-18,-0.022375147544149487,-6.3736698108211696e-18,-0.022375147544149487,-8.682087709356578e-20,0.9196725413111762,-3.932151865006073e-19,-0.9196725413111759,0.5893943650585025,0.5524749450197444,0.5893943650585024,100.0,147.8571428571427,[1.50119314]
4.851116507602988e-18,0.9151274054277989,-7.119040606431477e-18,0.9151274054277989,1.8785867281120297e-18,-0.02330330730590307,-7.119040606431477e-18,-0.02330330730590307,9.382081030923453e-19,0.915424061458081,5.783990524026701e-19,-0.9154240614580811,0.5889536500431966,0.5534141272154084,0.5889536500431966,100.0,147.8571428571427,[1.50119314]
5.711728451792959e-18,0.9080051422058378,-7.888965431344809e-18,0.9080051422058378,1.8970361644944124e-18,-0.025160309581181418,-7.888965431344809e-18,-0.025160309581181418,1.9420744944866996e-18,0.908353664301777,1.509526985724073e-18,-0.9083536643017771,0.5880743147218401,0.555281190685293,0.5880743147218401,100.0,147.8571428571427,[1.50119314]
6.47249638732533e-18,0.8960321121333309,-8.694534296033664e-18,0.8960321121333309,1.819440005592038e-18,-0.02855703109950201,-8.694534296033664e-18,-0.02855703109950201,2.9188093617893147e-18,0.8964870606982209,2.3699700481065246e-18,-0.8964870606982211,0.5864368574830182,0.558733947752313,0.5864368574830183,100.0,147.8571428571427,[1.50119314]
7.05311100288855e-18,0.8740009867425602,-9.575528797697554e-18,0.8740009867425602,1.596418877557941e-18,-0.03504482195098055,-9.575528797697554e-18,-0.03504482195098055,3.813607026334877e-18,0.87470330076692,3.0492261090157522e-18,-0.87470330076692,0.5831711756531562,0.5655287435441555,0.5831711756531562,100.0,147.8571428571427,[1.50067839]
7.162722360219177e-18,0.8239566123565261,-1.0659229698731851e-17,0.8239566123565261,8.546430088897883e-19,-0.049459924637908485,-1.0659229698731851e-17,-0.049459924637908485,4.5152282393472556e-18,0.8254397513999615,3.2462698484437558e-18,-0.8254397513999614,0.57510672383047,0.5818114062219537,0.5751067238304699,100.0,147.8571428571427,[1.50067839]
5.0128203911897545e-18,0.6467517415943076,-1.2477787929790909e-17,0.6467517415943076,-3.6833757106945284e-18,-0.07958616086967846,-1.2477787929790909e-17,-0.07958616086967846,4.088720680625114e-18,0.651630088514369,9.062924463197285e-19,-0.6516300885143689,0.5482949272113391,0.6314628616067811,0.548294927211339,100.0,147.8571428571427,[1.50850815]
5.1549895774304685e-18,0.6413115137569776,-1.2316321447039944e-17,0.6413115137569776,-3.704538299486085e-18,-0.07526009020991191,-1.2316321447039944e-17,-0.07526009020991191,4.742590411236031e-18,0.6457124273666028,2.190014966321491e-18,-0.6457124273666028,0.6356571767328759,0.4380409881917202,0.635657176732876,100.0,160.7142857142859,[1.3682729]
8.029845870191166e-18,0.8173109655338692,-1.0569356525177965e-17,0.8173109655338692,7.835584157694313e-19,-0.04420010924367111,-1.0569356525177965e-17,-0.04420010924367111,5.997694715719891e-18,0.8185052620716975,4.882634398125774e-18,-0.8185052620716973,0.6538409152443293,0.380767796832815,0.6538409152443293,100.0,160.7142857142859,[1.00277086]
8.635421487918787e-18,0.8683324507123463,-9.532118359150771e-18,0.8683324507123463,1.477040171554288e-18,-0.03059156572708285,-9.532118359150771e-18,-0.03059156572708285,6.1496312506336315e-18,0.8688711577982919,5.485967470538147e-18,-0.8688711577982917,0.6587898331652441,0.3633069108016257,0.6587898331652439,100.0,160.7142857142859,[1.00277086]
8.742862323322075e-18,0.8904260503156568,-8.679442385757634e-18,0.8904260503156568,1.6653329487509589e-18,-0.024181146938142082,-8.679442385757634e-18,-0.024181146938142082,6.127383400878405e-18,0.8907543314225225,5.655762962118939e-18,-0.8907543314225224,0.6608403905319604,0.3557807702548476,0.6608403905319604,100.0,160.7142857142859,[0.99728183]
8.641933053700804e-18,0.9020374055190162,-7.892221214235818e-18,0.9020374055190162,1.6848676460970112e-18,-0.020523969542208267,-7.892221214235818e-18,-0.020523969542208267,6.041647784748509e-18,0.9022708652512544,5.685178229247692e-18,-0.9022708652512543,0.6619412126851542,0.35166413223104664,0.6619412126851542,100.0,160.7142857142859,[0.99787604]
8.487825996859725e-18,0.9085532938661096,-7.14061016808441e-18,0.9085532938661096,1.6365735332137152e-18,-0.018211946704011467,-7.14061016808441e-18,-0.018211946704011467,5.925524861635865e-18,0.9087358047296847,5.640557490297862e-18,-0.9087358047296846,0.6626118378929329,0.34912906577410524,0.6626118378929328,100.0,160.7142857142859,[0.99864242]
8.254494889670767e-18,0.9120370562533285,-6.403582316132312e-18,0.9120370562533285,1.524791653955749e-18,-0.016683729168798428,-6.403582316132312e-18,-0.016683729168798428,5.803433003223038e-18,0.9121896397121682,5.568646174553786e-18,-0.9121896397121683,0.663043224670285,0.3474872147830194,0.663043224670285,100.0,160.7142857142859,[0.99864242]
7.979923865862365e-18,0.913371299148187,-5.677610560247597e-18,0.913371299148187,1.3978161212064091e-18,-0.015685556737660707,-5.677610560247597e-18,-0.015685556737660707,5.661263816982324e-18,0.9135059752392524,5.465661363808446e-18,-0.9135059752392524,0.6633178120367026,0.34643752751352425,0.6633178120367025,100.0,160.7142857142859,[0.99864242]
7.68690340567158e-18,0.9128891420741339,-4.96961343907366e-18,0.9128891420741339,1.2192906926827645e-18,-0.01510397554435349,-4.96961343907366e-18,-0.01510397554435349,5.513125695441427e-18,0.9130140830206797,5.348783410106541e-18,-0.9130140830206797,0.6634714794580833,0.34584851003207173,0.6634714794580833,100.0,160.7142857142859,[1.01615654]
7.371092465243735e-18,0.910566856269848,-4.263854668637291e-18,0.910566856269848,1.0448349927728807e-18,-0.014909308621043985,-4.263854668637291e-18,-0.014909308621043985,5.357390747154844e-18,0.910688908036499,5.217523509223982e-18,-0.9106889080364992,0.663513420969438,0.34568754734133356,0.6635134209694381,100.0,160.7142857142859,[1.01615654]
7.016212130123785e-18,0.9060163071446438,-3.5715938314365625e-18,0.9060163071446438,8.269688543162142e-19,-0.0151461786830745,-3.5715938314365625e-18,-0.0151461786830745,5.198128700736334e-18,0.9061429001767419,5.079071793965307e-18,-0.9061429001767419,0.6634293964778333,0.3460099301726986,0.6634293964778334,100.0,160.7142857142859,[1.01615654]
6.573968287428435e-18,0.8982713203096526,-2.8895581873779083e-18,0.8982713203096526,5.743743650221211e-19,-0.01596370981022388,-2.8895581873779083e-18,-0.01596370981022388,5.016076174080763e-18,0.8984131593658635,4.911704650809355e-18,-0.8984131593658635,0.6631711645425523,0.3469985778624328,0.6631711645425523,100.0,160.7142857142859,[0.99864242]
6.072577722213092e-18,0.8851086788891512,-2.2339418649035853e-18,0.8851086788891512,2.2627691092510583e-19,-0.01772292765268588,-2.2339418649035853e-18,-0.01772292765268588,4.823984983511249e-18,0.8852860981679771,4.735977811635493e-18,-0.8852860981679771,0.6626171550609192,0.34910888221004566,0.6626171550609191,100.0,160.7142857142859,[0.99864242]
5.344910246072644e-18,0.8607559535961183,-1.6265687837048864e-18,0.8607559535961183,-2.81625220072254e-19,-0.021348486038947616,-1.6265687837048864e-18,-0.021348486038947616,4.58034389716743e-18,0.8610206556798267,4.49548213680171e-18,-0.8610206556798268,0.6614305712651961,0.353580540742265,0.6614305712651961,100.0,160.7142857142859,[0.99728183]
4.052364438342183e-18,0.8055018660670693,-1.1374891475461705e-18,0.8055018660670693,-1.2947163296577998e-18,-0.029698397082213404,-1.1374891475461705e-18,-0.029698397082213404,4.214610952410784e-18,0.8060491616686808,4.135942282409876e-18,-0.8060491616686811,0.6583683953321294,0.3648316215127108,0.6583683953321297,100.0,160.7142857142859,[1.00277086]
2.5178054357134078e-19,0.6176875663047888,-1.064064460472901e-18,0.6176875663047888,-6.118701313169049e-18,-0.045993129678884886,-1.064064460472901e-18,-0.045993129678884886,2.978227399550224e-18,0.6193975278810789,2.8045472901076036e-18,-0.6193975278810788,0.6482421346220423,0.3994549659239654,0.648242134622042,100.0,160.7142857142859,[0.95516724]
-3.364308987375674e-19,0.6146464644339464,-2.6100526176253214e-19,0.6146464644339464,-6.106763442568683e-18,-0.03973127211033287,-2.6100526176253214e-19,-0.03973127211033287,2.599471323229543e-18,0.6159292574838899,2.5496676202203767e-18,-0.61592925748389,0.6960902019084144,0.17583191295725065,0.6960902019084142,100.0,173.57142857142813,[0.38220631]
2.580207941124408e-18,0.8017472866329528,7.131521107513677e-19,0.8017472866329528,-1.2735537408662431e-18,-0.022061968869391848,7.131521107513677e-19,-0.022061968869391848,2.796717503376488e-18,0.8020507727654753,2.838106648455766e-18,-0.8020507727654751,0.7002170158475891,0.13925610017156928,0.7002170158475891,100.0,173.57142857142813,[0.42429123]
2.958964017445089e-18,0.8574993761851974,1.2994134747661821e-18,0.8574993761851974,-2.430984558619842e-19,-0.014852449582728624,1.2994134747661821e-18,-0.014852449582728624,2.1406772508382314e-18,0.857627993605975,2.1865762465543022e-18,-0.857627993605975,0.7011841799641935,0.1291568485829636,0.7011841799641937,100.0,173.57142857142813,[0.42429123]
2.7695859792847485e-18,0.881842747964985,1.79503859111203e-18,0.881842747964985,2.58834739835193e-19,-0.011313265784058236,1.79503859111203e-18,-0.011313265784058236,1.3709559123555872e-18,0.881915314597233,1.4175209578994182e-18,-0.8819153145972332,0.701587216564052,0.12470266680312832,0.7015872165640519,100.0,173.57142857142813,[0.42429123]
2.341993159598937e-18,0.8947608881399469,2.2535613482624242e-18,0.8947608881399469,6.244320269713802e-19,-0.009151774075191537,2.2535613482624242e-18,-0.009151774075191537,5.675914839991863e-19,0.8948076899053281,6.136434500434754e-19,-0.8948076899053283,0.701814159270047,0.12212195419396915,0.701814159270047,100.0,173.57142857142813,[0.42429123]
1.847656790647447e-18,0.9021258298060296,2.7032833172855606e-18,0.9021258298060296,8.928984578591406e-19,-0.007650252182139898,2.7032833172855606e-18,-0.007650252182139898,-2.5666421790785385e-19,0.9021582672467552,-2.108070587961937e-19,-0.9021582672467553,0.701964013390415,0.12038707492767531,0.7019640133904151,100.0,173.57142857142813,[0.42429123]
1.3001426344761476e-18,0.9061951766537502,3.135488496066968e-18,0.9061951766537502,1.1152412977909442e-18,-0.006519175564823714,3.135488496066968e-18,-0.006519175564823714,-1.0874314855969115e-18,0.9062186258517129,-1.0421980842850302e-18,-0.9062186258517128,0.7020729192664267,0.11911016776679588,0.7020729192664268,100.0,173.57142857142813,[0.42429123]
6.663502316931174e-19,0.9079408191502916,3.5698811539782714e-18,0.9079408191502916,1.3196773318222e-18,-0.005621382491422584,3.5698811539782714e-18,-0.005621382491422584,-1.9225397971406473e-18,0.9079582209663705,-1.8782666341802746e-18,-0.9079582209663705,0.7021570097976819,0.11811463577370647,0.7021570097976819,100.0,173.57142857142813,[0.42429123]
3.7441503246600245e-20,0.907738072538284,3.9983557481970644e-18,0.907738072538284,1.4925051402865793e-18,-0.004885720018051969,3.9983557481970644e-18,-0.004885720018051969,-2.7641596744664007e-18,0.9077512206522306,-2.721047452248754e-18,-0.9077512206522305,0.7022243494738194,0.11731123566028111,0.7022243494738195,100.0,173.57142857142813,[0.42429123]
-6.451876429015607e-19,0.9055784968732031,4.419250472872728e-18,0.9055784968732031,1.638472739900137e-18,-0.004275151482253955,4.419250472872728e-18,-0.004275151482253955,-3.611884144712795e-18,0.9055885881123537,-3.57011553025745e-18,-0.9055885881123535,0.7022790582339923,0.11665439868240662,0.7022790582339923,100.0,173.57142857142813,[0.42429123]
-1.3544056826596262e-18,0.9010671996686646,4.8416204741708795e-18,0.9010671996686646,1.7521538258445245e-18,-0.0037749383694223376,4.8416204741708795e-18,-0.0037749383694223376,-4.465713207879831e-18,0.9010751070129626,-4.4250862904205686e-18,-0.9010751070129625,0.7023227999346273,0.11612652317180142,0.7023227999346272,100.0,173.57142857142813,[0.42429123]
-2.15641353481144e-18,0.8932025224878369,5.258292855409766e-18,0.8932025224878369,1.8263585442354315e-18,-0.003391701795160197,5.258292855409766e-18,-0.003391701795160197,-5.325375548726591e-18,0.8932089620126425,-5.285397156073341e-18,-0.8932089620126425,0.7023549480946545,0.11573700261329889,0.7023549480946544,100.0,173.57142857142813,[0.42429123]
-3.0278780886381067e-18,0.8796698589183188,5.673846061279868e-18,0.8796698589183188,1.8072308197507553e-18,-0.003165101700043679,5.673846061279868e-18,-0.003165101700043679,-6.207014424087661e-18,0.8796755530069859,-6.166142062935503e-18,-0.8796755530069857,0.7023712345830845,0.11553916072253093,0.7023712345830845,100.0,173.57142857142813,[0.42429123]
-4.126704814353549e-18,0.8544595929799836,6.082345070886118e-18,0.8544595929799836,1.6323681469794956e-18,-0.0032099515415551175,6.082345070886118e-18,-0.0032099515415551175,-7.107102735831112e-18,0.8544656223771783,-7.061354841231525e-18,-0.8544656223771783,0.7023582646607405,0.11569674206954558,0.7023582646607404,100.0,173.57142857142813,[0.42429123]
-5.8085879928004684e-18,0.7971365867912846,6.4701562933724175e-18,0.7971365867912846,9.501459736927106e-19,-0.003839968548249261,6.4701562933724175e-18,-0.003839968548249261,-8.110155181502714e-18,0.7971458356911304,-8.047765434790465e-18,-0.7971458356911303,0.7022711119661315,0.11675003467111397,0.7022711119661312,100.0,173.57142857142813,[0.42429123]
-1.0103779571763718e-17,0.605759104871207,6.845893987637892e-18,0.605759104871207,-3.528658194561385e-18,-0.0030744239934326657,6.845893987637892e-18,-0.0030744239934326657,-9.888490928095767e-18,0.6057669066705917,-9.819037491798407e-18,-0.6057669066705917,0.7022497799230739,0.11700638100543263,0.7022497799230737,100.0,173.57142857142813,[0.37878146]
-1.0359358528707902e-17,0.6057147051965818,7.101540773392305e-18,0.6057147051965818,-3.4332908873789217e-18,0.003887045198294352,7.101540773392305e-18,0.003887045198294352,-1.0161434060458664e-17,0.6057271772107933,-1.0252569119323384e-17,-0.6057271772107934,0.7021381227188628,0.11833897603775004,0.7021381227188628,100.0,173.57142857142813,[0.37878146]
-6.558774633937061e-18,0.7970036616197624,6.6145638303507e-18,0.7970036616197624,1.2332634275900102e-18,0.004672589311421081,6.6145638303507e-18,0.004672589311421081,-8.938751927264432e-18,0.7970173584848589,-9.01622335882547e-18,-0.7970173584848591,0.7021844203268458,0.11778828337531218,0.702184420326846,100.0,173.57142857142813,[0.42429123]
-5.381537803596492e-18,0.8542385687154451,6.1450273701393145e-18,0.8542385687154451,2.107101989774704e-18,0.004061932282953827,6.1450273701393145e-18,0.004061932282953827,-8.487825996859725e-18,0.8542482259711657,-8.546197426799335e-18,-0.8542482259711659,0.7022762429271583,0.11668829093028404,0.7022762429271581,100.0,173.57142857142813,[0.42429123]
-4.790341893637492e-18,0.8793612337990161,5.690235197551534e-18,0.8793612337990161,2.4575734522297465e-18,0.004035913456219895,5.690235197551534e-18,0.004035913456219895,-8.137422363214912e-18,0.8793704953578744,-8.18956639873858e-18,-0.8793704953578745,0.702289883314475,0.11652398717981768,0.702289883314475,100.0,173.57142857142813,[0.42429123]
-4.414570284966903e-18,0.8928068645801225,5.245473210276419e-18,0.8928068645801225,2.6592963338518282e-18,0.00428083226386367,5.245473210276419e-18,0.00428083226386367,-7.803840274506977e-18,0.8928171273929847,-7.854044507149199e-18,-0.8928171273929847,0.7022729610228771,0.11672778774705564,0.7022729610228771,100.0,173.57142857142813,[0.42429123]
-4.135115586821988e-18,0.9005851447862115,4.799982063291338e-18,0.9005851447862115,2.7688398623722257e-18,0.004681872020667625,4.799982063291338e-18,0.004681872020667625,-7.494947872722525e-18,0.9005973145280968,-7.544770642834248e-18,-0.9005973145280967,0.7022395672449843,0.11712890501987114,0.7022395672449843,100.0,173.57142857142813,[0.42429123]
-3.928102058002017e-18,0.9050107464367013,4.359739170497753e-18,0.9050107464367013,2.8531510734873056e-18,0.005199366058886894,4.359739170497753e-18,0.005199366058886894,-7.201384782049906e-18,0.9050256817203196,-7.251356808914333e-18,-0.9050256817203198,0.7021942105201271,0.11767149792550018,0.7021942105201271,100.0,173.57142857142813,[0.42429123]
-3.744964270382777e-18,0.9070853913929848,3.9240747223946494e-18,0.9070853913929848,2.8922204681794102e-18,0.005826686862304463,3.9240747223946494e-18,0.005826686862304463,-6.9028023594203154e-18,0.9071041051380794,-6.953106231054942e-18,-0.9071041051380792,0.7021376006463835,0.11834517107630406,0.7021376006463834,100.0,173.57142857142813,[0.42429123]
-3.611205856610502e-18,0.9072040333572233,3.488147437651907e-18,0.9072040333572233,2.905989716655968e-18,0.006578568093950471,3.488147437651907e-18,0.006578568093950471,-6.608560980645403e-18,0.907227885207339,-6.659014467241961e-18,-0.9072278852073391,0.7020680782342027,0.1191672230483984,0.7020680782342028,100.0,173.57142857142813,[0.42429123]
-3.505664227893636e-18,0.9053751712796002,3.0531612776510963e-18,0.9053751712796002,2.88910034290886e-18,0.007492043632101765,3.0531612776510963e-18,0.007492043632101765,-6.3171684119001225e-18,0.9054061693446486,-6.367599368280257e-18,-0.9054061693446487,0.7019814635460203,0.12018340016647508,0.7019814635460202,100.0,173.57142857142813,[0.42429123]
-3.4438043529644707e-18,0.901223546743295,2.6315034788603528e-18,0.901223546743295,2.8486743720121686e-18,0.008638266051657949,2.6315034788603528e-18,0.008638266051657949,-6.043953964296307e-18,0.901264944866349,-6.094096449930619e-18,-0.901264944866349,0.701869545585315,0.12148366951869062,0.701869545585315,100.0,173.57142857142813,[0.42429123]
-3.442719092000801e-18,0.8937773240258678,2.2120162019969484e-18,0.8937773240258678,2.765584079481217e-18,0.010154399606730674,2.2120162019969484e-18,0.010154399606730674,-5.7745379300653356e-18,0.8938350053417099,-5.824506771887538e-18,-0.8938350053417099,0.7017158786051877,0.12324630390684829,0.7017158786051877,100.0,173.57142857142813,[0.42429123]
-3.5412065244538144e-18,0.8807789523717845,1.81325062665861e-18,0.8807789523717845,2.6065255194933953e-18,0.012329975378722118,1.81325062665861e-18,0.012329975378722118,-5.52119732385872e-18,0.8808652514624347,-5.571558873576753e-18,-0.8808652514624348,0.7014836023330527,0.1258630657329114,0.7014836023330527,100.0,173.57142857142813,[0.42429123]
-3.855525231056614e-18,0.8563564506704889,1.444346685023742e-18,0.8563564506704889,2.258631551827068e-18,0.015882729835630792,1.444346685023742e-18,0.015882729835630792,-5.310181895235217e-18,0.8565037254513195,-5.365218501659012e-18,-0.8565037254513193,0.701071701894879,0.13037230382422357,0.701071701894879,100.0,173.57142857142813,[0.42429123]
-4.7267184696423635e-18,0.800526387453208,1.1701063266652083e-18,0.800526387453208,1.4173169041473468e-18,0.02310534407439248,1.1701063266652083e-18,0.02310534407439248,-5.20063836671482e-18,0.8008597592173552,-5.2676749688418254e-18,-0.8008597592173552,0.7000840153569737,0.1405871362654268,0.7000840153569738,100.0,173.57142857142813,[0.42429123]
-8.134302237944362e-18,0.6133488217617903,1.2785645942219362e-18,0.6133488217617903,-3.2213936842224377e-18,0.04078739982047954,1.2785645942219362e-18,0.04078739982047954,-5.944042126828477e-18,0.6147034969322136,-6.145976524890056e-18,-0.6147034969322136,0.6958589082157655,0.17765348213172058,0.6958589082157656,100.0,173.57142857142813,[0.38374498]
-7.990505160258144e-18,0.6163153750978801,1.5908484365178558e-18,0.6163153750978801,-3.305026607235224e-18,0.04707832103561534,1.5908484365178558e-18,0.04707832103561534,-6.2643975975416895e-18,0.6181108394888193,-6.437199017821336e-18,-0.6181108394888195,0.6476998544582953,0.4012104149562998,0.6476998544582951,100.0,160.7142857142859,[0.95516724]
-4.587126778190365e-18,0.8040587751428933,1.5428341174767557e-18,0.8040587751428933,1.1783220913042381e-18,0.030833873566926722,1.5428341174767557e-18,0.030833873566926722,-5.8525071474239714e-18,0.8046497633401948,-5.971417914405871e-18,-0.8046497633401949,0.6579868388920105,0.36620573410283824,0.6579868388920104,100.0,160.7142857142859,[1.00277086]
-3.69260042888572e-18,0.8592435001514138,1.9044337441100507e-18,0.8592435001514138,1.8555927614442806e-18,0.02253310636840763,1.9044337441100507e-18,0.02253310636840763,-6.317507555951269e-18,0.859538907458564,-6.411595800029077e-18,-0.8595389074585638,0.6610745234978557,0.35490977552635344,0.6610745234978556,100.0,160.7142857142859,[0.99728183]
-3.3531850624980614e-18,0.8835284908629266,2.3945138552196493e-18,0.8835284908629266,2.027776196211481e-18,0.018955909455737927,2.3945138552196493e-18,0.018955909455737927,-6.90856780828981e-18,0.8837318149019047,-7.00926300165447e-18,-0.8837318149019044,0.6622632942808375,0.35044922327861683,0.6622632942808374,100.0,160.7142857142859,[0.99787604]
-3.222004143514502e-18,0.8966250494077093,2.925609200014807e-18,0.8966250494077093,2.027810110616596e-18,0.01724435562084072,2.925609200014807e-18,0.01724435562084072,-7.535339929214102e-18,0.8967908602490076,-7.648439935349666e-18,-0.8967908602490076,0.6628121200550791,0.34836789033460447,0.662812120055079,100.0,160.7142857142859,[0.99864242]
-3.187140135056617e-18,0.9043056107737076,3.4836919326799664e-18,0.9043056107737076,1.9475855853178342e-18,0.016473814658412227,3.4836919326799664e-18,0.016473814658412227,-8.19480553666894e-18,0.904455650790136,-8.320437495690248e-18,-0.904455650790136,0.663061824642788,0.3474162250136763,0.663061824642788,100.0,160.7142857142859,[0.99864242]
-3.2172561267984475e-18,0.9087933905438181,4.050397402845532e-18,0.9087933905438181,1.837058539049111e-18,0.016283270142613875,4.050397402845532e-18,0.016283270142613875,-8.856441666051118e-18,0.908939256266702,-9.000780769194761e-18,-0.9089392562667024,0.6631353772911642,0.3471353378292254,0.6631353772911642,100.0,160.7142857142859,[0.99864242]
-3.2750462731138522e-18,0.911054557679935,4.629125529624249e-18,0.911054557679935,1.6756090135007052e-18,0.016523603604155227,4.629125529624249e-18,0.016523603604155227,-9.532118359150771e-18,0.911204387909458,-9.698132586345033e-18,-0.9112043879094579,0.663081542392184,0.34734095105185164,0.663081542392184,100.0,160.7142857142859,[0.99864242]
-3.3639020145142985e-18,0.9114772383848875,5.2246540048366485e-18,0.9114772383848875,1.5103102029717832e-18,0.017150197657513095,5.2246540048366485e-18,0.017150197657513095,-1.0209863830962419e-17,0.9116385716792769,-1.0403905277049524e-17,-0.911638571679277,0.6629146698945927,0.3479774143203636,0.6629146698945928,100.0,160.7142857142859,[0.99864242]
-3.50417199406859e-18,0.9100851508319602,5.824409062786464e-18,0.9100851508319602,1.286475129214934e-18,0.018192735661129736,5.824409062786464e-18,0.018192735661129736,-1.0907042256904775e-17,0.9102669703969644,-1.1136406560288392e-17,-0.9102669703969641,0.6626253720888654,0.34907768838495756,0.6626253720888653,100.0,160.7142857142859,[0.99864242]
-3.674354478934025e-18,0.9065451634243402,6.432078895029917e-18,0.9065451634243402,1.065777137931192e-18,0.019764679810981508,6.432078895029917e-18,0.019764679810981508,-1.1606119889533553e-17,0.9067605945871791,-1.1884871472233882e-17,-0.9067605945871788,0.662177201971459,0.35077443803461367,0.662177201971459,100.0,160.7142857142859,[0.99787604]
-3.883335043250647e-18,0.8999746571097762,7.063268367220395e-18,0.8999746571097762,7.860511245453599e-19,0.022119801826831015,7.063268367220395e-18,0.022119801826831015,-1.2320526833274164e-17,0.9002464490753176,-1.2664498544636113e-17,-0.9002464490753175,0.6614864674185863,0.3533713441185624,0.6614864674185862,100.0,160.7142857142859,[0.99728183]
-4.184020158997348e-18,0.8883102797612336,7.728245065506368e-18,0.8883102797612336,4.286780806494811e-19,0.025819468737362003,7.728245065506368e-18,0.025819468737362003,-1.3068712524508991e-17,0.8886854325886977,-1.3507649935530205e-17,-0.8886854325886976,0.6603593126775132,0.35756280052623535,0.6603593126775132,100.0,160.7142857142859,[0.99728183]
-4.685275066592232e-18,0.8661652491418735,8.455965532904808e-18,0.8661652491418735,-1.0165842933123573e-19,0.03227180133310041,8.455965532904808e-18,0.03227180133310041,-1.387202608125772e-17,0.8667662360649995,-1.4486320186667058e-17,-0.8667662360649997,0.6582681782956378,0.36519311451160225,0.6582681782956378,100.0,160.7142857142859,[1.00277086]
-5.676728785714615e-18,0.8150939471579101,9.373916137892095e-18,0.8150939471579101,-1.1313167258152998e-18,0.04592177635722174,9.373916137892095e-18,0.04592177635722174,-1.485094842769023e-17,0.8163865213471281,-1.590531983909126e-17,-0.816386521347128,0.6532327969759485,0.3828496126548363,0.6532327969759485,100.0,160.7142857142859,[1.00277086]
-8.957269192457044e-18,0.6390464386674078,1.0994513866646479e-17,0.6390464386674078,-5.9691133508095e-18,0.07702305591513091,1.0994513866646479e-17,0.07702305591513091,-1.693566691008925e-17,0.6436714238771224,-1.9173380719020677e-17,-0.6436714238771227,0.6346844448593051,0.44085293569088463,0.634684444859305,100.0,160.7142857142859,[1.3682729]
-8.752019212703037e-18,0.64444219820612,1.0859814328132272e-17,0.64444219820612,-6.0147790972964085e-18,0.08140229501444057,1.0859814328132272e-17,0.08140229501444057,-1.7252190053024503e-17,0.6495629919125274,-1.9669882693403457e-17,-0.6495629919125276,0.5468591350474277,0.6339480837027259,0.5468591350474277,100.0,147.85714285714295,[1.50850815]
-5.551855946082385e-18,0.8216103180865003,8.58458591430221e-18,0.8216103180865003,-1.2678561208069779e-18,0.05135020141820082,8.58458591430221e-18,0.05135020141820082,-1.529956817854714e-17,0.8232134340326872,-1.6362634421628335e-17,-0.8232134340326874,0.574091747298914,0.583812753686111,0.5740917472989142,100.0,147.85714285714295,[1.50706904]
-4.588754669635869e-18,0.8716187926859948,7.033998115956112e-18,0.8716187926859948,-3.2087266539121066e-19,0.03700802015233293,7.033998115956112e-18,0.03700802015233293,-1.4486165086276795e-17,0.8724040997834588,-1.5079810639248002e-17,-0.8724040997834586,0.582226645434948,0.567471820173597,0.5822266454349478,100.0,147.85714285714295,[1.50067839]
-4.124602121236439e-18,0.8936151035512283,5.685124720630817e-18,0.8936151035512283,1.2012482291617579e-19,0.030592475877177307,5.685124720630817e-18,0.030592475877177307,-1.3872229567688408e-17,0.894138609430981,-1.425462380969091e-17,-0.894138609430981,0.5855022763048857,0.5606907961466776,0.5855022763048856,100.0,147.85714285714295,[1.50067839]
-3.8306320577024435e-18,0.9055544421463316,4.418843500011352e-18,0.9055544421463316,3.823170888577215e-19,0.027267459617766533,4.418843500011352e-18,0.027267459617766533,-1.3324681497111994e-17,0.9059648790350321,-1.3587120616791392e-17,-0.9059648790350318,0.5871303179553854,0.5572754969269831,0.5871303179553854,100.0,147.85714285714295,[1.50119314]
-3.6357938003186406e-18,0.9126441312826074,3.1821483585538008e-18,0.9126441312826074,5.78342350420538e-19,0.02548165865478105,3.1821483585538008e-18,0.02548165865478105,-1.2811132617663041e-17,0.9129997947931774,-1.2978983667778396e-17,-0.9129997947931775,0.5879914159201454,0.5554567396372513,0.5879914159201454,100.0,147.85714285714295,[1.50119314]
-3.4703254177641455e-18,0.9168855673451238,1.9698440333246588e-18,0.9168855673451238,7.223344359361657e-19,0.024624207317248223,1.9698440333246588e-18,0.024624207317248223,-1.2322985627644978e-17,0.9172161660109314,-1.241897283978395e-17,-0.9172161660109317,0.5884088065814237,0.5545720446207589,0.588408806581424,100.0,147.85714285714295,[1.50119314]
-3.3434855426352646e-18,0.9191510735303893,7.839526707288894e-19,0.9191510735303893,8.270790761328369e-19,0.02443302802401063,7.839526707288894e-19,0.02443302802401063,-1.1843079838069781e-17,0.9194757576089156,-1.1883083045797248e-17,-0.9194757576089158,0.5885162293215515,0.5543440228326503,0.5885162293215515,100.0,147.85714285714295,[1.50119314]
-3.2341115861404405e-18,0.9197968861600996,-4.0736711633554775e-19,0.9197968861600996,9.177153238018034e-19,0.02481298683430367,-4.0736711633554775e-19,0.02481298683430367,-1.1380309301678774e-17,0.9201315102231065,-1.1353321786698949e-17,-0.9201315102231067,0.5883616871824021,0.5546720203072755,0.5883616871824022,100.0,147.85714285714295,[1.50119314]
-3.164010510768409e-18,0.9188572612003958,-1.5727890157942919e-18,0.9188572612003958,9.78091443507202e-19,0.025780535299458025,-1.5727890157942919e-18,0.025780535299458025,-1.0926229331598402e-17,0.9192188544960439,-1.0830821555664889e-17,-0.919218854496044,0.5879378492083659,0.5555701314294008,0.5879378492083659,100.0,147.85714285714295,[1.50119314]
-3.119887869714218e-18,0.9160553965359252,-2.7231963722136735e-18,0.9160553965359252,1.0134599287411678e-18,0.027468970909834755,-2.7231963722136735e-18,0.027468970909834755,-1.0497017099068365e-17,0.9164671482848888,-1.0322778665616823e-17,-0.9164671482848886,0.5871796027808976,0.5571716325838336,0.5871796027808976,100.0,147.85714285714295,[1.50119314]
-3.1330466588987116e-18,0.9106396676739111,-3.845394362353765e-18,0.9106396676739111,1.0021028423283913e-18,0.03019840887074033,-3.845394362353765e-18,0.03019840887074033,-1.008962878622962e-17,0.9111402461968058,-9.82241753267578e-18,-0.9111402461968057,0.5859267715342827,0.5598032125656527,0.5859267715342826,100.0,147.85714285714295,[1.50119314]
-3.1887680265021212e-18,0.9008396555351793,-4.929361279503181e-18,0.9008396555351793,9.105805808258038e-19,0.0346908654597834,-4.929361279503181e-18,0.0346908654597834,-9.728932130632504e-18,0.9015073716454514,-9.342941457643068e-18,-0.9015073716454512,0.5838042981846137,0.5642207749120389,0.5838042981846137,100.0,147.85714285714295,[1.50067839]
-3.4227095929831434e-18,0.8820052962285835,-5.92205287441225e-18,0.8820052962285835,6.549740684274639e-19,0.042765949236469404,-5.92205287441225e-18,0.042765949236469404,-9.462110548392805e-18,0.8830414876943028,-8.873481356427525e-18,-0.8830414876943029,0.5798022176140242,0.5724148643245731,0.5798022176140243,100.0,147.85714285714295,[1.50067839]
-4.053280127280279e-18,0.8380103641428011,-6.684961656767485e-18,0.8380103641428011,-1.182340948310327e-19,0.06014054876737178,-6.684961656767485e-18,0.06014054876737178,-9.470445013449736e-18,0.8401656122555784,-8.512735038567752e-18,-0.8401656122555783,0.5702592209500151,0.5912772969114946,0.5702592209500152,100.0,147.85714285714295,[1.51079017]
-6.587703621499878e-18,0.6778127324154369,-6.54578859625362e-18,0.6778127324154369,-4.6733626317957024e-18,0.09850153696277193,-6.54578859625362e-18,0.09850153696277193,-1.09448313828038e-17,0.6849325901200121,-8.811432551434746e-18,-0.6849325901200122,0.5383981147857544,0.6482707304747697,0.5383981147857543,100.0,147.85714285714295,[1.56230694]
-6.10659387054311e-18,0.6845672399510433,-6.500841411225079e-18,0.6845672399510433,-4.700049029320312e-18,0.10010301517988604,-6.500841411225079e-18,0.10010301517988604,-1.0506627593617736e-17,0.6918474684945327,-8.600164770252974e-18,-0.6918474684945327,0.4223938450211803,0.8019768571327017,0.42239384502118027,100.0,134.9999999999996,[1.59161109]
-3.178390218537031e-18,0.8462164270836469,-6.691240590926919e-18,0.8462164270836469,-1.7548796961556164e-19,0.062197565874826145,-6.691240590926919e-18,0.062197565874826145,-7.545662626270881e-18,0.8484991329795014,-6.496222116724697e-18,-0.8484991329795016,0.4620033366773956,0.7570375379054237,0.46200333667739574,100.0,134.9999999999996,[1.65904763]
-2.1360479345400784e-18,0.8889402097866446,-5.9728910975917265e-18,0.8889402097866446,5.581230060212332e-19,0.04465640078200343,-5.9728910975917265e-18,0.04465640078200343,-6.088326724088219e-18,0.8900611724518299,-5.464989494778311e-18,-0.8900611724518298,0.47428414761589155,0.7416933966542609,0.4742841476158914,100.0,134.9999999999996,[1.65183256]
-1.4754461945138982e-18,0.9076434492369048,-5.0087443036250346e-18,0.9076434492369048,7.7407510023924055e-19,0.03667465529492939,-5.0087443036250346e-18,0.03667465529492939,-4.9373226861038505e-18,0.9083840934779016,-4.5435102444590485e-18,-0.9083840934779013,0.4794055731465523,0.7350786304008923,0.47940557314655224,100.0,134.9999999999996,[1.6481629]
-9.526725968737538e-19,0.9178408441753318,-3.954518200110869e-18,0.9178408441753318,8.219463428837629e-19,0.03239588792863056,-3.954518200110869e-18,0.03239588792863056,-3.896069902371207e-18,0.9184123849291069,-3.6173623509208584e-18,-0.918412384929107,0.4820519468033104,0.7316090767385797,0.4820519468033105,100.0,134.9999999999996,[1.6481629]
-4.716645891323305e-19,0.9239586705325705,-2.8631542332583947e-18,0.9239586705325705,8.0579036814726e-19,0.029949357807998168,-2.8631542332583947e-18,0.029949357807998168,-2.8981088567674455e-18,0.9244439349605938,-2.7101097719224625e-18,-0.9244439349605938,0.483538957266605,0.7296438539527682,0.48353895726660495,100.0,134.9999999999996,[1.6481629]
-4.70731942991677e-20,0.9276900755857238,-1.7373480683616496e-18,0.9276900755857238,7.375397475042979e-19,0.028595337407973903,-1.7373480683616496e-18,0.028595337407973903,-1.936639711067073e-18,0.9281306856589334,-1.8273026873393744e-18,-0.9281306856589333,0.48435783455399045,0.728556776244884,0.48435783455399056,100.0,134.9999999999996,[1.6481629]
3.5689824222427326e-19,0.9297738274935868,-5.984149090352059e-19,0.9297738274935868,6.408020863901694e-19,0.02801069596798517,-5.984149090352059e-19,0.02801069596798517,-1.0038028018847644e-18,0.9301956618801687,-9.70341189854829e-19,-0.9301956618801688,0.48471690875385076,0.7280790044605204,0.4847169087538508,100.0,134.9999999999996,[1.6481629]
7.272265888739575e-19,0.9305155201728386,5.554448278423338e-19,0.9305155201728386,5.0309370424719495e-19,0.02806862405731714,5.554448278423338e-19,0.02806862405731714,-7.952927999391085e-20,0.9309387632594314,-1.1785630988817908e-19,-0.9309387632594315,0.48469723881506455,0.7281051938903504,0.48469723881506455,100.0,134.9999999999996,[1.6481629]
1.0970292622443642e-18,0.9299531698975706,1.7300347448462182e-18,0.9299531698975706,3.5357992964883436e-19,0.028769082001723616,1.7300347448462182e-18,0.028769082001723616,8.112368096436447e-19,0.9303980644228372,7.0343209982832805e-19,-0.9303980644228375,0.4843002808990582,0.7286332931195133,0.4843002808990583,100.0,134.9999999999996,[1.6481629]
1.4266942371615542e-18,0.92786933836152,2.9130290753675825e-18,0.92786933836152,1.6581176590628118e-19,0.030238800802829924,2.9130290753675825e-18,0.030238800802829924,1.6931893932520244e-18,0.9283619413490832,1.5031780424993235e-18,-0.9283619413490832,0.4834485870102877,0.7297636106545139,0.48344858701028753,100.0,134.9999999999996,[1.6481629]
1.7362649270482997e-18,0.9236592142296832,4.133288978159015e-18,0.9236592142296832,-5.791096638362575e-20,0.03280083622360642,4.133288978159015e-18,0.03280083622360642,2.5251945367277674e-18,0.9242414397160319,2.2394371466742892e-18,-0.9242414397160323,0.48194029164055924,0.7317561824725672,0.48194029164055935,100.0,134.9999999999996,[1.6481629]
1.9779983281044182e-18,0.9158860100535713,5.38677069032317e-18,0.9158860100535713,-3.64796059315353e-19,0.03719484977639766,5.38677069032317e-18,0.03719484977639766,3.2927644301359498e-18,0.9166409549336855,2.8457239928665165e-18,-0.9166409549336854,0.47929953137471126,0.7352169193156292,0.4792995313747112,100.0,134.9999999999996,[1.6481629]
2.1339961130306406e-18,0.9007419641794784,6.746737540552734e-18,0.9007419641794784,-8.302707396016757e-19,0.04529154233744788,6.746737540552734e-18,0.04529154233744788,3.921952952424663e-18,0.9018799309449175,3.22625239490171e-18,-0.9018799309449174,0.4742595951468567,0.7417247958793605,0.47425959514685667,100.0,134.9999999999996,[1.65183256]
1.972020914202957e-18,0.864742416423022,8.342598950076601e-18,0.864742416423022,-1.8254942568175872e-18,0.06294741411428557,8.342598950076601e-18,0.06294741411428557,4.184861660174256e-18,0.867030462962405,3.0457334050313064e-18,-0.8670304629624052,0.46237994889430784,0.7565775345072009,0.4623799488943079,100.0,134.9999999999996,[1.65904763]
3.362528481107154e-19,0.7219789682669914,1.0838790046524073e-17,0.7219789682669914,-6.6008247868911975e-18,0.10096781574101815,1.0838790046524073e-17,0.10096781574101815,2.5553402035740734e-18,0.7290048905428422,-4.715266712337171e-19,-0.7290048905428426,0.4259307177373947,0.7982268144928581,0.4259307177373948,100.0,134.9999999999996,[1.60965235]
4.37300818149887e-19,0.728755611539762,1.085779085694586e-17,0.728755611539762,-6.7171405981829315e-18,0.09947341417001694,1.085779085694586e-17,0.09947341417001694,2.4470472687422795e-18,0.7355132231831948,-1.8467766001006722e-19,-0.7355132231831948,0.29177346442982377,0.9108987270323945,0.29177346442982377,100.0,122.14285714285755,[1.64555629]
1.7097523408499033e-18,0.8730174199409484,8.542342873168984e-18,0.8730174199409484,-2.1833908543424237e-18,0.06122287421642129,8.542342873168984e-18,0.06122287421642129,4.474647533977228e-18,0.8751615027225946,3.229730874659027e-18,-0.8751615027225949,0.3333973997787157,0.881868668023523,0.3333973997787157,100.0,122.14285714285755,[1.6629289]
1.542622152444789e-18,0.907792223516082,7.114874168771881e-18,0.907792223516082,-1.435845297504137e-18,0.04395732637857457,7.114874168771881e-18,0.04395732637857457,4.5885236277510254e-18,0.9088558563483126,3.920428524581398e-18,-0.9088558563483126,0.3468055740620236,0.8714653106113981,0.3468055740620236,100.0,122.14285714285755,[1.65892711]
1.0726871979733069e-18,0.9228513950435074,5.9303857497314415e-18,0.9228513950435074,-1.206379902585672e-18,0.035990356878113694,5.9303857497314415e-18,0.035990356878113694,4.2833490926272695e-18,0.9235529238338002,3.8365919052299965e-18,-0.9235529238338005,0.352585759501797,0.8668140310315021,0.35258575950179705,100.0,122.14285714285755,[1.65542069]
5.213661498278855e-19,0.9310681177504835,4.840695246806345e-18,0.9310681177504835,-1.1338722292319485e-18,0.0316051316671253,4.840695246806345e-18,0.0316051316671253,3.832340495860095e-18,0.9316043818269237,3.498447615790261e-18,-0.9316043818269237,0.3556749160262303,0.8642862420630494,0.3556749160262303,100.0,122.14285714285755,[1.6462438]
-8.09706422112845e-20,0.9360263712680491,3.779620553109334e-18,0.9360263712680491,-1.1462909954985882e-18,0.028982004197454416,3.779620553109334e-18,0.028982004197454416,3.314853306117201e-18,0.9364749458883207,3.0788228945166036e-18,-0.9364749458883206,0.35749397728149485,0.8627839314770044,0.35749397728149485,100.0,122.14285714285755,[1.6462438]
-6.865632171414632e-19,0.9390856654177102,2.751212585357584e-18,0.9390856654177102,-1.2030729831307013e-18,0.027398896752791477,2.751212585357584e-18,0.027398896752791477,2.7447330792866514e-18,0.9394852774452049,2.583647108840649e-18,-0.9394852774452049,0.35858243161721487,0.8618800841596068,0.35858243161721487,100.0,122.14285714285755,[1.6462438]
-1.3372026006652078e-18,0.9408379450199933,1.733124135187133e-18,0.9408379450199933,-1.2925526965939995e-18,0.026535625403545027,1.733124135187133e-18,0.026535625403545027,2.150188121822578e-18,0.9412120792919104,2.0508925416011443e-18,-0.94121207929191,0.3591740884265026,0.861387223266042,0.35917408842650256,100.0,122.14285714285755,[1.6462438]
-1.9759125921898658e-18,0.9415294279562559,7.422857770481776e-19,0.9415294279562559,-1.402656872623949e-18,0.026258821905226406,7.422857770481776e-19,0.026258821905226406,1.5309513577847018e-18,0.941895530000799,1.4882587725556808e-18,-0.9418955300007987,0.3593656059749178,0.8612274510746626,0.3593656059749177,100.0,122.14285714285755,[1.6462438]
-2.6525939995410408e-18,0.9411943569086929,-2.443463999876882e-19,0.9411943569086929,-1.5398981368277268e-18,0.02655196426864821,-2.443463999876882e-19,0.02655196426864821,8.824125477277473e-19,0.94156881016912,8.921612768022106e-19,-0.9415688101691199,0.35917002332888426,0.8613906133014555,0.3591700233288843,100.0,122.14285714285755,[1.6462438]
-3.3255109079244873e-18,0.93966592225906,-1.216199315169675e-18,0.93966592225906,-1.7117381882431415e-18,0.027510117977317127,-1.216199315169675e-18,0.027510117977317127,2.023958705985761e-19,0.9400685358239025,2.725309312273201e-19,-0.9400685358239026,0.35852132711185664,0.8619309229931982,0.35852132711185664,100.0,122.14285714285755,[1.6462438]
-4.026089252979589e-18,0.9364728545339297,-2.1633783083274314e-18,0.9364728545339297,-1.9280800331636773e-18,0.02939529632843285,-2.1633783083274314e-18,0.02939529632843285,-5.30526218684327e-19,0.9369340909184398,-3.9477502538046143e-19,-0.93693409091844,0.3572339578035487,0.8629993040460838,0.3572339578035487,100.0,122.14285714285755,[1.6462438]
-4.76195553655651e-18,0.9304866049801311,-3.0700106429984203e-18,0.9304866049801311,-2.220532427068791e-18,0.032818309646091594,-3.0700106429984203e-18,0.032818309646091594,-1.3472921361868233e-18,0.9310651768246291,-1.138365375851289e-18,-0.9310651768246289,0.3548657946633587,0.8649511752439475,0.35486579466335866,100.0,122.14285714285755,[1.6462438]
-5.577596979564423e-18,0.9186804582710308,-3.906099425293147e-18,0.9186804582710308,-2.674695460946065e-18,0.03933043877256504,-3.906099425293147e-18,0.03933043877256504,-2.3374242533348945e-18,0.9195219778902045,-2.0108346774617677e-18,-0.9195219778902046,0.3502501378564858,0.8687057510244914,0.3502501378564859,100.0,122.14285714285755,[1.66016663]
-6.5826249393339556e-18,0.8900102868878838,-4.533824196557985e-18,0.8900102868878838,-3.644094350970457e-18,0.05376784624262375,-4.533824196557985e-18,0.05376784624262375,-3.803177286936955e-18,0.8916329357172852,-3.255537438034256e-18,-0.891632935717285,0.3394141696983541,0.8772662325747834,0.3394141696983541,100.0,122.14285714285755,[1.6629289]
-8.726642759075982e-18,0.7628105319358223,-4.433616005479837e-18,0.7628105319358223,-8.418968096400178e-18,0.08391422638468762,-4.433616005479837e-18,0.08391422638468762,-7.530344973235806e-18,0.7674122132348118,-6.2764699178840546e-18,-0.767412213234812,0.30847891496134155,0.8998230481870013,0.3084789149613417,100.0,122.14285714285755,[1.66472599]
-9.124568952887732e-18,0.7682673192011745,-5.15711333457263e-18,0.7682673192011745,-8.475145586256751e-18,0.07961850457769792,-5.15711333457263e-18,0.07961850457769792,-8.012924701689263e-18,0.7723818874259992,-7.011790097945788e-18,-0.772381887425999,0.1634989604490832,0.9729009095813087,0.1634989604490832,100.0,109.28571428571402,[1.56571262]
-8.2891808475018e-18,0.8967169797654343,-6.3220583127094496e-18,0.8967169797654343,-3.806382065742147e-18,0.048599061777355464,-6.3220583127094496e-18,0.048599061777355464,-4.769337218794751e-18,0.8980329674378784,-4.104103809351313e-18,-0.8980329674378785,0.1970810618873865,0.9603739428424117,0.1970810618873865,100.0,109.28571428571402,[1.57659452]
-8.572696795659197e-18,0.9244526689829027,-6.769776417311631e-18,0.9244526689829027,-2.9585532027175084e-18,0.03502876370838178,-6.769776417311631e-18,0.03502876370838178,-3.798012758933086e-18,0.9251160745963447,-3.301620313725847e-18,-0.9251160745963447,0.2081035385524814,0.9557122132126761,0.20810353855248134,100.0,109.28571428571402,[1.58991904]
-8.988606102783003e-18,0.9362381447618672,-7.033945257176265e-18,0.9362381447618672,-2.6115749239892773e-18,0.028654292687613922,-7.033945257176265e-18,0.028654292687613922,-3.349786733123055e-18,0.9366765355215061,-2.921964454782569e-18,-0.9366765355215061,0.21301572207146047,0.9535452817253873,0.21301572207146047,100.0,109.28571428571402,[1.58847533]
-9.496236918539446e-18,0.9426272284161925,-7.236257931499794e-18,0.9426272284161925,-2.4265746261297745e-18,0.025030714546947073,-7.236257931499794e-18,0.025030714546947073,-3.0741177304490653e-18,0.9429595051869001,-2.697669076420463e-18,-0.9429595051869001,0.21574354125190012,0.9523179347340778,0.21574354125190004,100.0,109.28571428571402,[1.58791247]
-1.0030456627905793e-17,0.9464671735474318,-7.400598130171647e-18,0.9464671735474318,-2.315917486322682e-18,0.02274988303563665,-7.400598130171647e-18,0.02274988303563665,-2.878759098911784e-18,0.9467405493486586,-2.5297240751738767e-18,-0.9467405493486585,0.21743707991105474,0.9515472834071393,0.21743707991105474,100.0,109.28571428571402,[1.58791247]
-1.0587479535411119e-17,0.94882453853743,-7.549476870782051e-18,0.94882453853743,-2.2573563172034983e-18,0.021250389355258425,-7.549476870782051e-18,0.021250389355258425,-2.7477005897341854e-18,0.9490624763304664,-2.4142239397324767e-18,-0.9490624763304664,0.21853971919204251,0.9510419455896391,0.21853971919204254,100.0,109.28571428571402,[1.58791247]
-1.1145036594797001e-17,0.9501602509907728,-7.677874357700524e-18,0.9501602509907728,-2.235426282518077e-18,0.02027841580209021,-7.677874357700524e-18,0.02027841580209021,-2.653000442489837e-18,0.9503766183520566,-2.3283026842479143e-18,-0.9503766183520566,0.21924835846826557,0.9507156854801238,0.21924835846826557,100.0,109.28571428571402,[1.58791247]
-1.1714542123034847e-17,0.9506641745065418,-7.812370674740332e-18,0.9506641745065418,-2.225708878105708e-18,0.01972045389236264,-7.812370674740332e-18,0.01972045389236264,-2.5943857522000817e-18,0.9508686917718583,-2.274496310708204e-18,-0.9508686917718582,0.21965030645415376,0.9505301077552422,0.21965030645415376,100.0,109.28571428571402,[1.58791247]
-1.2282968749259982e-17,0.95035998793619,-7.924223562284007e-18,0.95035998793619,-2.2539794492879786e-18,0.019546775382514956,-7.924223562284007e-18,0.019546775382514956,-2.562360485432811e-18,0.950560983366102,-2.2413027940650225e-18,-0.9505609833661021,0.21976862115644447,0.9504754106814075,0.21976862115644447,100.0,109.28571428571402,[1.58791247]
-1.2861173322409743e-17,0.9491127449820423,-8.027685217885627e-18,0.9491127449820423,-2.309385717623555e-18,0.01980195532385158,-8.027685217885627e-18,0.01980195532385158,-2.573745127299743e-18,0.9493192930315878,-2.2443904115835798e-18,-0.9493192930315882,0.21956983287564757,0.9505672921902584,0.21956983287564755,100.0,109.28571428571402,[1.58791247]
-1.3463251517109914e-17,0.9465449956887321,-8.12284811129039e-18,0.9465449956887321,-2.4038655537128032e-18,0.020635073827286268,-8.12284811129039e-18,0.020635073827286268,-2.6372244150731344e-18,0.9467698955581761,-2.2873233376403334e-18,-0.9467698955581764,0.21894037350707782,0.9508576264074249,0.21894037350707787,100.0,109.28571428571402,[1.58791247]
-1.407781869149356e-17,0.9417499863948047,-8.19239098999855e-18,0.9417499863948047,-2.5854417551981013e-18,0.022407115952788093,-8.19239098999855e-18,0.022407115952788093,-2.799460860802717e-18,0.9420165156301331,-2.4144841890607652e-18,-0.942016515630133,0.21760086459776093,0.951472399732443,0.2176008645977609,100.0,109.28571428571402,[1.58791247]
-1.4732008489302748e-17,0.9322660974548591,-8.212692205891452e-18,0.9322660974548591,-2.920315903254018e-18,0.026042696670697293,-8.212692205891452e-18,0.026042696670697293,-3.1700690012945977e-18,0.9326297756953692,-2.7274035613960813e-18,-0.9326297756953695,0.2148143234800729,0.9527379560275727,0.21481432348007293,100.0,109.28571428571402,[1.58791247]
-1.5522404897003426e-17,0.9088053262210806,-8.114142376232153e-18,0.9088053262210806,-3.7815460567075344e-18,0.03439978302033824,-8.114142376232153e-18,0.03439978302033824,-4.0914470808487855e-18,0.9094561375017775,-3.493907448004432e-18,-0.9094561375017778,0.20813033041517925,0.9557005446909279,0.2081303304151793,100.0,109.28571428571402,[1.58991904]
-1.7174502749158383e-17,0.792213722027656,-7.603338510186243e-18,0.792213722027656,-8.435496864636653e-18,0.05069875580589071,-7.603338510186243e-18,0.05069875580589071,-7.52656245724036e-18,0.7938343310850051,-6.610303397603828e-18,-0.7938343310850051,0.19044016501843467,0.9630498881654587,0.19044016501843467,100.0,109.28571428571402,[1.58940348]
-1.6933523943616066e-17,0.79526757673705,-6.960914758823381e-18,0.79526757673705,-8.318655115109351e-18,0.0444515641878104,-6.960914758823381e-18,0.0444515641878104,-7.919965317269941e-18,0.7965089203316952,-7.154103625272907e-18,-0.7965089203316953,0.03983337395233752,0.9984120415134957,0.0398333739523375,100.0,96.42857142857196,[1.69296204]
-1.5064810546693046e-17,0.9126096187496594,-5.612369313145982e-18,0.9126096187496594,-3.438072023631221e-18,0.026807587809305557,-5.612369313145982e-18,0.026807587809305557,-4.998170428005375e-18,0.9130032656012528,-4.677185232598565e-18,-0.913003265601253,0.058505194377817114,0.9965712641159326,0.05850519437781711,100.0,96.42857142857196,[1.66709862]
-1.4029581809168896e-17,0.9356076292972386,-3.889554296005768e-18,0.9356076292972386,-2.3534611964581336e-18,0.01962072556226794,-3.889554296005768e-18,0.01962072556226794,-4.607477010996909e-18,0.9358133408275331,-4.449207936312358e-18,-0.9358133408275331,0.06442110616878241,0.9958412735772612,0.0644211061687824,100.0,96.42857142857196,[1.63913081]
-1.3130008572453125e-17,0.9451354531280788,-2.065396346236586e-18,0.9451354531280788,-1.781908284728707e-18,0.016101558062896044,-2.065396346236586e-18,0.016101558062896044,-4.787085050921324e-18,0.9452725982126385,-4.718099747164478e-18,-0.9452725982126385,0.06719039250440403,0.9954752143123448,0.06719039250440402,100.0,96.42857142857196,[1.63913081]
-1.2265165806225097e-17,0.9502090907228948,-2.1314998273447978e-19,0.9502090907228948,-1.3747736012985252e-18,0.01395742698641234,-2.1314998273447978e-19,0.01395742698641234,-5.172625598002679e-18,0.9503115940892821,-5.168092064895508e-18,-0.9503115940892819,0.06884217552994097,0.9952494711059181,0.06884217552994097,100.0,96.42857142857196,[1.63913081]
-1.1406832486128769e-17,0.9531905676813287,1.6605122677723834e-18,0.9531905676813287,-1.042251337750424e-18,0.012470588256635138,1.6605122677723834e-18,0.012470588256635138,-5.6615340723980815e-18,0.9532721405181842,-5.706090893219815e-18,-0.9532721405181839,0.06997194591775314,0.9950918819732008,0.06997194591775314,100.0,96.42857142857196,[1.63913081]
-1.056912972259376e-17,0.9549522104018543,3.5298496367582554e-18,0.9549522104018543,-7.637220656872613e-19,0.011351496936376446,3.5298496367582554e-18,0.011351496936376446,-6.2006358663632026e-18,0.9550196755219674,-6.2853767477226016e-18,-0.9550196755219675,0.07081332516475108,0.9949728367941623,0.07081332516475108,100.0,96.42857142857196,[1.63913081]
-9.718397468543758e-18,0.955865696419768,5.416261451459771e-18,0.955865696419768,-5.106977510517833e-19,0.010462974280302292,5.416261451459771e-18,0.010462974280302292,-6.7948157140597135e-18,0.9559229589369839,-6.913480355274642e-18,-0.9559229589369841,0.0714751848341314,0.9948781814402473,0.07147518483413141,100.0,96.42857142857196,[1.63913081]
-8.897516249945628e-18,0.956078730479227,7.306080604050152e-18,0.956078730479227,-2.8480628528949446e-19,0.009733854360664528,7.306080604050152e-18,0.009733854360664528,-7.421009700359316e-18,0.956128279466456,-7.569544463807455e-18,-0.9561282794664561,0.07201330785036573,0.9948005664377645,0.07201330785036575,100.0,96.42857142857196,[1.63913081]
-8.061988247638598e-18,0.955599742222139,9.193033459495763e-18,0.955599742222139,-8.30631345112309e-20,0.00912709179928774,9.193033459495763e-18,0.00912709179928774,-8.076777577831495e-18,0.9556433284127146,-8.25222193746907e-18,-0.9556433284127147,0.07245630701663061,0.9947362299358679,0.07245630701663063,100.0,96.42857142857196,[1.63913081]
-7.247618594822485e-18,0.9543005853623729,1.1088285872007103e-17,0.9543005853623729,9.697320725590149e-20,0.008627943677206313,1.1088285872007103e-17,0.008627943677206313,-8.770257213966032e-18,0.9543395876914386,-8.970606197337277e-18,-0.9543395876914387,0.0728150269545933,0.9946838410767532,0.0728150269545933,100.0,96.42857142857196,[1.63913081]
-6.435427942534991e-18,0.9518393383667577,1.29863524846327e-17,0.9518393383667577,2.083650708550487e-19,0.008243030863954216,1.29863524846327e-17,0.008243030863954216,-9.540791438346269e-18,0.9518750304637109,-9.765519739888242e-18,-0.9518750304637111,0.07308298323509399,0.994644537069861,0.073082983235094,100.0,96.42857142857196,[1.63725247]
-5.641684606979559e-18,0.9474006834720835,1.4887708065924623e-17,0.9474006834720835,2.6223664612011377e-19,0.008012016651047213,1.4887708065924623e-17,0.008012016651047213,-1.0397060748943822e-17,0.9474345610405962,-1.0648482633429773e-17,-0.9474345610405962,0.07322593274879241,0.9946235094477403,0.07322593274879242,100.0,96.42857142857196,[1.63725247]
-4.87454076328563e-18,0.9387602357761002,1.6797575964183114e-17,0.9387602357761002,1.3459653675648567e-19,0.008049719547120283,1.6797575964183114e-17,0.008049719547120283,-1.1481507236978062e-17,0.9387947476734128,-1.1769064788595252e-17,-0.9387947476734128,0.07314294820560967,0.9946357213852636,0.07314294820560971,100.0,96.42857142857196,[1.63725247]
-4.201810384130314e-18,0.917353901581416,1.8721822808460888e-17,0.917353901581416,-4.879244929735696e-19,0.008669855331040286,1.8721822808460888e-17,0.008669855331040286,-1.3151179109933381e-17,0.9173948698014981,-1.3504140904703907e-17,-0.9173948698014982,0.07252679878728602,0.9947259556859552,0.07252679878728605,100.0,96.42857142857196,[1.63913081]
-4.2985363871676845e-18,0.80431066619762,2.0660042188928693e-17,0.80431066619762,-4.915372117305958e-18,0.007891650266722663,2.0660042188928693e-17,0.007891650266722663,-1.7423850464075326e-17,0.8043493804953119,-1.7827909394330598e-17,-0.8043493804953118,0.07227307022841271,0.9947628896573887,0.07227307022841276,100.0,96.42857142857196,[1.63913081]
-3.599314618317169e-18,0.8043516691380315,2.0296601844709985e-17,0.8043516691380315,-4.955912151885476e-18,0.0009301984443491553,2.0296601844709985e-17,0.0009301984443491553,-1.6924943599122053e-17,0.8043522070052914,-1.697186991944528e-17,-0.8043522070052915,0.0799833839231724,0.993582063340717,0.07998338392317239,100.0,83.57142857142804,[1.62517117]
-2.0998125123253687e-18,0.9174882502857525,1.82594267546662e-17,0.9174882502857525,-5.997753933450697e-19,0.00015759491080441515,1.82594267546662e-17,0.00015759491080441515,-1.1634380127420515e-17,0.9174882638206158,-1.164065260773723e-17,-0.9174882638206155,0.07929153358655007,0.9936929633458144,0.07929153358655004,100.0,83.57142857142804,[1.62517117]
-1.3670451575158014e-18,0.938986068109291,1.6208939498865573e-17,0.938986068109291,-4.5036210341967584e-20,0.0007787454958434232,1.6208939498865573e-17,0.0007787454958434232,-8.962823206207152e-18,0.9389863910344458,-8.989703715939781e-18,-0.9389863910344458,0.0797535625348805,0.9936190107510974,0.0797535625348805,100.0,83.57142857142804,[1.62517117]
-7.444296708683759e-19,0.9477172088552553,1.4128098055618446e-17,0.9477172088552553,1.0483260568493725e-20,0.0008128611387579502,1.4128098055618446e-17,0.0008128611387579502,-6.876492729740027e-18,0.9477175574524441,-6.900723620800736e-18,-0.947717557452444,0.07977348602597298,0.9936158119990482,0.07977348602597296,100.0,83.57142857142804,[1.62517117]
-1.5599990457654202e-19,0.952245985170781,1.2053971200910512e-17,0.952245985170781,-1.2228991323957078e-19,0.0005736480608576571,1.2053971200910512e-17,0.0005736480608576571,-5.008571552123982e-18,0.9522461579581032,-5.023092794075886e-18,-0.9522461579581032,0.07959411976000558,0.9936445804206149,0.07959411976000558,100.0,83.57142857142804,[1.62517117]
4.400266884609789e-19,0.9547968053146795,9.971059654169935e-18,0.9547968053146795,-3.120388902058529e-19,0.0001759210077138395,9.971059654169935e-18,0.0001759210077138395,-3.2350664886094506e-18,0.9547968215213745,-3.2387406936092385e-18,-0.9547968215213746,0.07930030395845655,0.9936915636072358,0.07930030395845657,100.0,83.57142857142804,[1.62517117]
1.0208596280071258e-18,0.9561849600653282,7.887214865137054e-18,0.9561849600653282,-5.594424221061535e-19,-0.00034065469974085903,7.887214865137054e-18,-0.00034065469974085903,-1.5331886486971104e-18,0.956185020746904,-1.5275684509605714e-18,-0.9561850207469041,0.07892050229569872,0.9937520357890036,0.0789205022956987,100.0,83.57142857142804,[1.62517117]
1.5805278591113966e-18,0.9567523275215386,5.8041494450310854e-18,0.9567523275215386,-8.232601286475216e-19,-0.0009694504114641737,5.8041494450310854e-18,-0.0009694504114641737,1.3884345488915624e-19,0.9567528186799252,1.5060737474895561e-19,-0.9567528186799251,0.07845881362358663,0.9938251501796271,0.07845881362358663,100.0,83.57142857142804,[1.62517117]
2.1678723644395607e-18,0.9566270050187096,3.7068563358278586e-18,0.9566270050187096,-1.1425617357174239e-18,-0.0017251956161706589,3.7068563358278586e-18,-0.0017251956161706589,1.770451177316471e-18,0.9566285606393842,1.7838231141749307e-18,-0.9566285606393841,0.07790352478722788,0.9939125120710832,0.07790352478722787,100.0,83.57142857142804,[1.62548438]
2.7253721932668118e-18,0.9558005132807745,1.6159725523982616e-18,0.9558005132807745,-1.4615920275464089e-18,-0.002644916818886626,1.6159725523982616e-18,-0.002644916818886626,3.366516073271028e-18,0.9558041728161533,3.375454422855229e-18,-0.9558041728161534,0.07722612324672211,0.9940182351328192,0.07722612324672214,100.0,83.57142857142804,[1.62548438]
3.268761509916039e-18,0.954125100713498,-4.84187350742779e-19,0.954125100713498,-1.811009891314432e-18,-0.003799756053039361,-4.84187350742779e-19,-0.003799756053039361,4.914286326429708e-18,0.9541326668538317,4.910401359247848e-18,-0.9541326668538316,0.0763719234047787,0.9941502193486201,0.07637192340477868,100.0,83.57142857142804,[1.62548438]
3.820826555323663e-18,0.9512290504632299,-2.5908592833393442e-18,0.9512290504632299,-2.2213380266684095e-18,-0.005326864083911383,-2.5908592833393442e-18,-0.005326864083911383,6.413764586355413e-18,0.9512439655136568,6.3846870415679706e-18,-0.9512439655136569,0.07523477478336443,0.9943236180070312,0.07523477478336443,100.0,83.57142857142804,[1.62548438]
4.3381759677957796e-18,0.9462400150145311,-4.718694500237728e-18,0.9462400150145311,-2.6901344639619405e-18,-0.007515756177177213,-4.718694500237728e-18,-0.007515756177177213,7.800918866453896e-18,0.9462698624629312,7.72564663900597e-18,-0.9462698624629311,0.07358745514260578,0.9945701447817896,0.0735874551426058,100.0,83.57142857142804,[1.62548438]
4.834896943356895e-18,0.9367959988875462,-6.874034597759938e-18,0.9367959988875462,-3.3436967127983615e-18,-0.011084152606956214,-6.874034597759938e-18,-0.011084152606956214,8.992725113266696e-18,0.9368615703350898,8.829579679029369e-18,-0.9368615703350897,0.0708520135088718,0.9949673282894654,0.0708520135088718,100.0,83.57142857142804,[1.63500467]
5.226894475224537e-18,0.9138812245505273,-9.126387082949426e-18,0.9138812245505273,-4.509095296103589e-18,-0.018324726142734865,-9.126387082949426e-18,-0.018324726142734865,9.60757897035608e-18,0.9140649255792379,9.239960315708379e-18,-0.9140649255792378,0.06506833265667626,0.9957571110318821,0.06506833265667628,100.0,83.57142857142804,[1.63500467]
4.7490511054103764e-18,0.7966229035466258,-1.1763193993148659e-17,0.7966229035466258,-9.455543739224331e-18,-0.03602709514183666,-1.1763193993148659e-17,-0.03602709514183666,7.68970717313192e-18,0.7974371461371832,6.6213242032325165e-18,-0.7974371461371834,0.04734477576691811,0.9977559543371118,0.04734477576691813,100.0,83.57142857142804,[1.68528826]
4.865612796139192e-18,0.7936372246234205,-1.288626885613037e-17,0.7936372246234205,-9.456671260716249e-18,-0.04232375319339839,-1.288626885613037e-17,-0.04232375319339839,8.16704235678194e-18,0.7947649617291529,6.781490312635078e-18,-0.7947649617291527,0.19766861154712323,0.9601324075449517,0.19766861154712323,100.0,70.71428571428592,[1.55648065]
5.8707064650686334e-18,0.9103030010984515,-1.195193004221843e-17,0.9103030010984515,-4.499046828806917e-18,-0.02607034094645488,-1.195193004221843e-17,-0.02607034094645488,1.0768677842987864e-17,0.9106762413096724,1.0080937485045372e-17,-0.9106762413096721,0.21434013220856943,0.9529515283841179,0.21434013220856943,100.0,70.71428571428592,[1.5677986]
5.985871306236788e-18,0.933834889501211,-1.1421867894475967e-17,0.933834889501211,-3.3211146206833527e-18,-0.017762780215121978,-1.1421867894475967e-17,-0.017762780215121978,1.08419265990846e-17,0.9340038100622018,1.0406486011486406e-17,-0.934003810062202,0.2208072877780431,0.9499938333106216,0.22080728777804315,100.0,70.71428571428592,[1.5677986]
5.979499637375869e-18,0.9433878453657832,-1.1025802356210448e-17,0.9433878453657832,-2.6718396295747485e-18,-0.014180905578377655,-1.1025802356210448e-17,-0.014180905578377655,1.0363592000308858e-17,0.9434944222765272,1.0031589941068422e-17,-0.9434944222765274,0.2234846356844408,0.9487408683228449,0.2234846356844408,100.0,70.71428571428592,[1.5677986]
5.941112770086697e-18,0.9482500888718595,-1.0669179668527731e-17,0.9482500888718595,-2.189558771816365e-18,-0.012466779567793799,-1.0669179668527731e-17,-0.012466779567793799,9.684346875896045e-18,0.9483320365980901,9.403593027258275e-18,-0.9483320365980901,0.22474839255821114,0.9481436178580757,0.22474839255821114,100.0,70.71428571428592,[1.5677986]
5.869082812923768e-18,0.9508832782261287,-1.0332550251289912e-17,0.9508832782261287,-1.7790397354554724e-18,-0.011695769876624847,-1.0332550251289912e-17,-0.011695769876624847,8.906751566388418e-18,0.9509552039097721,8.65186925193549e-18,-0.9509552039097721,0.2253162440232878,0.9478740319042804,0.2253162440232878,100.0,70.71428571428592,[1.5677986]
5.804102812724053e-18,0.9521941611273177,-1.001180999780461e-17,0.9521941611273177,-1.4128807409845734e-18,-0.011506857966305255,-1.001180999780461e-17,-0.011506857966305255,8.071366640477965e-18,0.9522636863102639,7.829387077906104e-18,-0.9522636863102641,0.22546054165269594,0.9478054063547782,0.225460541652696,100.0,70.71428571428592,[1.5677986]
5.713085027997546e-18,0.9525601683549548,-9.703788308628032e-18,0.9525601683549548,-1.0794141732190605e-18,-0.011750921370021497,-9.703788308628032e-18,-0.011750921370021497,7.19989784735066e-18,0.9526326461388274,6.960527406739156e-18,-0.9526326461388275,0.22529195415752376,0.9478855789512618,0.2252919541575238,100.0,70.71428571428592,[1.5677986]
5.616085590068939e-18,0.9521162238540499,-9.402821213149745e-18,0.9521162238540499,-7.761995197721269e-19,-0.0123833362716032,-9.402821213149745e-18,-0.0123833362716032,6.295056219765355e-18,0.9521967500171965,6.0507974498660104e-18,-0.9521967500171963,0.2248429226016222,0.9480987924852144,0.22484292260162225,100.0,70.71428571428592,[1.5677986]
5.5158430871512406e-18,0.9508386276056509,-9.11419962352392e-18,0.9508386276056509,-4.929244168823019e-19,-0.013433777017528592,-9.11419962352392e-18,-0.013433777017528592,5.356299127240215e-18,0.9509335213946107,5.0992693961240815e-18,-0.9509335213946108,0.22409057045848488,0.9484549712364745,0.22409057045848496,100.0,70.71428571428592,[1.5677986]
5.403662713633177e-18,0.948537499081185,-8.835345912483704e-18,0.948537499081185,-2.46277401428905e-19,-0.015015694248858479,-8.835345912483704e-18,-0.015015694248858479,4.385255521045906e-18,0.9486563435918005,4.106042686120954e-18,-0.9486563435918006,0.22294902899174224,0.948992866645097,0.2229490289917423,100.0,70.71428571428592,[1.5677986]
5.2838812740687875e-18,0.9447519021149713,-8.579300168795685e-18,0.9447519021149713,-4.833067685131023e-20,-0.017382845813298107,-8.579300168795685e-18,-0.017382845813298107,3.3482876104344705e-18,0.944911805343983,3.0324433131929607e-18,-0.9449118053439831,0.2212248933992346,0.9497995015165014,0.22122489339923462,100.0,70.71428571428592,[1.5677986]
5.121236265740089e-18,0.938415287433098,-8.349487879854592e-18,0.938415287433098,8.422933962148276e-20,-0.021096583174516438,-8.349487879854592e-18,-0.021096583174516438,2.236568111649653e-18,0.9386523943983648,1.861520555793556e-18,-0.9386523943983648,0.21848290100913417,0.951068054312238,0.21848290100913417,100.0,70.71428571428592,[1.5677986]
4.904048415385716e-18,0.9266804571382227,-8.190997982304093e-18,0.9266804571382227,4.681141748468881e-20,-0.02756501181420692,-8.190997982304093e-18,-0.02756501181420692,9.343874333911453e-19,0.9270903405376535,4.4800024975964945e-19,-0.9270903405376533,0.21359484370876167,0.9532861508917768,0.21359484370876167,100.0,70.71428571428592,[1.56836146]
4.509161800132368e-18,0.8989938164228914,-8.21883448884434e-18,0.8989938164228914,-5.063765126797794e-19,-0.041233101666469735,-8.21883448884434e-18,-0.041233101666469735,-8.76238006346557e-19,0.8999389149490278,-1.620351982601684e-18,-0.8999389149490279,0.20271738626078567,0.9580246983325593,0.2027173862607857,100.0,70.71428571428592,[1.57252225]
3.02467317735477e-18,0.7705925668425941,-8.949852800944819e-18,0.7705925668425941,-4.854722032796742e-18,-0.0723545536163868,-8.949852800944819e-18,-0.0723545536163868,-4.9633350348268056e-18,0.7739819671685407,-6.481430768683617e-18,-0.7739819671685407,0.17012648548075193,0.9706255497749556,0.17012648548075193,100.0,70.71428571428592,[1.54583634]
2.7279390898039287e-18,0.7651665119770635,-8.795190263241842e-18,0.7651665119770635,-4.758077636296679e-18,-0.07673899736646246,-8.795190263241842e-18,-0.07673899736646246,-5.267351181050863e-18,0.7690049835781014,-6.835222951381124e-18,-0.7690049835781014,0.3145789751677285,0.8955892678928457,0.3145789751677285,100.0,57.857142857142705,[1.52627207]
4.145578180799865e-18,0.8923977081581016,-7.366170504723323e-18,0.8923977081581016,-2.004383735283635e-19,-0.046677078334549114,-7.366170504723323e-18,-0.046677078334549114,-2.260776637950571e-18,0.8936176023152642,-2.9987539206878733e-18,-0.8936176023152642,0.3444162513042354,0.8733583981820267,0.3444162513042354,100.0,57.857142857142705,[1.52938435]
4.441600065843298e-18,0.921095704989669,-6.658289566882533e-18,0.921095704989669,5.534973991111396e-19,-0.03232703063344272,-6.658289566882533e-18,-0.03232703063344272,-1.508968464319434e-18,0.9216628096326719,-1.9690057834924413e-18,-0.9216628096326718,0.35497193967144514,0.8648640610476215,0.354971939671445,100.0,57.857142857142705,[1.51670104]
4.49641422310989e-18,0.932926932000586,-6.1598133883785875e-18,0.932926932000586,7.907122355983079e-19,-0.025905521663715805,-6.1598133883785875e-18,-0.025905521663715805,-1.2365785606899696e-18,0.9332865350494968,-1.5773257156672995e-18,-0.9332865350494967,0.35943955665842436,0.861165727498715,0.35943955665842436,100.0,57.857142857142705,[1.51324882]
4.507572062392618e-18,0.9389357359896051,-5.74196897299107e-18,0.9389357359896051,8.489983800885147e-19,-0.0225764309068825,-5.74196897299107e-18,-0.0225764309068825,-1.1399988135246564e-18,0.939207118558433,-1.4101711284173432e-18,-0.9392071185584329,0.3617027944631426,0.8592683963437194,0.3617027944631426,100.0,57.857142857142705,[1.51206976]
4.4782954521773755e-18,0.9421489044188798,-5.361565530937573e-18,0.9421489044188798,8.573593407744417e-19,-0.020788442814275707,-5.361565530937573e-18,-0.020788442814275707,-1.128883367248322e-18,0.9423782242031794,-1.3635278390985384e-18,-0.9423782242031794,0.362904349752809,0.8582545460765014,0.362904349752809,100.0,57.857142857142705,[1.51206976]
4.435173286074067e-18,0.9436950223543158,-4.9940161783351175e-18,0.9436950223543158,8.125456937160392e-19,-0.019930689444089225,-4.9940161783351175e-18,-0.019930689444089225,-1.1707443414114281e-18,0.9439054653926047,-1.3790564673378352e-18,-0.9439054653926048,0.3634774689926709,0.8577693507402582,0.36347746899267097,100.0,57.857142857142705,[1.51206976]
4.3575856057729715e-18,0.9440453855754065,-4.647799251506082e-18,0.9440453855754065,7.230975100512459e-19,-0.01974108964078396,-4.647799251506082e-18,-0.01974108964078396,-1.2364789371249453e-18,0.9442517676162558,-1.42835674509445e-18,-0.9442517676162556,0.3636039742822733,0.8576621128231514,0.3636039742822733,100.0,57.857142857142705,[1.51206976]
4.2933347652832214e-18,0.9433668281740237,-4.3163352233800744e-18,0.9433668281740237,6.142524063111788e-19,-0.020124504048897766,-4.3163352233800744e-18,-0.020124504048897766,-1.3380313839401976e-18,0.9435814581488619,-1.5187085032779855e-18,-0.943581458148862,0.363348449924697,0.8578786673385926,0.363348449924697,100.0,57.857142857142705,[1.51206976]
4.200536474288194e-18,0.9416251335722409,-3.993112793131368e-18,0.9416251335722409,4.902157687300573e-19,-0.021097376822485137,-3.993112793131368e-18,-0.021097376822485137,-1.4554494133981585e-18,0.9418614502588643,-1.6338427163139557e-18,-0.941861450258864,0.36269787432741796,0.8584290907912809,0.3626978743274179,100.0,57.857142857142705,[1.51206976]
4.107814490704675e-18,0.9385741139496269,-3.694224081030585e-18,0.9385741139496269,3.324682124649497e-19,-0.02279299611796482,-3.694224081030585e-18,-0.02279299611796482,-1.6122844602006496e-18,0.9388508337581434,-1.787172912338153e-18,-0.9388508337581435,0.3615570448494317,0.8593910673491388,0.3615570448494317,100.0,57.857142857142705,[1.51324882]
3.973767804488926e-18,0.9336218616476779,-3.4214668155050936e-18,0.9336218616476779,1.2269489892877218e-19,-0.025531466096930435,-3.4214668155050936e-18,-0.025531466096930435,-1.8089286596568087e-18,0.9339708969274869,-1.9927103065792987e-18,-0.933970896927487,0.35969588630650223,0.8609516471604892,0.35969588630650223,100.0,57.857142857142705,[1.51324882]
3.79664982377754e-18,0.9254089182506038,-3.1850491000162652e-18,0.9254089182506038,-1.5985660833317637e-19,-0.030034790909288595,-3.1850491000162652e-18,-0.030034790909288595,-2.0797097486936456e-18,0.9258961899925484,-2.2826366737290403e-18,-0.9258961899925485,0.3565837127436844,0.8635369775590731,0.35658371274368433,100.0,57.857142857142705,[1.51670104]
3.521824441930778e-18,0.9103513921955896,-3.0394377341345564e-18,0.9103513921955896,-6.149974633985418e-19,-0.03812256785052594,-3.0394377341345564e-18,-0.03812256785052594,-2.501547717761561e-18,0.9111492673826642,-2.762257342289258e-18,-0.9111492673826644,0.3508233711679766,0.8682430100407791,0.3508233711679767,100.0,57.857142857142705,[1.53062386]
2.9770403953712102e-18,0.8755763215790084,-3.1328047538059796e-18,0.8755763215790084,-1.5801124076487418e-18,-0.05551168332340839,-3.1328047538059796e-18,-0.05551168332340839,-3.3301571814251977e-18,0.8773342817280224,-3.71509664086749e-18,-0.8773342817280226,0.3375665043064458,0.878690907168529,0.3375665043064458,100.0,57.857142857142705,[1.52938435]
9.638134789539242e-19,0.7313131257035707,-4.1184092978712414e-18,0.7313131257035707,-6.343704314252035e-18,-0.093889054257204,-4.1184092978712414e-18,-0.093889054257204,-6.071195710204669e-18,0.7373154293351245,-7.221145764574032e-18,-0.7373154293351242,0.29689990331328847,0.9075796906195732,0.2968999033132884,100.0,57.857142857142705,[1.51676774]
7.007055240742823e-19,0.7245180198198278,-3.818760691130858e-18,0.7245180198198278,-6.4048032347164405e-18,-0.09549229497229153,-3.818760691130858e-18,-0.09549229497229153,-5.938336028167933e-18,0.73078392117145,-6.718404306953322e-18,-0.7307839211714499,0.4303773705360157,0.7934422712844397,0.43037737053601555,100.0,45.00000000000011,[1.47836045]
2.826613051485073e-18,0.8672597967648371,-2.0858551448829406e-18,0.8672597967648371,-1.738369739815729e-18,-0.057573976112523954,-2.0858551448829406e-18,-0.057573976112523954,-3.53091774180215e-18,0.8691687510547029,-3.7760074411044545e-18,-0.869168751054703,0.4657817136602006,0.7523927102514577,0.4657817136602006,100.0,45.00000000000011,[1.51794609]
3.4201829698021e-18,0.9032344158721912,-1.2651948998306358e-18,0.9032344158721912,-8.942995467204406e-19,-0.04002178312281807,-1.2651948998306358e-18,-0.04002178312281807,-3.0067494142516648e-18,0.9041206518713686,-3.1167101661101676e-18,-0.9041206518713684,0.47737690260844906,0.7377144337153279,0.4773769026084489,100.0,45.00000000000011,[1.50377233]
3.753239385230757e-18,0.9183509553645288,-6.889880971071624e-19,0.9183509553645288,-5.406592070374957e-19,-0.03203079615658023,-6.889880971071624e-19,-0.03203079615658023,-2.8635712744587892e-18,0.9189093802554023,-2.8943623361452164e-18,-0.9189093802554023,0.4822674456547624,0.7313249768217013,0.48226744565476243,100.0,45.00000000000011,[1.50587411]
3.956217099842082e-18,0.9260942827962306,-1.9578574107669414e-19,0.9260942827962306,-3.7596237719935945e-19,-0.027744564790573946,-1.9578574107669414e-19,-0.027744564790573946,-2.8534563031333377e-18,0.9265097848934372,-2.8576599208234254e-18,-0.9265097848934372,0.4848031465253111,0.7279641599957483,0.4848031465253111,100.0,45.00000000000011,[1.50587411]
4.102388185886327e-18,0.930272260144043,2.4669841697364887e-19,0.930272260144043,-2.6661385650837138e-19,-0.02529234850833572,2.4669841697364887e-19,-0.02529234850833572,-2.9121367025830026e-18,0.9306160222597577,-2.8953832260481897e-18,-0.9306160222597577,0.4862262684013321,0.7260633800385692,0.4862262684013321,100.0,45.00000000000011,[1.50587411]
4.238147549560368e-18,0.9323217487125405,6.665632565502439e-19,0.9323217487125405,-2.1038801212888102e-19,-0.023934421274744516,6.665632565502439e-19,-0.023934421274744516,-3.006105040554486e-18,0.9326289185116265,-2.9673568455459947e-18,-0.9326289185116268,0.487003624596737,0.7250206474710089,0.4870036245967371,100.0,45.00000000000011,[1.50587411]
4.314861933929761e-18,0.9328476258374401,1.0624519364922142e-18,0.9328476258374401,-1.9003936906007651e-19,-0.02334765307849134,1.0624519364922142e-18,-0.02334765307849134,-3.1207187726395276e-18,0.9331397569146983,-3.0673462374590714e-18,-0.9331397569146983,0.4873332027809461,0.7245776003538408,0.4873332027809461,100.0,45.00000000000011,[1.50587411]
4.3874387608751635e-18,0.9320673938162463,1.45098278026204e-18,0.9320673938162463,-1.870549014099852e-19,-0.02340523394245434,1.45098278026204e-18,-0.02340523394245434,-3.2592845533368074e-18,0.9323612130453037,-3.181384771408882e-18,-0.9323612130453041,0.48729084133921274,0.7246345781798192,0.48729084133921274,100.0,45.00000000000011,[1.50587411]
4.44502542075988e-18,0.9299431007595693,1.820300053709243e-18,0.9299431007595693,-2.209565886227413e-19,-0.02410712218998598,1.820300053709243e-18,-0.02410712218998598,-3.4265503993623803e-18,0.9302555154314351,-3.3275213399905976e-18,-0.9302555154314355,0.4868748228541658,0.7251936387899781,0.48687482285416595,100.0,45.00000000000011,[1.50587411]
4.493726506504552e-18,0.9261692191057755,2.16889668545654e-18,0.9261692191057755,-2.83108975296021e-19,-0.025580045385286913,2.16889668545654e-18,-0.025580045385286913,-3.6025152902998666e-18,0.9265224018559485,-3.480227796392071e-18,-0.9265224018559487,0.48600507225539624,0.7263595111816559,0.48600507225539624,100.0,45.00000000000011,[1.50587411]
4.47520924131194e-18,0.9200070510917808,2.4925344346897563e-18,0.9200070510917808,-3.7670425481124295e-19,-0.028147054619642592,2.4925344346897563e-18,-0.028147054619642592,-3.818600922488013e-18,0.9204375213681567,-3.659675464934129e-18,-0.9204375213681568,0.48447611911043037,0.7283994645957618,0.48447611911043026,100.0,45.00000000000011,[1.50587411]
4.395781704533373e-18,0.9097635286176142,2.7782219645996524e-18,0.9097635286176142,-5.712288039477351e-19,-0.032547806092889806,2.7782219645996524e-18,-0.032547806092889806,-4.084091364326961e-18,0.9103455594905888,-3.8840300809500475e-18,-0.9103455594905888,0.48180370265967754,0.7319360519928296,0.4818037026596775,100.0,45.00000000000011,[1.50587411]
4.199145983678493e-18,0.891012478610387,2.967330277256815e-18,0.891012478610387,-9.11712474096506e-19,-0.04065299664178535,2.967330277256815e-18,-0.04065299664178535,-4.4560391238208706e-18,0.891939405551399,-4.183187321281231e-18,-0.8919394055513992,0.4766912845626021,0.7386005946681281,0.4766912845626021,100.0,45.00000000000011,[1.50377233]
3.615072098793575e-18,0.8482393931748776,2.904404218216857e-18,0.8482393931748776,-1.7715359083675608e-18,-0.05831913190636453,2.904404218216857e-18,-0.05831913190636453,-5.137735623828378e-18,0.8502418416427151,-4.71997012939161e-18,-0.850241841642715,0.46452681024397746,0.753942759849255,0.4645268102439774,100.0,45.00000000000011,[1.52764678]
1.1503087926795173e-18,0.6865399813125356,1.949706295462661e-18,0.6865399813125356,-6.420522561487092e-18,-0.09635161446802686,1.949706295462661e-18,-0.09635161446802686,-7.316583537623175e-18,0.6932681873209039,-6.569658398967768e-18,-0.6932681873209041,0.42565660565304253,0.798519197094134,0.4256566056530425,100.0,45.00000000000011,[1.46653741]
1.0073256607160511e-18,0.6797210821639629,2.2327288950081557e-18,0.6797210821639629,-6.367183680842988e-18,-0.09485496521491234,2.2327288950081557e-18,-0.09485496521491234,-6.103694188905805e-18,0.6863076671319295,-5.043513584433142e-18,-0.6863076671319297,0.5409830920941906,0.6439523182165094,0.5409830920941906,100.0,32.14285714285738,[1.44923706]
3.842841243543726e-18,0.839848983912485,3.616178556260441e-18,0.839848983912485,-1.629443029538355e-18,-0.05658784410070811,3.616178556260441e-18,-0.05658784410070811,-2.105796285177789e-18,0.8417532298000404,-1.6371780498855422e-18,-0.8417532298000404,0.5720792471214902,0.5877505168230969,0.5720792471214902,100.0,32.14285714285738,[1.46401611]
4.7528325615806626e-18,0.8837719896868056,4.103426814542964e-18,0.8837719896868056,-6.700977734582889e-19,-0.039307529437136404,4.103426814542964e-18,-0.039307529437136404,4.226413165390691e-19,0.8846456983591944,8.000317513149136e-19,-0.8846456983591944,0.5814172226024206,0.5691291826313029,0.5814172226024206,100.0,32.14285714285738,[1.46196145]
5.2560545046721974e-18,0.9025326777475007,4.3539239098457466e-18,0.9025326777475007,-2.0670829917393887e-19,-0.03132755954644742,4.3539239098457466e-18,-0.03132755954644742,2.679204089654142e-18,0.9030762151608301,2.9835795066140325e-18,-0.9030762151608305,0.5853136321217978,0.5610845783879445,0.5853136321217977,100.0,32.14285714285738,[1.46196145]
5.609306948346643e-18,0.912257440771551,4.51933718149193e-18,0.912257440771551,6.623483318895859e-20,-0.026931098988223982,4.51933718149193e-18,-0.026931098988223982,4.840043454333047e-18,0.9126548758078126,5.109551839702089e-18,-0.9126548758078126,0.5873624857774644,0.5567859737840343,0.5873624857774644,100.0,32.14285714285738,[1.46196145]
5.885641521221008e-18,0.917596444577899,4.6408853495977626e-18,0.917596444577899,2.697212638770034e-19,-0.024298509275038505,4.6408853495977626e-18,-0.024298509275038505,6.954945757284126e-18,0.9179181078151749,7.198637234994777e-18,-0.917918107815175,0.5885560087778572,0.5542595502677042,0.5885560087778573,100.0,32.14285714285738,[1.46196145]
6.116395133621251e-18,0.9203201933796543,4.732702242494784e-18,0.9203201933796543,4.405650796421743e-19,-0.022707721992372497,4.732702242494784e-18,-0.022707721992372497,9.044564871222216e-18,0.9206002927331965,9.278150219575617e-18,-0.9206002927331964,0.5892627417770444,0.5527556804835211,0.5892627417770444,100.0,32.14285714285738,[1.46196145]
6.3220520862366356e-18,0.9211803912052398,4.811993061827732e-18,0.9211803912052398,5.49565977680737e-19,-0.021838561829103285,4.811993061827732e-18,-0.021838561829103285,1.1119278604112406e-17,0.9214392198749749,1.1345417823922183e-17,-0.9214392198749748,0.5896400363588838,0.551950409951282,0.5896400363588838,100.0,32.14285714285738,[1.46196145]
6.505054216235417e-18,0.9204539176152204,4.875399221665095e-18,0.9204539176152204,6.661976168701014e-19,-0.021557667871980934,4.875399221665095e-18,-0.021557667871980934,1.3177916908978242e-17,0.9207063307576887,1.340441253537156e-17,-0.9207063307576884,0.5897517512108498,0.5517116492221926,0.5897517512108497,100.0,32.14285714285738,[1.46196145]
6.65983956117879e-18,0.9181065934378662,4.931695014505134e-18,0.9181065934378662,7.377061400543918e-19,-0.02184852396463639,4.931695014505134e-18,-0.02184852396463639,1.5218478835917954e-17,0.9183665253663795,1.5449634044288503e-17,-0.9183665253663797,0.5896048413878264,0.5520255990659056,0.5896048413878264,100.0,32.14285714285738,[1.46196145]
6.774198935225471e-18,0.9137822594234368,4.958773547338882e-18,0.9137822594234368,7.853897936456237e-19,-0.0228061998928854,4.958773547338882e-18,-0.0228061998928854,1.725290225553191e-17,0.9140668139641415,1.7494338066478724e-17,-0.9140668139641415,0.5891516636245216,0.5529924362022659,0.5891516636245215,100.0,32.14285714285738,[1.46196145]
6.841213799732067e-18,0.9066086708568768,4.975355571789638e-18,0.9066086708568768,7.798617456119318e-19,-0.02469271187753527,4.975355571789638e-18,-0.02469271187753527,1.9260228065459244e-17,0.9069448781997393,1.9525166766618586e-17,-0.9069448781997391,0.5882598621685079,0.5548879788957192,0.5882598621685078,100.0,32.14285714285738,[1.46196145]
6.836465783016013e-18,0.8945845137710552,4.95152858254626e-18,0.8945845137710552,7.129825387257943e-19,-0.02811887233174597,4.95152858254626e-18,-0.02811887233174597,2.1236318708275962e-17,0.8950263254565223,2.1534603472631577e-17,-0.8950263254565222,0.5866097611656035,0.5583708232084365,0.5866097611656035,100.0,32.14285714285738,[1.46196145]
6.630808830400629e-18,0.8725025595510186,4.85053148411476e-18,0.8725025595510186,4.70833686207021e-19,-0.03463596521554927,4.85053148411476e-18,-0.03463596521554927,2.313593236755909e-17,0.8731897654630935,2.3497805118748228e-17,-0.8731897654630933,0.5833307269244667,0.565199545339119,0.5833307269244666,100.0,32.14285714285738,[1.46196145]
5.970698849248611e-18,0.822407756403403,4.548428322304202e-18,0.822407756403403,-2.867802096496845e-19,-0.049080165365089023,4.548428322304202e-18,-0.049080165365089023,2.4852815212084356e-17,0.823870973165546,2.5301849375644425e-17,-0.8238709731655465,0.5752496391547779,0.5815287656725121,0.5752496391547779,100.0,32.14285714285738,[1.46196145]
3.038052410172509e-18,0.6451529605076977,3.511821812072269e-18,0.6451529605076977,-4.84938687294214e-18,-0.07923522558924907,3.511821812072269e-18,-0.07923522558924907,2.5428342666880376e-17,0.6500004334044909,2.5698301481598987e-17,-0.6500004334044911,0.548400043176798,0.6312802747491577,0.5484000431767981,100.0,32.14285714285738,[1.42751209]
2.4860615525260728e-18,0.6396614810491451,4.073599095244608e-18,0.6396614810491451,-4.872991298901953e-18,-0.07493389175201756,4.073599095244608e-18,-0.07493389175201756,2.549664627878133e-17,0.6440356344730384,2.627788552243276e-17,-0.6440356344730385,0.6357204829041561,0.4378572087247313,0.6357204829041562,100.0,19.285714285714306,[1.3655179]
4.756970119004653e-18,0.8156083061852192,5.849056356703553e-18,0.8156083061852192,-3.5766131633935342e-19,-0.043894544582817635,5.849056356703553e-18,-0.043894544582817635,2.4571902194519507e-17,0.8167886141239086,2.5128174829870026e-17,-0.8167886141239085,0.6539111627767005,0.3805264542604725,0.6539111627767002,100.0,19.285714285714306,[1.01424413]
4.742047780754196e-18,0.8665777672605748,6.90774114466514e-18,0.8665777672605748,3.3799096137284243e-19,-0.030306243641018603,6.90774114466514e-18,-0.030306243641018603,2.2541141530657934e-17,0.8671075452987085,2.3002045988276572e-17,-0.8671075452987087,0.6588559875267072,0.36306690209989617,0.6588559875267072,100.0,19.285714285714306,[1.01424413]
4.246897466079954e-18,0.8886200371613184,7.786302287762051e-18,0.8886200371613184,5.353727991402459e-19,-0.023915630030029066,7.786302287762051e-18,-0.023915630030029066,2.0336773027014345e-17,0.8889418022594705,2.0740849350584315e-17,-0.8889418022594705,0.6609016108455309,0.35555326121913794,0.6609016108455309,100.0,19.285714285714306,[1.0087551]
3.543648361622071e-18,0.9001808489280732,8.596996466923861e-18,0.9001808489280732,5.668453670866635e-19,-0.020277774455995295,8.596996466923861e-18,-0.020277774455995295,1.807664924136223e-17,0.900409211921866,1.845520828554916e-17,-0.9004092119218658,0.6619975064133928,0.35145213472804593,0.6619975064133928,100.0,19.285714285714306,[1.00934931]
2.783151741330618e-18,0.906647071658246,9.379516254036655e-18,0.906647071658246,5.1733033561923925e-19,-0.01798454454239173,9.379516254036655e-18,-0.01798454454239173,1.578824084184448e-17,0.9068254277361602,1.615513638789951e-17,-0.90682542773616,0.6626633182015225,0.3489335945710814,0.6626633182015224,100.0,19.285714285714306,[1.01011569]
1.9301366238863344e-18,0.9100821371574591,1.0139266757415585e-17,0.9100821371574591,4.2196302843677563e-19,-0.01647454612122348,1.0139266757415585e-17,-0.01647454612122348,1.3481722149995493e-17,0.9102312382263035,1.3845177710671568e-17,-0.9102312382263036,0.6630900188849181,0.3473085857136249,0.663090018884918,100.0,19.285714285714306,[1.01011569]
1.0565015481323286e-18,0.9113687418123512,1.0890038422040405e-17,0.9113687418123512,3.017025479001411e-19,-0.015493974924001341,1.0890038422040405e-17,-0.015493974924001341,1.1166046568765541e-17,0.9115004370879776,1.1532813053829633e-17,-0.9115004370879775,0.663360041579029,0.3462757722863942,0.6633600415790288,100.0,19.285714285714306,[1.01011569]
1.5383574160016187e-19,0.9108400937273551,1.1621707797984385e-17,0.9108400937273551,1.34775845925715e-19,-0.014929334077548035,1.1621707797984385e-17,-0.014929334077548035,8.83809397288408e-18,0.910962436853055,9.21782275630994e-18,-0.9109624368530549,0.6635092484911074,0.34570356424765447,0.6635092484911073,100.0,19.285714285714306,[1.02762981]
-7.786747414329182e-19,0.9084725510170862,1.2351376224026599e-17,0.9084725510170862,-4.7615824781002485e-20,-0.014750904892135465,1.2351376224026599e-17,-0.014750904892135465,6.500509685950051e-18,0.9085922986392901,6.898882915075932e-18,-0.9085922986392904,0.6635468001576723,0.345559384188924,0.6635468001576723,100.0,19.285714285714306,[1.02762981]
-1.7529677715672767e-18,0.9038780638987358,1.3069458641421514e-17,0.9038780638987358,-2.578851364919821e-19,-0.015003269868344804,1.3069458641421514e-17,-0.015003269868344804,4.1683517038343685e-18,0.9040025732839869,4.599938327694472e-18,-0.9040025732839868,0.6634583911786722,0.3458987226764732,0.6634583911786722,100.0,19.285714285714306,[1.02762981]
-2.783151741330618e-18,0.8960905403474122,1.3778074700488794e-17,0.8960905403474122,-5.073595005155251e-19,-0.015835514600068355,1.3778074700488794e-17,-0.015835514600068355,1.8092656840576357e-18,0.8962304502876289,2.294140884472174e-18,-0.8962304502876293,0.6631956435707064,0.3469049966455857,0.6631956435707064,100.0,19.285714285714306,[1.01011569]
-3.9091099911377995e-18,0.8828868430427586,1.4457617635771518e-17,0.8828868430427586,-8.416198773257534e-19,-0.01760862819789471,1.4457617635771518e-17,-0.01760862819789471,-5.656922773127646e-19,0.8830624221452417,8.979016969997433e-21,-0.8830624221452417,0.66263666441988,0.34903481478642046,0.66263666441988,100.0,19.285714285714306,[1.01011569]
-5.238012041151191e-18,0.8584946190698288,1.509096067268678e-17,0.8584946190698288,-1.3390763715477935e-18,-0.021247230110317518,1.509096067268678e-17,-0.021247230110317518,-2.981211867200315e-18,0.8587575069594511,-2.2376508283227843e-18,-0.8587575069594511,0.6614437172071359,0.3535313535380041,0.6614437172071358,100.0,19.285714285714306,[1.0087551]
-7.140474510463951e-18,0.8032026628979073,1.560152508448564e-17,0.8032026628979073,-2.356372867367559e-18,-0.029609300434868344,1.560152508448564e-17,-0.029609300434868344,-5.528048033691884e-18,0.803748236924058,-4.3818817506852164e-18,-0.803748236924058,0.6583697829795706,0.36482661322725063,0.6583697829795706,100.0,19.285714285714306,[1.01424413]
-1.1549347175371589e-17,0.6153521934678327,1.5698723769544297e-17,0.6153521934678327,-7.14888528293239e-18,-0.04591527861265579,1.5698723769544297e-17,-0.04591527861265579,-8.93793798154168e-18,0.6170628289046026,-6.613029430553037e-18,-0.6170628289046026,0.6481982858067161,0.3995972529365906,0.648198285806716,100.0,19.285714285714306,[0.97213515]
-1.179895719701559e-17,0.6122744928298864,1.5075317653327636e-17,0.6122744928298864,-7.262023738394943e-18,-0.039660673414316755,1.5075317653327636e-17,-0.039660673414316755,-8.763210966390879e-18,0.6135576774727636,-6.782977936935014e-18,-0.6135576774727638,0.6960734665239454,0.17596436685498765,0.6960734665239453,100.0,6.428571428571418,[0.37502025]
-7.617446703996728e-18,0.7993381015157235,1.3164639419375847e-17,0.7993381015157235,-2.6975517828211807e-18,-0.021994892858241064,1.3164639419375847e-17,-0.021994892858241064,-5.275317886777332e-18,0.7996406541982509,-4.55812808115816e-18,-0.7996406541982509,0.7002171120577875,0.13925513262678732,0.7002171120577875,100.0,6.428571428571418,[0.42478504]
-5.968935300182648e-18,0.8550545284355172,1.0871304952515187e-17,0.8550545284355172,-1.9229467700020234e-18,-0.014788303052875665,1.0871304952515187e-17,-0.014788303052875665,-2.6431530770172434e-18,0.8551824018917068,-2.268685045911962e-18,-0.8551824018917068,0.7011865074975736,0.12913157401158923,0.7011865074975735,100.0,6.428571428571418,[0.42478504]
-4.886387488922249e-18,0.8793638400686322,8.48047504955112e-18,0.8793638400686322,-1.6539377086324284e-18,-0.011251446880810981,8.48047504955112e-18,-0.011251446880810981,-1.21142255069616e-19,0.879435818168195,9.502325129659164e-20,-0.879435818168195,0.701590225582194,0.12466880417751612,0.7015902255821941,100.0,6.428571428571418,[0.42478504]
-4.016008196059252e-18,0.892249571220519,6.060724637625513e-18,0.892249571220519,-1.5524658085293234e-18,-0.009091673851727381,6.060724637625513e-18,-0.009091673851727381,2.3704812598952633e-18,0.8922958903170102,2.493410131084172e-18,-0.8922958903170103,0.7018174890424649,0.12208367682970409,0.7018174890424649,100.0,6.428571428571418,[0.42478504]
-3.2552402605268825e-18,0.899583800469408,3.62255022512136e-18,0.899583800469408,-1.5340163721469405e-18,-0.007591256203262879,3.62255022512136e-18,-0.007591256203262879,4.838229033659412e-18,0.8996158298061054,4.898811856361749e-18,-0.8996158298061054,0.701967555329854,0.12034576240340762,0.701967555329854,100.0,6.428571428571418,[0.42478504]
-2.5612158742601907e-18,0.9036241736717626,1.1788477645835156e-18,0.9036241736717626,-1.5557215914203321e-18,-0.0064606655480947545,1.1788477645835156e-18,-0.0064606655480947545,7.295395513027782e-18,0.9036472693719052,7.311773540553838e-18,-0.9036472693719053,0.7020766479681357,0.11906620324698874,0.7020766479681357,100.0,6.428571428571418,[0.42478504]
-1.897578794976247e-18,0.9053426199883237,-1.276012535237057e-18,0.9053426199883237,-1.6159535749039934e-18,-0.0055627379785408715,-1.276012535237057e-18,-0.0055627379785408715,9.754054226221199e-18,0.9053597095194482,9.737985432674517e-18,-0.9053597095194482,0.7021609349461141,0.11806795869836016,0.7021609349461142,100.0,6.428571428571418,[0.42478504]
-1.2523911520746864e-18,0.9051144897397851,-3.7295671304607146e-18,0.9051144897397851,-1.6932784185654504e-18,-0.00482632006864591,-3.7295671304607146e-18,-0.00482632006864591,1.2196976655441406e-17,0.9051273572831159,1.2156831917199561e-17,-0.9051273572831157,0.7022284981910155,0.11726155660224442,0.7022284981910155,100.0,6.428571428571418,[0.42478504]
-6.560402525382565e-19,0.9029313743155959,-6.191939471014188e-18,0.9029313743155959,-1.8004479387278205e-18,-0.004214376381783848,-6.191939471014188e-18,-0.004214376381783848,1.4648038541889135e-17,0.9029412094326726,1.45899008464846e-17,-0.9029412094326729,0.7022834675858687,0.1166012963527279,0.7022834675858687,100.0,6.428571428571418,[0.42478504]
-1.0092926962127024e-19,0.8983984087124027,-8.651734316778945e-18,0.8983984087124027,-1.9295939934044996e-18,-0.0037121713423096713,-8.651734316778945e-18,-0.0037121713423096713,1.7080108361472646e-17,0.898406078003178,1.7008326836946256e-17,-0.8984060780031778,0.7023275137032854,0.11606949207575323,0.7023275137032852,100.0,6.428571428571418,[0.42478504]
3.7875607632068074e-19,0.8905139580281595,-1.1115649762765136e-17,0.8905139580281595,-2.1195146620466747e-18,-0.0033263307143899107,-1.1115649762765136e-17,-0.0033263307143899107,1.950892239816515e-17,0.8905201704167066,1.942562592058952e-17,-0.8905201704167065,0.7023600160713416,0.11567547557079508,0.7023600160713416,100.0,6.428571428571418,[0.42478504]
7.694500232417268e-19,0.8769634353651626,-1.3584448883087841e-17,0.8769634353651626,-2.377806771400033e-18,-0.003096520783736637,-1.3584448883087841e-17,-0.003096520783736637,2.1919015683234352e-17,0.8769689021900561,2.1822820678378812e-17,-0.876968902190056,0.7023767147920263,0.11547251203607496,0.7023767147920262,100.0,6.428571428571418,[0.42478504]
9.561149089928932e-19,0.8517372401872517,-1.6059878269610462e-17,0.8517372401872517,-2.7950896119309835e-18,-0.003137563027016859,-1.6059878269610462e-17,-0.003137563027016859,2.431283005384851e-17,0.8517430191222846,2.4194196489143536e-17,-0.8517430191222846,0.7023642333570973,0.11562425092251913,0.7023642333570973,100.0,6.428571428571418,[0.42478504]
5.458862647257949e-19,0.794400245942665,-1.8552875317982485e-17,0.794400245942665,-3.732755084541494e-18,-0.003763184334412722,-1.8552875317982485e-17,-0.003763184334412722,2.6596490436650212e-17,0.7944091592561741,2.642015114145885e-17,-0.7944091592561742,0.7022777192111138,0.11667051983800983,0.702277719211114,100.0,6.428571428571418,[0.42478504]
-2.481991823912312e-18,0.6030107243616503,-2.1062202152417225e-17,0.6030107243616503,-8.478601278668534e-18,-0.002992667241577232,-2.1062202152417225e-17,-0.002992667241577232,2.811477052482394e-17,0.6030181504336174,2.790494664973195e-17,-0.6030181504336175,0.7022590788131062,0.11689470667714312,0.7022590788131061,100.0,6.428571428571418,[0.37352206]
-2.6002852689522953e-18,0.6029533114316561,-2.1215732664371354e-17,0.6029533114316561,-8.445500819276612e-18,0.003975297296161017,-2.1215732664371354e-17,0.003975297296161017,2.826155207016025e-17,0.6029664159428723,2.853998791924005e-17,-0.6029664159428723,0.7021234055228343,0.11851348798358445,0.7021234055228343,100.0,6.428571428571418,[0.37352206]
2.344163681526276e-19,0.794228135442883,-1.9639509815059202e-17,0.794228135442883,-3.633453706365728e-18,0.004768479792240374,-1.9639509815059202e-17,0.004768479792240374,2.7023540625854188e-17,0.7942424500922927,2.7258434648478363e-17,-0.7942424500922928,0.7021726515091067,0.1179285162517612,0.7021726515091067,100.0,6.428571428571418,[0.42478504]
4.536390828138812e-19,0.8514506827869524,-1.8044905358174896e-17,0.8514506827869524,-2.6323004673805476e-18,0.0041655081180863385,-1.8044905358174896e-17,0.0041655081180863385,2.503045886607502e-17,0.851460872075898,2.5206435739887907e-17,-0.851460872075898,0.7022649147713559,0.1168245648926655,0.7022649147713559,100.0,6.428571428571418,[0.42478504]
7.813878938420921e-20,0.8765627767299968,-1.6437328641334228e-17,0.8765627767299968,-2.1450182946929097e-18,0.004147205745071893,-1.6437328641334228e-17,0.004147205745071893,2.292993627089256e-17,0.876572587333242,2.3084968642578376e-17,-0.8765725873332418,0.7022782080177399,0.11666463511614962,0.7022782080177398,100.0,6.428571428571418,[0.42478504]
-5.306926112344209e-19,0.8899996380664135,-1.4814931329458446e-17,0.8899996380664135,-1.8161842227010293e-18,0.004399855962283788,-1.4814931329458446e-17,0.004399855962283788,2.080553793450937e-17,0.8900105136967966,2.0951502263473543e-17,-0.8900105136967966,0.7022606669207255,0.11687562360096934,0.7022606669207255,100.0,6.428571428571418,[0.42478504]
-1.2274301499102863e-18,0.8977709606781165,-1.319811293722403e-17,0.8977709606781165,-1.5682020925025322e-18,0.0048086257353789465,-1.319811293722403e-17,0.0048086257353789465,1.8661062270298296e-17,0.8977838385259398,1.8801863508140897e-17,-0.8977838385259401,0.7022265157286243,0.11728529837652994,0.7022265157286245,100.0,6.428571428571418,[0.42478504]
-1.9827717806243086e-18,0.9021914237727755,-1.157391816187717e-17,0.9021914237727755,-1.362545139887148e-18,0.005333831908436555,-1.157391816187717e-17,0.005333831908436555,1.6511160301268873e-17,0.9022071906674072,1.6647393177404838e-17,-0.9022071906674071,0.7021803060110829,0.1178373272794489,0.7021803060110829,100.0,6.428571428571418,[0.42478504]
-2.768500718321079e-18,0.9042627533986127,-9.940006909464957e-18,0.9042627533986127,-1.1937870600365295e-18,0.005968830405631553,-9.940006909464957e-18,0.005968830405631553,1.4355832027421103e-17,0.9042824526222166,1.4486271511617872e-17,-0.9042824526222166,0.7021227580249171,0.11852115982797179,0.7021227580249171,100.0,6.428571428571418,[0.42478504]
-3.606322182273989e-18,0.9043799044255584,-8.315778219712983e-18,0.9043799044255584,-1.045648938495633e-18,0.0067283383267917754,-8.315778219712983e-18,0.0067283383267917754,1.2189651143936636e-17,0.904404932574686,1.2312438585405055e-17,-0.9044049325746861,0.7020522039796608,0.11935411921924527,0.7020522039796608,100.0,6.428571428571418,[0.42478504]
-4.482127779955334e-18,0.9025513739429567,-6.6789333712583515e-18,0.9025513739429567,-9.268128629738148e-19,0.007649373051459769,-6.6789333712583515e-18,0.007649373051459769,1.0033237609125196e-17,0.9025837886392595,1.0145281616347243e-17,-0.9025837886392595,0.701964436634857,0.12038213903987377,0.7019644366348571,100.0,6.428571428571418,[0.42478504]
-5.393746989437774e-18,0.8984018986579305,-5.0431059549571585e-18,0.8984018986579305,-8.313098981708925e-19,0.008803070787742711,-5.0431059549571585e-18,0.008803070787742711,7.858374637931373e-18,0.8984450264581962,7.955785766057902e-18,-0.898445026458196,0.7018511872741678,0.12169561143969859,0.7018511872741677,100.0,6.428571428571418,[0.42478504]
-6.37156711770406e-18,0.8909596349751343,-3.395815469727207e-18,0.8909596349751343,-7.716205451690659e-19,0.010326579622052244,-3.395815469727207e-18,0.010326579622052244,5.671573796137185e-18,0.8910194775658471,5.748751760007596e-18,-0.8910194775658471,0.7016958899430173,0.12347370600315816,0.7016958899430173,100.0,6.428571428571418,[0.42478504]
-7.438378644991249e-18,0.8779670213000567,-1.7257005898550789e-18,0.8779670213000567,-8.139457227521793e-19,0.012509414733452623,-1.7257005898550789e-18,0.012509414733452623,3.4750056056699705e-18,0.8780561348498556,3.521871431111064e-18,-0.8780561348498558,0.701461405100396,0.12611024664616374,0.7014614051003961,100.0,6.428571428571418,[0.42478504]
-8.718986582121344e-18,0.8535520627704595,-3.140473913618825e-20,0.8535520627704595,-1.0190600448857284e-18,0.016069297017701406,-3.140473913618825e-20,0.016069297017701406,1.238282759546982e-18,0.8537033127301014,1.2357868304690306e-18,-0.8537033127301014,0.7010459159215949,0.13064933042042076,0.7010459159215949,100.0,6.428571428571418,[0.42478504]
-1.0563930220359617e-17,0.7977313113028416,1.755002635874157e-18,0.7977313113028416,-1.7299059760892985e-18,0.023298892393335848,1.755002635874157e-18,0.023298892393335848,-1.1096793353521377e-18,0.7980714776382546,-1.2184383879757336e-18,-0.7980714776382545,0.7000498304215589,0.140927179257562,0.700049830421559,100.0,6.428571428571418,[0.42478504]
-1.494838451358469e-17,0.6105648065414898,3.9288820893196545e-18,0.6105648065414898,-6.231568453390685e-18,0.040987767862598924,3.9288820893196545e-18,0.040987767862598924,-4.31391233058655e-18,0.6119390329938148,-4.881419631389496e-18,-0.6119390329938149,0.695779808226768,0.17827203069422803,0.695779808226768,100.0,6.428571428571418,[0.37655892]
-1.506993374151568e-17,0.6135411095254506,4.709388208628765e-18,0.6135411095254506,-6.178390666170875e-18,0.047283891024222154,4.709388208628765e-18,0.047283891024222154,-4.937937384696554e-18,0.6153604305024103,-5.725743818983875e-18,-0.6153604305024103,0.6475077919657998,0.4018299624059275,0.6475077919657998,100.0,19.28571428571425,[0.96829545]
-1.1238962539762091e-17,0.8012930071708673,3.53442364343088e-18,0.8012930071708673,-1.5714578753935409e-18,0.031042641299042634,3.53442364343088e-18,0.031042641299042634,-2.707183473873748e-18,0.8018940883431878,-2.9876425052662916e-18,-0.8018940883431879,0.6578851988296286,0.36657077123224097,0.6578851988296285,100.0,19.28571428571425,[1.01424413]
-9.912773642157873e-18,0.8564880344444904,2.771315613945597e-18,0.8564880344444904,-7.553416307140223e-19,0.022744373049224,2.771315613945597e-18,0.022744373049224,-1.3544056826596262e-18,0.8567899740613149,-1.5038055246983498e-18,-0.856789974061315,0.6609914690503597,0.35521902494840357,0.6609914690503598,100.0,19.28571428571425,[1.0087551]
-9.131385748315781e-18,0.8807851223999634,2.1284680649969487e-18,0.8807851223999634,-4.525538218502117e-19,0.019168965577124632,2.1284680649969487e-18,0.019168965577124632,-1.2209185841282688e-19,0.8809936895814953,-2.1928308532983913e-19,-0.8809936895814953,0.6621867965132611,0.3507382115581501,0.6621867965132611,100.0,19.28571428571425,[1.00934931]
-8.571391091062282e-18,0.893895559748994,1.5281491800621018e-18,0.893895559748994,-3.2015198428252383e-19,0.017458482817447656,1.5281491800621018e-18,0.017458482817447656,1.0624704834325113e-18,0.894066032439022,1.000839216284624e-18,-0.8940660324390219,0.6627386443742205,0.3486473555127599,0.6627386443742204,100.0,19.28571428571425,[1.01011569]
-8.102558354757027e-18,0.9015917643495491,9.594385206941313e-19,0.9015917643495491,-2.6046263128069735e-19,0.01668828760414384,9.594385206941313e-19,0.01668828760414384,2.2285833888954667e-18,0.9017461995961454,2.1886286896979593e-18,-0.9017461995961455,0.6629899115075057,0.3476906016540269,0.6629899115075059,100.0,19.28571428571425,[1.01011569]
-7.685818144707911e-18,0.9060969309892912,4.0069869642987495e-19,0.9060969309892912,-2.4201319489831463e-19,0.01649735847609776,4.0069869642987495e-19,0.01649735847609776,3.3816731627943877e-18,0.9062471027180726,3.3623806649104276e-18,-0.9062471027180729,0.6630642879469205,0.3474068221824177,0.6630642879469206,100.0,19.28571428571425,[1.01011569]
-7.3081473293509e-18,0.9083772042201272,-1.4640848688004824e-19,0.9083772042201272,-2.734857628447322e-19,0.01673657387372747,-1.4640848688004824e-19,0.01673657387372747,4.527708740429456e-18,0.9085313742803854,4.52861685070817e-18,-0.9085313742803852,0.6630108263469452,0.3476108287920298,0.6630108263469451,100.0,19.28571428571425,[1.01011569]
-6.97822799639535e-18,0.9088206823044906,-6.85749271418711e-19,0.9088206823044906,-2.984467650091324e-19,0.01736131527352505,-6.85749271418711e-19,0.01736131527352505,5.6672327522825066e-18,0.9089864948680076,5.688713879863676e-18,-0.9089864948680079,0.662843976071611,0.34824664646074427,0.662843976071611,100.0,19.28571428571425,[1.01011569]
-6.656990751149157e-18,0.9074510520333872,-1.2145087615615954e-18,0.9074510520333872,-3.75500293429672e-19,0.018401266846311208,-1.2145087615615954e-18,0.018401266846311208,6.7959041544988626e-18,0.9076376030432248,6.840179640993435e-18,-0.9076376030432248,0.662554328083406,0.3493472837677321,0.662554328083406,100.0,19.28571428571425,[1.01011569]
-6.3900165540864425e-18,0.9039351470981505,-1.732144326826867e-18,0.9039351470981505,-4.775148240146118e-19,0.0199698935379773,-1.732144326826867e-18,0.0199698935379773,7.919149251896869e-18,0.9041557093815606,7.988061157745593e-18,-0.9041557093815606,0.6621052850536612,0.3510458417472285,0.6621052850536612,100.0,19.28571428571425,[1.00934931]
-6.157770707861153e-18,0.8973903105226624,-2.2307878252279206e-18,0.8973903105226624,-6.207692712189954e-19,0.022320971734064818,-2.2307878252279206e-18,0.022320971734064818,9.018518608094146e-18,0.897667864635419,9.12346636881092e-18,-0.897667864635419,0.6614127832463462,0.3536470844169985,0.6614127832463462,100.0,19.28571428571425,[1.0087551]
-6.036221479930161e-18,0.8857531491851671,-2.6944655719557453e-18,0.8857531491851671,-8.519298564806144e-19,0.026015875013012245,-2.6944655719557453e-18,0.026015875013012245,1.0091841701163353e-17,0.8861351291107542,1.0233624653627441e-17,-0.8861351291107542,0.660282068497486,0.35784798454282574,0.660282068497486,100.0,19.28571428571425,[1.0087551]
-6.0861434842589615e-18,0.8636368369301136,-3.093027660863396e-18,0.8636368369301136,-1.2404532814743211e-18,0.03246273255904178,-3.093027660863396e-18,0.03246273255904178,1.1107645963158073e-17,0.8642467327724482,1.1300264310300994e-17,-0.8642467327724483,0.6581830052322235,0.3655000181216927,0.6581830052322235,100.0,19.28571428571425,[1.01424413]
-6.65047918536714e-18,0.8125957089752918,-3.3063492690346964e-18,0.8125957089752918,-2.1433904032474053e-18,0.04610653130516262,-3.3063492690346964e-18,0.04610653130516262,1.1947637949038322e-17,0.8139026959496146,1.226173329921153e-17,-0.813902695949615,0.6531246491486223,0.38321845643050373,0.6531246491486224,100.0,19.28571428571425,[1.01424413]
-9.48952186632674e-18,0.6365797808914309,-2.806586595264858e-18,0.6365797808914309,-6.834973549190967e-18,0.07720094528671557,-2.806586595264858e-18,0.07720094528671557,1.1679578491011937e-17,0.6412439499854519,1.2023051125742047e-17,-0.6412439499854519,0.6344549267451447,0.4415131842398667,0.6344549267451447,100.0,19.28571428571425,[1.3655179]
-9.074952178204964e-18,0.6420059981404792,-2.5395784837970286e-18,0.6420059981404792,-6.761175803661436e-18,0.08156936411296611,-2.5395784837970286e-18,0.08156936411296611,1.1200978406033656e-17,0.6471671057850104,1.177980200495873e-17,-0.6471671057850104,0.5465327089368983,0.6345108321567031,0.5465327089368979,100.0,32.142857142857125,[1.42751209]
-5.916842773926508e-18,0.8192035781566676,-2.895577994285763e-18,0.8192035781566676,-1.888354076785056e-18,0.05150222192191693,-2.895577994285763e-18,0.05150222192191693,1.1006716693536802e-17,0.8208209191581207,1.1379603832795922e-17,-0.8208209191581208,0.5739398973981701,0.5841112807925868,0.5739398973981701,100.0,32.142857142857125,[1.46401611]
-4.99871199866205e-18,0.8692429943228546,-2.5186872102463893e-18,0.8692429943228546,-8.291393762435533e-19,0.037143975013742614,-2.5186872102463893e-18,0.037143975013742614,9.679442534968915e-18,0.8700362395091277,9.86412799382424e-18,-0.8700362395091277,0.5821174961273334,0.5676957295989533,0.5821174961273335,100.0,32.142857142857125,[1.46196145]
-4.5689486570488994e-18,0.8912716663658591,-1.941633607220209e-18,0.8912716663658591,-2.6914471899005393e-19,0.030711381752959756,-1.941633607220209e-18,0.030711381752959756,8.14705405426748e-18,0.8918006348034024,8.251427975263415e-18,-0.8918006348034023,0.5854137852086869,0.5608755656785869,0.5854137852086869,100.0,32.142857142857125,[1.46196145]
-4.319338635404898e-18,0.9032447206378513,-1.2810149099914714e-18,0.9032447206378513,1.1286714022163552e-19,0.027368369662788907,-1.2810149099914714e-18,0.027368369662788907,6.546294132854861e-18,0.9036592571418437,6.618496030747432e-18,-0.903659257141844,0.5870560102195034,0.5574320422529697,0.5870560102195034,100.0,32.142857142857125,[1.46196145]
-4.156549490854462e-18,0.9103694118500711,-5.857696051406517e-19,0.9103694118500711,4.341043854678289e-19,0.025563665099209997,-5.857696051406517e-19,0.025563665099209997,4.912976382532154e-18,0.9107282618902022,4.939348128062469e-18,-0.9107282618902024,0.587928675644176,0.5555895469774165,0.587928675644176,100.0,32.142857142857125,[1.46196145]
-4.024147653286774e-18,0.914647065621027,1.27179019180028e-19,0.914647065621027,7.032491044578829e-19,0.02468644381523066,1.27179019180028e-19,0.02468644381523066,3.251441847154039e-18,0.9149801501439245,3.2394385126923143e-18,-0.9149801501439245,0.5883563816045758,0.5546832757983079,0.5883563816045758,100.0,32.142857142857125,[1.46196145]
-3.93298573233853e-18,0.9169499320230303,8.578648773756823e-19,0.9169499320230303,9.354949506831713e-19,0.024474671768629983,8.578648773756823e-19,0.024474671768629983,1.581225224066567e-18,0.9172765054198343,1.5283578165294198e-18,-0.917276505419834,0.5884734416831073,0.5544348626008985,0.5884734416831073,100.0,32.142857142857125,[1.46196145]
-3.867870074518356e-18,0.9176341722168996,1.6017095247558302e-18,0.9176341722168996,1.1373534899257118e-18,0.024833260431914583,1.6017095247558302e-18,0.024833260431914583,-9.875874769393109e-20,0.9179701328713664,-1.8426870281873707e-19,-0.9179701328713665,0.5883281076250149,0.5547432519253739,0.5883281076250148,100.0,32.142857142857125,[1.46196145]
-3.837482767535608e-18,0.9167339652967906,2.361765257780792e-18,0.9167339652967906,1.321847853749539e-18,0.025778708399273598,2.361765257780792e-18,0.025778708399273598,-1.796106894873142e-18,0.9170963444129044,-1.9303490917958054e-18,-0.9170963444129043,0.5879131213642286,0.5556224648585945,0.5879131213642285,100.0,32.142857142857125,[1.46196145]
-3.83097120175359e-18,0.913972430867165,3.1360650409539176e-18,0.913972430867165,1.4759549105906183e-18,0.027444361590593557,3.1360650409539176e-18,0.027444361590593557,-3.5108192174710664e-18,0.9143843816297118,-3.695286313455858e-18,-0.9143843816297116,0.5871633008737726,0.5572059908274782,0.5871633008737726,100.0,32.142857142857125,[1.46196145]
-3.861358508736338e-18,0.9085978650667242,3.94183739207346e-18,0.9085978650667242,1.588822050812254e-18,0.030150384782115833,3.94183739207346e-18,0.030150384782115833,-5.250492542233391e-18,0.9090979738764791,-5.518401528544715e-18,-0.9090979738764793,0.5859182045466881,0.5598211456899168,0.5859182045466882,100.0,32.142857142857125,[1.46196145]
-3.9698846051032955e-18,0.8988397686567692,4.781320661876989e-18,0.8988397686567692,1.617038835867663e-18,0.03461884472365136,4.781320661876989e-18,0.03461884472365136,-7.037917349397176e-18,0.8995061946028806,-7.40391926883932e-18,-0.8995061946028805,0.5838020848520212,0.5642253551949497,0.5838020848520213,100.0,32.142857142857125,[1.46196145]
-4.2238356706019754e-18,0.8800479970820073,5.7147129194430504e-18,0.8800479970820073,1.484636998299975e-18,0.042669401112938786,5.7147129194430504e-18,0.042669401112938786,-8.915418816545537e-18,0.8810818094589113,-9.454020284838141e-18,-0.8810818094589116,0.5798029720562501,0.5724133359640383,0.5798029720562502,100.0,32.142857142857125,[1.46196145]
-4.8988679900044494e-18,0.8360962438563168,6.8848955535197675e-18,0.8360962438563168,8.356509420255708e-19,0.060018994089267384,6.8848955535197675e-18,0.060018994089267384,-1.1068576568465968e-17,0.8382477012447626,-1.1992123509636996e-17,-0.8382477012447623,0.5702513535484097,0.5912924720917847,0.5702513535484096,100.0,32.142857142857125,[1.46401611]
-7.481789083538032e-18,0.675942301292625,8.941261593242918e-18,0.675942301292625,-3.6095779651649975e-18,0.09835454834938948,8.941261593242918e-18,0.09835454834938948,-1.468900714326766e-17,0.6830604745246075,-1.7095328168553214e-17,-0.6830604745246078,0.5383152060821075,0.6484084189780052,0.5383152060821076,100.0,32.142857142857125,[1.45092037]
-7.33202307055163e-18,0.6827387387178009,8.806553576127433e-18,0.6827387387178009,-3.5943843116736235e-18,0.09992663191430042,8.806553576127433e-18,0.09992663191430042,-1.540419411832591e-17,0.6900126934424541,-1.7654891417709232e-17,-0.6900126934424535,0.4223198445059522,0.802054797300619,0.42231984450595206,100.0,45.0,[1.46142547]
-5.085532875755616e-18,0.844428148200277,6.321136397298539e-18,0.844428148200277,9.00766599845745e-19,0.06198783983402569,6.321136397298539e-18,0.06198783983402569,-1.2609647136876762e-17,0.8467002951223284,-1.3433944423140094e-17,-0.8467002951223285,0.4620526961391971,0.756977286304548,0.46205269613919725,100.0,45.0,[1.52764678]
-4.707862060398605e-18,0.8871925918064656,4.7317038871942206e-18,0.8871925918064656,1.5975041385216106e-18,0.04441302787817032,4.7317038871942206e-18,0.04441302787817032,-1.1313845546255291e-17,0.8883035584762571,-1.178209303737914e-17,-0.8883035584762571,0.47437587966772826,0.7415760578517475,0.47437587966772826,100.0,45.0,[1.50591768]
-4.723055713889979e-18,0.9059368433776189,3.390796137770235e-18,0.9059368433776189,1.7819985023454377e-18,0.03639740654411454,3.390796137770235e-18,0.03639740654411454,-1.032842859124332e-17,0.9066677094681058,-1.0595080937236955e-17,-0.906667709468106,0.4795248731994752,0.7349229836969684,0.4795248731994752,100.0,45.0,[1.50377233]
-4.853287029530327e-18,0.9161755157068298,2.1435599752729787e-18,0.9161755157068298,1.7971921558368117e-18,0.03208460811690785,2.1435599752729787e-18,0.03208460811690785,-9.441770383925279e-18,0.9167371475285002,-9.593922786349307e-18,-0.9167371475285004,0.48219432907971954,0.7314213956446164,0.4821943290797196,100.0,45.0,[1.50587411]
-5.0638276564822244e-18,0.9223348004480155,9.365802116468409e-19,0.9223348004480155,1.7450996295806723e-18,0.02960396383493684,9.365802116468409e-19,0.02960396383493684,-8.607204702863378e-18,0.9228097738928764,-8.66680831401034e-18,-0.9228097738928761,0.4837025256283811,0.7294269897676197,0.4837025256283811,100.0,45.0,[1.50587411]
-5.2917324588528346e-18,0.9261077625425886,-2.3901177004566596e-19,0.9261077625425886,1.6387440551410544e-18,0.028215816333032464,-2.3901177004566596e-19,0.028215816333032464,-7.809537894566242e-18,0.9265374898691253,-7.796217288033298e-18,-0.9265374898691253,0.4845416165169878,0.7283123256723101,0.4845416165169878,100.0,45.0,[1.50587411]
-5.573900309406923e-18,0.9282330899777481,-1.4007158028437138e-18,0.9282330899777481,1.5085127395007055e-18,0.027597102792062806,-1.4007158028437138e-18,0.027597102792062806,-7.034661566506168e-18,0.9286432411923073,-6.946536683322259e-18,-0.9286432411923077,0.4849203371304018,0.7278080332578607,0.48492033713040184,100.0,45.0,[1.50587411]
-5.856068159961012e-18,0.9290162988713351,-2.5449030454000324e-18,0.9290162988713351,1.3413825510955914e-18,0.027621079266832348,-2.5449030454000324e-18,0.027621079266832348,-6.279319935792146e-18,0.9294268166932016,-6.128251029212046e-18,-0.9294268166932017,0.4849199546509578,0.7278085429305061,0.4849199546509578,100.0,45.0,[1.50587411]
-6.1599412297884924e-18,0.928495330245622,-3.672353529032259e-18,0.928495330245622,1.1525471434170858e-18,0.028287768906331872,-3.672353529032259e-18,0.028287768906331872,-5.543513002424175e-18,0.9289261413899518,-5.324418134471771e-18,-0.928926141389952,0.4845420541143939,0.7283117434102019,0.48454205411439394,100.0,45.0,[1.50587411]
-6.4942016065987215e-18,0.9264526732401214,-4.7843729583373095e-18,0.9264526732401214,9.354949506831713e-19,0.029723962696143615,-4.7843729583373095e-18,0.029723962696143615,-4.829411288329597e-18,0.9269293768740575,-4.524118243641423e-18,-0.9269293768740576,0.48370929485915776,0.7294180119339753,0.4837092948591577,100.0,45.0,[1.50587411]
-6.863190334246376e-18,0.9222834467904357,-5.871889229947008e-18,0.9222834467904357,6.728617974751348e-19,0.03225277339570767,-5.871889229947008e-18,0.03225277339570767,-4.163061056636479e-18,0.9228472233340476,-3.75181579760368e-18,-0.9228472233340472,0.4822199443691448,0.7313876198741938,0.48221994436914467,100.0,45.0,[1.50587411]
-7.271248456586134e-18,0.9145507966396311,-6.91277319452403e-18,0.9145507966396311,3.364308987375674e-19,0.03661391640815855,-6.91277319452403e-18,0.03661391640815855,-3.5488033511995015e-18,0.9152834197716726,-3.0027819281032924e-18,-0.9152834197716726,0.4795983742666746,0.7348270536674093,0.4795983742666746,100.0,45.0,[1.50377233]
-7.792173719147529e-18,0.8994468973323437,-7.862817425001395e-18,0.8994468973323437,-1.6713018840511414e-19,0.04467814330186689,-7.862817425001395e-18,0.04467814330186689,-3.0843116587489245e-18,0.9005558603494189,-2.3022173896605163e-18,-0.900555860349419,0.4745784196545141,0.741316833207265,0.4745784196545142,100.0,45.0,[1.50591768]
-8.621313095391082e-18,0.8634870279463767,-8.569627541996319e-18,0.8634870279463767,-1.200298625818547e-18,0.062302001712702955,-8.569627541996319e-18,0.062302001712702955,-2.986638172018663e-18,0.8657317060435502,-1.7617276615478512e-18,-0.8657317060435503,0.46272131460631216,0.7561600161460621,0.46272131460631216,100.0,45.0,[1.52764678]
-1.0948112601498645e-17,0.7207627323299125,-8.371380886898491e-18,0.7207627323299125,-6.0101752168020914e-18,0.10029088639870522,-8.371380886898491e-18,0.10029088639870522,-4.7794892840007965e-18,0.7277067941213131,-2.6447325572348818e-18,-0.7277067941213131,0.4263199484624924,0.7978111324654952,0.4263199484624924,100.0,45.0,[1.46999832]
-1.0110291137545736e-17,0.7275757049159426,-9.245499242925381e-18,0.7275757049159426,-6.0557561772762135e-18,0.09876331227490714,-9.245499242925381e-18,0.09876331227490714,-3.961202517393939e-18,0.7342483219153054,-1.7190958937419518e-18,-0.7342483219153048,0.2922505986273364,0.91059276035115,0.29225059862733643,100.0,57.8571428571429,[1.51526905]
-6.711253799332636e-18,0.8718711309252986,-1.1052628319460792e-17,0.8718711309252986,-1.3478941168776088e-18,0.06047814229339858,-1.1052628319460792e-17,0.06047814229339858,6.077461396549605e-20,0.8739661747666323,1.4696226354159776e-18,-0.8739661747666324,0.33387015319647884,0.8815108857008628,0.3338701531964789,100.0,57.8571428571429,[1.52938435]
-4.762125108582083e-18,0.9066790906148087,-1.1961619162546846e-17,0.9066790906148087,-4.341043854678289e-19,0.04317879324157996,-1.1961619162546846e-17,0.04317879324157996,2.174862971193823e-18,0.9077066605153314,3.2904892360235297e-18,-0.9077066605153316,0.34729682290037783,0.8710739541546443,0.34729682290037767,100.0,57.8571428571429,[1.52938435]
-3.1125284438043338e-18,0.9217709133019135,-1.2631174305523302e-17,0.9217709133019135,-4.123991661944375e-20,0.03517888757879343,-1.2631174305523302e-17,0.03517888757879343,3.876552162227712e-18,0.9224419606353155,4.835955138894943e-18,-0.9224419606353154,0.3530964423525113,0.8663981791278185,0.35309644235251136,100.0,57.8571428571429,[1.5228585]
-1.5757989192482192e-18,0.9300197419763682,-1.3222141293247777e-17,0.9300197419763682,1.9968801731520133e-19,0.030761622565294956,-1.3222141293247777e-17,0.030761622565294956,5.43064586220254e-18,0.9305283434096139,6.3020811305378035e-18,-0.9305283434096142,0.3562050952017824,0.8638494430770781,0.3562050952017825,100.0,57.8571428571429,[1.51670104]
-3.4728350837426314e-20,0.9350095191842205,-1.3763309216361993e-17,0.9350095191842205,3.559655960836197e-19,0.028107378157467663,-1.3763309216361993e-17,0.028107378157467663,6.910941816647837e-18,0.9354318925886557,7.735064394891223e-18,-0.9354318925886559,0.35804345816409694,0.862328107005558,0.35804345816409705,100.0,57.8571428571429,[1.51324882]
1.4542496913172269e-18,0.9380997207314782,-1.428179688105577e-17,0.9380997207314782,4.688327363052552e-19,0.02649409849114655,-1.428179688105577e-17,0.02649409849114655,8.345656810619011e-18,0.9384737733636117,9.148826828910567e-18,-0.9384737733636117,0.35915092547870703,0.8614065390137089,0.35915092547870703,100.0,57.8571428571429,[1.51324882]
2.912840426489132e-18,0.939882260392831,-1.4784198519473593e-17,0.939882260392831,5.513125695441427e-19,0.02560161701097891,-1.4784198519473593e-17,0.02560161701097891,9.749984497607438e-18,0.9402308791965481,1.0549540077403378e-17,-0.940230879196548,0.3597612882375044,0.8608969920794141,0.3597612882375043,100.0,57.8571428571429,[1.51324882]
4.393136380934429e-18,0.9406033278746054,-1.5268458070805385e-17,0.9406033278746054,6.099166615822996e-19,0.02529657856035715,-1.5268458070805385e-17,0.02529657856035715,1.1128265921467794e-17,0.9409434293811946,1.194711180010189e-17,-0.9409434293811947,0.3599712414550527,0.8607214477696118,0.3599712414550527,100.0,57.8571428571429,[1.51324882]
5.838703984542299e-18,0.9402971404434824,-1.574277593222536e-17,0.9402971404434824,6.468155343470651e-19,0.025562470159684055,-1.574277593222536e-17,0.025562470159684055,1.2482671604127422e-17,0.9406445408372146,1.3332222476006019e-17,-0.9406445408372147,0.35979392336427274,0.8608697145447084,0.3597939233642727,100.0,57.8571428571429,[1.51324882]
7.271248456586134e-18,0.9387968657226915,-1.620259220598333e-17,0.9387968657226915,6.359629247103694e-19,0.026494362441865902,-1.620259220598333e-17,0.026494362441865902,1.3802348935949622e-17,0.9391706481422585,1.4707711054552955e-17,-0.9391706481422588,0.3591635186349129,0.8613960376990234,0.3591635186349129,100.0,57.8571428571429,[1.51324882]
8.682087709356578e-18,0.9356312140274617,-1.6637949304790082e-17,0.9356312140274617,5.882114423089082e-19,0.028354270221536734,-1.6637949304790082e-17,0.028354270221536734,1.506993374151568e-17,0.9360607529975273,1.6070009100267178e-17,-0.9360607529975276,0.35789486108374857,0.8624514692547568,0.35789486108374857,100.0,57.8571428571429,[1.51324882]
1.004951652358024e-17,0.9296716188241938,-1.702818540724208e-17,0.9296716188241938,4.688327363052552e-19,0.031753001943578336,-1.702818540724208e-17,0.031753001943578336,1.6257209235770193e-17,0.9302137238181484,1.7421251863414198e-17,-0.9302137238181485,0.35554668835012915,0.8643917542448635,0.3555466883501291,100.0,57.8571428571429,[1.51670104]
1.1364852811547761e-17,0.9178913493409433,-1.7360699192188903e-17,0.9178913493409433,1.80153319969149e-19,0.03824183341036542,-1.7360699192188903e-17,0.03824183341036542,1.7270842975837574e-17,0.9186876329947649,1.8706866374738218e-17,-0.918687632994765,0.3509545541085886,0.8681369718546053,0.3509545541085885,100.0,57.8571428571429,[1.53062386]
1.2471818994490727e-17,0.8892462648397991,-1.7472252149212345e-17,0.8892462648397991,-6.229397931463345e-19,0.05265691919559126,-1.7472252149212345e-17,0.05265691919559126,1.7800450326108325e-17,0.8908039462590553,1.9847566854864592e-17,-0.8908039462590552,0.34015404311997,0.8766929074073063,0.3401540431199699,100.0,57.8571428571429,[1.52938435]
1.2458795862926692e-17,0.7620707953409337,-1.6858257280415006e-17,0.7620707953409337,-5.224446279105321e-18,0.0827819429817031,-1.6858257280415006e-17,0.0827819429817031,1.6079226437728383e-17,0.7665538123285209,1.9379583087376987e-17,-0.7665538123285205,0.30934569405586304,0.8992277148410144,0.30934569405586304,100.0,57.8571428571429,[1.52832847]
1.2771351020463528e-17,0.7675492130229319,-1.6091706938810583e-17,0.7675492130229319,-5.2765388053614606e-18,0.07846534061749251,-1.6091706938810583e-17,0.07846534061749251,1.5701555622371372e-17,0.7715494825935281,1.884783857423701e-17,-0.7715494825935282,0.16445553023801224,0.9725784066841441,0.1644555302380122,100.0,70.71428571428567,[1.53999595]
1.294499277465066e-17,0.8960180970530067,-1.4788698537102246e-17,0.8960180970530067,-7.618531964960398e-19,0.04742560696690721,-1.4788698537102246e-17,0.04742560696690721,1.7164487401397956e-17,0.897272321228439,1.8692354499521182e-17,-0.8972723212284388,0.19793908981276595,0.9600209546922338,0.19793908981276592,100.0,70.71428571428567,[1.55648065]
1.200298625818547e-17,0.9237725264505163,-1.276790022974311e-17,0.9237725264505163,-5.643357011081776e-20,0.03383610113644612,-1.276790022974311e-17,0.03383610113644612,1.6354882722500455e-17,0.9243919960519377,1.7288658375707663e-17,-0.9243919960519376,0.20895583438715473,0.955340210894075,0.20895583438715473,100.0,70.71428571428567,[1.56980518]
1.0900361119097184e-17,0.9355762541358617,-1.056836452882836e-17,0.9355762541358617,1.410839252770444e-19,0.027443475316739813,-1.056836452882836e-17,0.027443475316739813,1.5030864346823576e-17,0.9359786705050229,1.564980384368358e-17,-0.9359786705050228,0.21387280137636458,0.9531615024028467,0.21387280137636455,100.0,70.71428571428567,[1.5677986]
9.741302409898081e-18,0.941983097359688,-8.300143678955118e-18,0.941983097359688,1.7147123225979242e-19,0.02380276322260747,-8.300143678955118e-18,0.02380276322260747,1.3524522129250212e-17,0.9422837827578185,1.3939874446737617e-17,-0.9422837827578185,0.21660837386307524,0.9519252201432569,0.21660837386307524,100.0,70.71428571428567,[1.5677986]
8.538833262152195e-18,0.945840306502677,-5.997457314884089e-18,0.945840306502677,1.215492279309921e-19,0.021505784803533046,-5.997457314884089e-18,0.021505784803533046,1.1929188512655939e-17,0.9460847658561539,1.2199425552650473e-17,-0.9460847658561539,0.21831071769129196,0.9511471290406264,0.21831071769129193,100.0,70.71428571428567,[1.5677986]
7.33202307055163e-18,0.9482144374979302,-3.676050199189759e-18,0.9482144374979302,3.255782891008717e-20,0.019991096071597037,-3.676050199189759e-18,0.019991096071597037,1.0281762369805528e-17,0.9484251490769634,1.0435573887134973e-17,-0.9484251490769632,0.21942253236910603,0.9506353162898257,0.21942253236910594,100.0,70.71428571428567,[1.5677986]
6.112189747387031e-18,0.9495664162057629,-1.336787149202553e-18,0.9495664162057629,-9.767348673026152e-20,0.019004843021389613,-1.336787149202553e-18,0.019004843021389613,8.595266832263013e-18,0.9497565808374921,8.648680179818156e-18,-0.9497565808374921,0.22014045282076886,0.9503033000383265,0.2201404528207689,100.0,70.71428571428567,[1.5677986]
4.89669746807711e-18,0.9500861051321143,1.0034255041278636e-18,0.9500861051321143,-2.430984558619842e-19,0.01843348001484103,1.0034255041278636e-18,0.01843348001484103,6.874042943883072e-18,0.9502649106173333,6.835475738252441e-18,-0.9502649106173332,0.22055171522947878,0.950112562709635,0.2205517152294788,100.0,70.71428571428567,[1.5677986]
3.637794750220406e-18,0.9497971826376965,3.350047980024954e-18,0.9497971826376965,-4.2759281968581154e-19,0.018247241043400055,3.350047980024954e-18,0.018247241043400055,5.1246022704477204e-18,0.9499724469437003,4.996440129457848e-18,-0.9499724469437001,0.22067943309463767,0.9500532488329582,0.22067943309463764,100.0,70.71428571428567,[1.5677986]
2.4049382954917722e-18,0.9485647024943292,5.717290414231766e-18,0.9485647024943292,-6.337924027830302e-19,0.01849066300599022,5.717290414231766e-18,0.01849066300599022,3.3339216803929265e-18,0.9487449074627787,3.1123753205268164e-18,-0.9487449074627787,0.22049033054898276,0.9501410570377434,0.22049033054898282,100.0,70.71428571428567,[1.5677986]
1.1438650557077292e-18,0.9460112153470349,8.087924288950045e-18,0.9460112153470349,-8.85572946354371e-19,0.01931278767700115,8.087924288950045e-18,0.01931278767700115,1.486807520227314e-18,0.9462083297721654,1.1567817575817823e-18,-0.9462083297721652,0.21987126528098416,0.9504279317273236,0.21987126528098416,100.0,70.71428571428567,[1.5677986]
-1.410839252770444e-19,0.9412299686341652,1.0493083028075063e-17,0.9412299686341652,-1.2089807135279036e-18,0.021074561779837925,1.0493083028075063e-17,0.021074561779837925,-4.623211705232378e-19,0.9414658735234557,-9.337931059816194e-19,-0.9414658735234557,0.2185438149988282,0.951040063221059,0.21854381499882813,100.0,70.71428571428567,[1.5677986]
-1.4542496913172269e-18,0.9317593442930786,1.2939091668160707e-17,0.9317593442930786,-1.708200756815907e-18,0.024700562111102692,1.2939091668160707e-17,0.024700562111102692,-2.6046263128069735e-18,0.9320866877313891,-3.28908222234551e-18,-0.9320866877313891,0.2157735588820496,0.9523043329601883,0.2157735588820496,100.0,70.71428571428567,[1.5677986]
-2.9063288607071146e-18,0.9083113417186145,1.550856570006632e-17,0.9083113417186145,-2.7240050188106265e-18,0.03304871784183591,1.550856570006632e-17,0.03304871784183591,-5.3047555904168694e-18,0.9089123782002638,-6.439807887662135e-18,-0.9089123782002638,0.20912002189158732,0.955268356477971,0.20912002189158738,100.0,70.71428571428567,[1.56980518]
-5.220105235250643e-18,0.7917320127390145,1.8481672024444227e-17,0.7917320127390145,-7.518687956302797e-18,0.04933937233286369,1.8481672024444227e-17,0.04933937233286369,-1.0527031347594851e-17,0.7932678952648802,-1.2822046374207936e-17,-0.7932678952648802,0.19157806660293378,0.9625984047324012,0.19157806660293383,100.0,70.71428571428567,[1.57106223]
-6.348776637466999e-18,0.7947966596844895,1.957125707476592e-17,0.7947966596844895,-7.590315179904989e-18,0.043084829486729044,1.957125707476592e-17,0.043084829486729044,-1.2135388095753158e-17,0.7959635875952632,-1.42088695684869e-17,-0.7959635875952633,0.04102035064511789,0.9983159127580323,0.04102035064511792,100.0,83.57142857142856,[1.68883589]
-6.531100479363487e-18,0.9121482694366716,1.9343437058408097e-17,0.9121482694366716,-2.94322773347188e-18,0.025434456201609938,1.9343437058408097e-17,0.025434456201609938,-9.86936320361109e-18,0.9125028093099687,-1.094006712912689e-17,-0.912502809309969,0.0595546151656528,0.996446935679438,0.05955461516565286,100.0,83.57142857142856,[1.66297248]
-7.553416307140223e-18,0.9351556976145262,1.9486420190371563e-17,0.9351556976145262,-2.085871572172918e-18,0.018241724672825477,1.9486420190371563e-17,0.018241724672825477,-1.0136337400673805e-17,0.9353335978676007,-1.0896013864112343e-17,-0.9353335978676008,0.06545185649549626,0.9957068388650276,0.0654518564954963,100.0,83.57142857142856,[1.63500467]
-8.712475016339327e-18,0.9446927843612124,1.973319835918849e-17,0.9446927843612124,-1.740758585725994e-18,0.014717171951021929,1.973319835918849e-17,0.014717171951021929,-1.0974158864626715e-17,0.944807415283335,-1.1588456972045771e-17,-0.9448074152833352,0.06821595917973725,0.9953357050896833,0.06821595917973729,100.0,83.57142857142856,[1.63500467]
-9.891068422884482e-18,0.9497755253697109,2.0000359085479335e-17,0.9497755253697109,-1.5714578753935409e-18,0.012568096808497046,2.0000359085479335e-17,0.012568096808497046,-1.2018179911676844e-17,0.9498586766717974,-1.2547198716545498e-17,-0.9498586766717972,0.06986662447787384,0.9951066825060193,0.06986662447787387,100.0,83.57142857142856,[1.63500467]
-1.1097878614485046e-17,0.9527659412396532,2.029649967094067e-17,0.9527659412396532,-1.4607612570992443e-18,0.011076712644962189,2.029649967094067e-17,0.011076712644962189,-1.3155533401602557e-17,0.9528303271565723,-1.3626566188642075e-17,-0.9528303271565723,0.07099701618786515,0.9949466555473414,0.07099701618786518,100.0,83.57142857142856,[1.63500467]
-1.2311200371867628e-17,0.954536353114981,2.0595573852444423e-17,0.954536353114981,-1.4064982089157657e-18,0.009953431835157872,2.0595573852444423e-17,0.009953431835157872,-1.4355832027421103e-17,0.9545882464305461,-1.4784941991927377e-17,-0.9545882464305462,0.07183993793015506,0.9948256362983329,0.0718399379301551,100.0,83.57142857142856,[1.63500467]
-1.3520181085395533e-17,0.9554584329157494,2.0901413957768555e-17,0.9554584329157494,-1.3782814238603568e-18,0.00906103178304526,2.0901413957768555e-17,0.00906103178304526,-1.560605265756845e-17,0.9555013968209531,-1.6002041569735432e-17,-0.9555013968209531,0.07250394068418764,0.9947292883847986,0.07250394068418765,100.0,83.57142857142856,[1.63500467]
-1.4759549105906183e-17,0.9556798792314992,2.1207457549523374e-17,0.9556798792314992,-1.3934750773517308e-18,0.008328299682696999,2.1207457549523374e-17,0.008328299682696999,-1.6886660594698545e-17,0.9557161671456318,-1.725602358061477e-17,-0.955716167145632,0.07304471044612129,0.9946501598811941,0.07304471044612132,100.0,83.57142857142856,[1.63500467]
-1.5977211907143444e-17,0.955209114607562,2.1519537905388605e-17,0.955209114607562,-1.4195213404798006e-18,0.007718136617988756,2.1519537905388605e-17,0.007718136617988756,-1.8199826360738728e-17,0.9552402955603457,-1.8547336247135704e-17,-0.9552402955603456,0.0734909087944816,0.9945844220824709,0.07349090879448164,100.0,83.57142857142856,[1.62651628]
-1.722743253729079e-17,0.9539179838906011,2.183484012973973e-17,0.9539179838906011,-1.47161386673594e-18,0.007215731882367011,2.183484012973973e-17,0.007215731882367011,-1.9556402565325693e-17,0.9539452745186735,-1.988657170857513e-17,-0.9539452745186735,0.07385358411019928,0.9945306914460487,0.07385358411019931,100.0,83.57142857142856,[1.62548438]
-1.8462459513946764e-17,0.9514645529591897,2.215322856495629e-17,0.9514645529591897,-1.5714578753935409e-18,0.006827606811491752,2.215322856495629e-17,0.006827606811491752,-2.0975923905805494e-17,0.9514890497281632,-2.12937486980598e-17,-0.9514890497281632,0.07412671497524223,0.9944900503544309,0.07412671497524226,100.0,83.57142857142856,[1.62548438]
-1.9730044319512825e-17,0.9470334825498253,2.2474482767405042e-17,0.9470334825498253,-1.755952239217368e-18,0.00659324715025039,2.2474482767405042e-17,0.00659324715025039,-2.2493118733015556e-17,0.947056433365211,-2.2805876289667058e-17,-0.9470564333652113,0.07427711681722288,0.9944676062268903,0.07427711681722292,100.0,83.57142857142856,[1.62548438]
-2.101065225664292e-17,0.9384003405811885,2.280664045109816e-17,0.9384003405811885,-2.1119178353009877e-18,0.006627066879306439,2.280664045109816e-17,0.006627066879306439,-2.423170679681421e-17,0.93842374075804,-2.455359697696449e-17,-0.9384237407580401,0.07420673775863337,0.9944781144612702,0.07420673775863341,100.0,83.57142857142856,[1.62548438]
-2.2388933680503277e-17,0.9170008880118099,2.3150074674491908e-17,0.9170008880118099,-2.9627624308179324e-18,0.007241506710211385,2.3150074674491908e-17,0.007241506710211385,-2.655199473713976e-17,0.9170294804606243,-2.6917353281255572e-17,-0.9170294804606245,0.07361967150158036,0.9945653764011689,0.07361967150158039,100.0,83.57142857142856,[1.62548438]
-2.4546432476278386e-17,0.803963538237414,2.3509363882276766e-17,0.803963538237414,-7.625043530742415e-18,0.006450732519643337,2.3509363882276766e-17,0.006450732519643337,-3.148342055605429e-17,0.8039894170729253,-3.186020207602235e-17,-0.8039894170729254,0.07353056120702049,0.9945785605658115,0.07353056120702053,100.0,83.57142857142856,[1.62651628]
