stress_11,stress_12,stress_13,stress_21,stress_22,stress_23,stress_31,stress_32,stress_33,e1,e2,e3,anev1,anev2,anev3,temp,miss,velo
1.1536324043807554e-17,0.7934031354264118,-9.41228180867807e-18,0.7934031354264118,-8.6278246611731e-18,-0.04376985021324116,-9.41228180867807e-18,-0.04376985021324116,-1.793936372945803e-18,0.7946095488302105,-2.789288919784101e-18,-0.7946095488302107,0.196423833241424,0.9606431988358065,0.19642383324142418,500.0,109.28571428571416,[1.67645224]
1.103927452244689e-17,0.9100777718559215,-7.16136578401459e-18,0.9100777718559215,-3.796242850916164e-18,-0.02750528404773266,-7.16136578401459e-18,-0.02750528404773266,4.341043854678289e-21,0.9104933231368506,-4.134575308098817e-19,-0.9104933231368504,0.21327355362453645,0.9534300093078274,0.21327355362453645,500.0,109.28571428571416,[1.68833305]
9.66967518629589e-18,0.9336180054549005,-5.329733549783827e-18,0.9336180054549005,-2.7674154573574094e-18,-0.019193104714060914,-5.329733549783827e-18,-0.019193104714060914,-7.141017140945786e-19,0.9338152683363828,-9.279172203836145e-19,-0.933815268336383,0.2197753315710059,0.9504723074691386,0.21977533157100593,500.0,109.28571428571416,[1.68777019]
8.176356100286558e-18,0.9431793316964046,-3.613249199518661e-18,0.9431793316964046,-2.237808107086658e-18,-0.01560833921604664,-3.613249199518661e-18,-0.01560833921604664,-1.9827717806243086e-18,0.9433084712819872,-2.099134857748202e-18,-0.9433084712819872,0.22246710386711555,0.9492190344667327,0.22246710386711555,500.0,109.28571428571416,[1.68777019]
6.6461381415124616e-18,0.9480501056632165,-1.9518418431597258e-18,0.9480501056632165,-1.8840130329303775e-18,-0.013891837888508517,-1.9518418431597258e-18,-0.013891837888508517,-3.461982474105936e-18,0.9481518791881168,-3.517748690808129e-18,-0.9481518791881166,0.22373870631344794,0.948621095377058,0.2237387063134479,500.0,109.28571428571416,[1.68777019]
5.089873919610294e-18,0.9506920273892576,-3.056620546972793e-19,0.9506920273892576,-1.5931630946669323e-18,-0.013118582995256055,-3.056620546972793e-19,-0.013118582995256055,-5.029099305644798e-18,0.9507825346320266,-5.0358106129152104e-18,-0.9507825346320266,0.2243114054999471,0.9483505610929308,0.22431140549994713,500.0,109.28571428571416,[1.68777019]
3.537950741562806e-18,0.9520118622260947,1.3219411183636044e-18,0.9520118622260947,-1.3630877703689828e-18,-0.012927386055865124,1.3219411183636044e-18,-0.012927386055865124,-6.658076012112827e-18,0.952099628783372,-6.619942367270345e-18,-0.9520996287833717,0.22445887771226686,0.9482807729951608,0.22445887771226683,500.0,109.28571428571416,[1.68777019]
1.964322344241926e-18,0.9523870503894145,2.941438748602081e-18,0.9523870503894145,-1.156888187271764e-18,-0.013169028657859945,2.941438748602081e-18,-0.013169028657859945,-8.32395159134562e-18,0.9524780926957016,-8.24023847907314e-18,-0.9524780926957017,0.22429235859853502,0.9483595709163335,0.22429235859853508,500.0,109.28571428571416,[1.68777019]
3.60306639938298e-19,0.95195252202016,4.5513216449905475e-18,0.95195252202016,-9.875874769393108e-19,-0.013798821094675775,4.5513216449905475e-18,-0.013798821094675775,-1.0027811304306848e-17,0.9520525256749998,-9.89335254503102e-18,-0.9520525256749999,0.22384451621019377,0.9485711703004939,0.22384451621019377,500.0,109.28571428571416,[1.68777019]
-1.2241743670192776e-18,0.9506845819452563,6.150674118590908e-18,0.9506845819452563,-8.378214639529099e-19,-0.014846385264374935,6.150674118590908e-18,-0.014846385264374935,-1.1756632019432477e-17,0.9508004993182558,-1.156234088874634e-17,-0.9508004993182562,0.22309248607930332,0.9489254371708622,0.22309248607930332,500.0,109.28571428571416,[1.68777019]
-2.839042680959601e-18,0.9483933539669535,7.738796684797671e-18,0.9483933539669535,-7.119311921672394e-19,-0.016425125597423654,7.738796684797671e-18,-0.016425125597423654,-1.3535374738886907e-17,0.9485355758217919,-1.3263558285000199e-17,-0.9485355758217918,0.22195019400680518,0.9494610169778869,0.22195019400680516,500.0,109.28571428571416,[1.68777019]
-4.4213531659898376e-18,0.944617906139928,9.307312485547514e-18,0.944617906139928,-6.359629247103694e-19,-0.01878875652409797,9.307312485547514e-18,-0.01878875652409797,-1.534884580917876e-17,0.9448047448927759,-1.4973963896271616e-17,-0.9448047448927761,0.2202236800579479,0.9502647323159316,0.2202236800579479,500.0,109.28571428571416,[1.68777019]
-6.068779308840248e-18,0.9382916935201157,1.0843208987528e-17,0.9382916935201157,-6.359629247103694e-19,-0.022498587117880674,1.0843208987528e-17,-0.022498587117880674,-1.7264331410055556e-17,0.9385613930644858,-1.6740013163126134e-17,-0.9385613930644857,0.21747634297215804,0.9515293376953295,0.21747634297215798,500.0,109.28571428571416,[1.68777019]
-7.800855806856886e-18,0.9265675227704169,1.23167315993768e-17,0.9265675227704169,-8.074341569701619e-19,-0.02896268055436234,1.23167315993768e-17,-0.02896268055436234,-1.935888506993783e-17,0.9270200705043026,-1.8578536880878828e-17,-0.9270200705043025,0.21257630422306,0.9537413851593785,0.21257630422305995,500.0,109.28571428571416,[1.68833305]
-9.66967518629589e-18,0.8988918039421293,1.3598234028941796e-17,0.8988918039421293,-1.4911485640819924e-18,-0.04262596403658726,1.3598234028941796e-17,-0.04262596403658726,-2.1959170338890126e-17,0.8999019102126544,-2.0639642773198075e-17,-0.8999019102126544,0.2016662097656924,0.9584682987337032,0.20166620976569238,500.0,109.28571428571416,[1.69249384]
-1.2660654402169232e-17,0.7705017437873711,1.417652020862886e-17,0.7705017437873711,-5.965679517291639e-18,-0.07374209502988383,1.417652020862886e-17,-0.07374209502988383,-2.6848270980221552e-17,0.7740225021010536,-2.4003270595246418e-17,-0.7740225021010539,0.16889371931592245,0.9710560350212902,0.16889371931592234,500.0,109.28571428571416,[1.68642507]
1.2508717867255492e-17,0.7963862277096594,-1.037211034503102e-17,0.7963862277096594,-8.649529880446491e-18,-0.03743423857880636,-1.037211034503102e-17,-0.03743423857880636,-7.770468499874139e-19,0.7972655429049953,-1.7423124375071783e-18,-0.7972655429049951,0.04609129425341328,0.9978733312340253,0.046091294253413295,500.0,96.42857142857144,[1.68525024]
1.3717698580783396e-17,0.9136368084447031,-1.0608392005464955e-17,0.9136368084447031,-3.8656995525910166e-18,-0.019742414550620858,-1.0608392005464955e-17,-0.019742414550620858,3.3187280269015525e-18,0.913850086544457,2.8632435249361122e-18,-0.9138500865444573,0.06397239222560953,0.9958991244427646,0.06397239222560958,500.0,96.42857142857144,[1.68098018]
1.4067152611084996e-17,0.9365445989504102,-1.122948346353254e-17,0.9365445989504102,-2.869429987942349e-18,-0.01250528483424883,-1.122948346353254e-17,-0.01250528483424883,4.8934416851861015e-18,0.9366280841251619,4.5954092381365765e-18,-0.9366280841251616,0.06978228874128072,0.9951185177435187,0.06978228874128069,500.0,96.42857142857144,[1.68168809]
1.4303739501164963e-17,0.9459818248072167,-1.194305950434784e-17,0.9459818248072167,-2.3832330762183808e-18,-0.008938284176975297,-1.194305950434784e-17,-0.008938284176975297,5.895137554653117e-18,0.9460240513801009,5.670399862192436e-18,-0.946024051380101,0.07252838380079576,0.9947257245524966,0.07252838380079578,500.0,96.42857142857144,[1.68168809]
1.451210960618952e-17,0.9509641278844447,-1.2695331881398986e-17,0.9509641278844447,-2.068507396754205e-18,-0.006750002394049217,-1.2695331881398986e-17,-0.006750002394049217,6.6895485800592445e-18,0.9509880835506518,6.5097075589597895e-18,-0.9509880835506518,0.07418144276213118,0.9944818887739774,0.07418144276213119,500.0,96.42857142857144,[1.67666728]
1.4703115535795366e-17,0.953853466809324,-1.3460067802329773e-17,0.953853466809324,-1.831920506674238e-18,-0.005223105693549625,-1.3460067802329773e-17,-0.005223105693549625,7.386286118735109e-18,0.9538677670291893,7.239080989513367e-18,-0.9538677670291894,0.07532208569941197,0.9943103976182595,0.07532208569941198,500.0,96.42857142857144,[1.67666728]
1.487024572420048e-17,0.9555221785973703,-1.4230772658560742e-17,0.9555221785973703,-1.6517671867050892e-18,-0.00406823213962676,-1.4230772658560742e-17,-0.00406823213962676,8.0179079995908e-18,0.9555308390126439,7.896853345863094e-18,-0.9555308390126438,0.07617850123685965,0.9941798991624261,0.07617850123685965,500.0,96.42857142857144,[1.67666728]
1.504388747838761e-17,0.9563419792555701,-1.500639510353334e-17,0.9563419792555701,-1.4824664763726358e-18,-0.003148299066099377,-1.500639510353334e-17,-0.003148299066099377,8.610460485754387e-18,0.956347161376804,8.511730312491338e-18,-0.9563471613768042,0.07685724937683602,0.9940754128517886,0.07685724937683605,500.0,96.42857142857144,[1.67666728]
1.5208847144865386e-17,0.9564606241784733,-1.5786409463968287e-17,0.9564606241784733,-1.3478941168776088e-18,-0.0023921916765539636,-1.5786409463968287e-17,-0.0023921916765539636,9.170455143007886e-18,0.9564636157141014,9.0915272657977e-18,-0.9564636157141014,0.07741318245505031,0.9939891339267055,0.07741318245505034,500.0,96.42857142857144,[1.67666728]
1.5369465767488483e-17,0.9558865994917032,-1.657039180980165e-17,0.9558865994917032,-1.2437090643653299e-18,-0.0017628836886733898,-1.657039180980165e-17,-0.0017628836886733898,9.684868839787263e-18,0.955888225080062,9.623768948875095e-18,-0.9558882250800619,0.07787483345841355,0.9939170089236067,0.07787483345841356,500.0,96.42857142857144,[1.67666728]
1.5510549692765527e-17,0.9544918177434644,-1.7357952125374614e-17,0.9544918177434644,-1.1655702749811207e-18,-0.0012456188210379722,-1.7357952125374614e-17,-0.0012456188210379722,1.0173236273438571e-17,0.9544926305139655,1.0127940979573616e-17,-0.9544926305139655,0.07825379637950707,0.9938574780643296,0.07825379637950708,500.0,96.42857142857144,[1.67659307]
1.5664656749606607e-17,0.9519344152882607,-1.8146156814644756e-17,0.9519344152882607,-1.126500880289016e-18,-0.0008469580671325779,-1.8146156814644756e-17,-0.0008469580671325779,1.0583464917705669e-17,0.9519347920672772,1.055117893628998e-17,-0.9519347920672773,0.07854563579042342,0.993811433923235,0.07854563579042345,500.0,96.42857142857144,[1.67635407]
1.580574067488365e-17,0.94739912534936,-1.89419922450657e-17,0.94739912534936,-1.1829344503998338e-18,-0.0006064138564977957,-1.89419922450657e-17,-0.0006064138564977957,1.0909043206806541e-17,0.9473993194268706,1.0884796378601206e-17,-0.9473993194268706,0.0787210632081639,0.9937836728457319,0.07872106320816391,500.0,96.42857142857144,[1.67635407]
1.5901243639686573e-17,0.9386615898586834,-1.9740405170275358e-17,0.9386615898586834,-1.3891340334970526e-18,-0.0006384148862477897,-1.9740405170275358e-17,-0.0006384148862477897,1.101105773739148e-17,0.93866180696223,1.0984207749181525e-17,-0.93866180696223,0.07869291929105181,0.9937881307939355,0.07869291929105181,500.0,96.42857142857144,[1.67635407]
1.590775520546859e-17,0.9171576449768724,-2.055796277717225e-17,0.9171576449768724,-2.1097473133736486e-18,-0.001255405219733369,-2.055796277717225e-17,-0.001255405219733369,1.0524860825667512e-17,0.9171585041756894,1.0468591660115127e-17,-0.9171585041756894,0.07820896527721416,0.9938645357897298,0.0782089652772142,500.0,96.42857142857144,[1.67659307]
1.5139390443190534e-17,0.804015780229935,-2.139712386012719e-17,0.804015780229935,-6.633115009948427e-18,-0.00047154311094621944,-2.139712386012719e-17,-0.00047154311094621944,7.425355513427214e-18,0.8040159185063792,7.4002600161917e-18,-0.8040159185063792,0.07875872690616856,0.9937777044551962,0.07875872690616859,500.0,96.42857142857144,[1.67635407]
-1.3075224090291009e-17,0.765088545160433,1.4230734504854988e-17,0.765088545160433,-5.879943901161743e-18,-0.07812051045406927,1.4230734504854988e-17,-0.07812051045406927,-2.6710442837835517e-17,0.7690665095356262,-2.3639518442640915e-17,-0.7690665095356265,0.3134401506621805,0.8963874965134996,0.3134401506621805,500.0,122.14285714285735,[1.69002319]
-1.045323360206532e-17,0.8923345237980769,1.4145940013467024e-17,0.8923345237980769,-1.2263448889466167e-18,-0.048051860290458485,1.4145940013467024e-17,-0.048051860290458485,-2.2031882823455987e-17,0.8936273740431828,-2.050516326421874e-17,-0.8936273740431829,0.3434647906879974,0.8741074734352178,0.3434647906879974,500.0,122.14285714285735,[1.69053567]
-8.968596603765346e-18,0.9210479303981689,1.3335042347874527e-17,0.9210479303981689,-3.5162455222894143e-19,-0.03369450567567408,1.3335042347874527e-17,-0.03369450567567408,-1.961500665736385e-17,0.9216640438920668,-1.8620425887919844e-17,-0.9216640438920668,0.35406363495159227,0.8656083899834446,0.3540636349515924,500.0,122.14285714285735,[1.67385057]
-7.696670754344607e-18,0.9328952053787289,1.2320518354672885e-17,0.9328952053787289,-1.0852609636695723e-20,-0.027265076944701955,1.2320518354672885e-17,-0.027265076944701955,-1.768432740299568e-17,0.9332935490184324,-1.6958393594063565e-17,-0.9332935490184325,0.35855188769742585,0.8619054981012853,0.35855188769742585,500.0,122.14285714285735,[1.67385057]
-6.47249638732533e-18,0.938920706076869,1.1224464131575568e-17,0.938920706076869,1.6930071033245328e-19,-0.02392741607991482,1.1224464131575568e-17,-0.02392741607991482,-1.5916437293177947e-17,0.9392255392290754,-1.5338421751473288e-17,-0.9392255392290755,0.3608284731232099,0.8600032709049111,0.3608284731232099,500.0,122.14285714285735,[1.67385057]
-5.2917324588528346e-18,0.942151230094645,1.0093410242399907e-17,0.942151230094645,2.669741970627148e-19,-0.02213016971404992,1.0093410242399907e-17,-0.02213016971404992,-1.4241879626235797e-17,0.9424111017917951,-1.3763440021703563e-17,-0.9424111017917952,0.3620402033574458,0.8589841571913877,0.36204020335744574,500.0,122.14285714285735,[1.67267151]
-4.141355837363088e-18,0.943715372203356,8.94729835735333e-18,0.943715372203356,3.168962013915151e-19,-0.021262431901346288,8.94729835735333e-18,-0.021262431901346288,-1.2610732397840432e-17,0.9439548690182592,-1.2200772762187249e-17,-0.9439548690182595,0.36262186860169315,0.8584933085491306,0.36262186860169326,500.0,122.14285714285735,[1.67267151]
-2.988808693946002e-18,0.9440844373835727,7.776089812521895e-18,0.9440844373835727,3.5813611801095886e-19,-0.021062083456937365,7.776089812521895e-18,-0.021062083456937365,-1.1016484042209829e-17,0.944319350786271,-1.0667949787884748e-17,-0.944319350786271,0.36275596312745484,0.8583799988530402,0.3627559631274549,500.0,122.14285714285735,[1.67267151]
-1.8666488575116644e-18,0.9434252683658403,6.597971207648346e-18,0.9434252683658403,3.494540303016023e-19,-0.021433947148042757,6.597971207648346e-18,-0.021433947148042757,-9.445026166816288e-18,0.9436687189270938,-9.139009508898406e-18,-0.9436687189270938,0.3625073536664429,0.8585900285208912,0.3625073536664429,500.0,122.14285714285735,[1.67267151]
-7.444890210773266e-19,0.9417036565646549,5.400512913258152e-18,0.9417036565646549,3.2991933295555e-19,-0.02239442960288147,5.400512913258152e-18,-0.02239442960288147,-7.897444032623478e-18,0.9419698972177826,-7.637189318068654e-18,-0.9419698972177826,0.3618630599265433,0.8591334306853609,0.3618630599265433,500.0,122.14285714285735,[1.67267151]
3.4294246451958485e-19,0.9386734214155444,4.186292424140031e-18,0.9386734214155444,2.702299799537235e-19,-0.024076782021601642,4.186292424140031e-18,-0.024076782021601642,-6.387846032159103e-18,0.9389821529211724,-6.166369574436295e-18,-0.9389821529211725,0.3607276856061065,0.8600878290468501,0.3607276856061065,500.0,122.14285714285735,[1.67385057]
1.4325444720438354e-18,0.9337426616803672,2.956556094681947e-18,0.9337426616803672,1.7472701515080114e-19,-0.026801072414917047,2.956556094681947e-18,-0.026801072414917047,-4.911891121568484e-18,0.9341272160281635,-4.738019891120312e-18,-0.9341272160281635,0.3588705958741985,0.8616401748025654,0.3588705958741985,500.0,122.14285714285735,[1.67385057]
2.459201343675251e-18,0.9255519244102525,1.6667743109683326e-18,0.9255519244102525,-5.4263048183478615e-21,-0.0312892698418992,1.6667743109683326e-18,-0.0312892698418992,-3.5184160442167534e-18,0.9260806569553004,-3.396459718795962e-18,-0.9260806569553002,0.3557597395101648,0.8642164170433927,0.35575973951016476,500.0,122.14285714285735,[1.67385057]
3.3968668162857617e-18,0.910517322437377,3.023977932049919e-19,0.910517322437377,-3.5488033511995015e-19,-0.039360937836655986,3.023977932049919e-19,-0.039360937836655986,-2.2725364579240844e-18,0.911367696314672,-2.237274108201392e-18,-0.9113676963146721,0.34999423404042135,0.868912004910116,0.3499942340404214,500.0,122.14285714285735,[1.6877734]
4.067558091833557e-18,0.8757658970342175,-1.3033984173671563e-18,0.8757658970342175,-1.2100659744915731e-18,-0.05673293065746427,-1.3033984173671563e-18,-0.05673293065746427,-1.433629733007505e-18,0.8776015792084312,-1.577062856290356e-18,-0.8776015792084311,0.33671178577397126,0.8793465452492588,0.3367117857739712,500.0,122.14285714285735,[1.69053567]
3.2601239348633956e-18,0.7315270693163012,-3.802076128595888e-18,0.7315270693163012,-5.8680060305613775e-18,-0.09509213500567616,-3.802076128595888e-18,-0.09509213500567616,-2.514549652822399e-18,0.7376817520329713,-3.949010908228991e-18,-0.7376817520329715,0.29588511791977584,0.9082422551209564,0.29588511791977584,500.0,122.14285714285735,[1.67253794]
3.077800092966907e-18,0.7247592376715705,-4.433494523020891e-18,0.7247592376715705,-5.870176552488717e-18,-0.09667701824104755,-4.433494523020891e-18,-0.09667701824104755,-1.7331617589803072e-18,0.7311787732464994,-2.929554395170634e-18,-0.7311787732464994,0.4294997628567526,0.7943927916415066,0.42949976285675284,500.0,135.00000000000023,[1.64304757]
4.145696881217766e-18,0.8675314156301847,-3.04651405424862e-18,0.8675314156301847,-1.19270179907286e-18,-0.058740280196464996,-3.04651405424862e-18,-0.058740280196464996,2.984467650091324e-19,0.8695177845351251,-7.401490281708369e-20,-0.8695177845351251,0.4650802719728912,0.7532600356073877,0.46508027197289115,500.0,135.00000000000023,[1.68470772]
3.70508092996792e-18,0.9035374480699014,-2.560724115386028e-18,0.9035374480699014,-3.1906672331885426e-19,-0.04116876164897461,-2.560724115386028e-18,-0.04116876164897461,4.417012122135159e-19,0.9044748680866593,1.9405450982205316e-19,-0.9044748680866592,0.47672340981966616,0.7385591249587409,0.47672340981966616,500.0,135.00000000000023,[1.67547799]
2.9519098211812367e-18,0.9186864046007799,-2.3256803307387788e-18,0.9186864046007799,4.558096047412204e-20,-0.03315753145996382,-2.3256803307387788e-18,-0.03315753145996382,2.1705219273391446e-19,0.919284576119292,5.452168907959814e-20,-0.919284576119292,0.48164023205905937,0.7321511959453394,0.48164023205905937,500.0,135.00000000000023,[1.67547799]
2.1054062695189703e-18,0.9264631414423116,-2.1782713689078477e-18,0.9264631414423116,2.3333110718895805e-19,-0.028850130442675714,-2.1782713689078477e-18,-0.028850130442675714,-1.5085127395007055e-19,0.9269122301910342,-2.7953447889248617e-19,-0.9269122301910342,0.48419525698492727,0.7287728769833579,0.48419525698492727,500.0,135.00000000000023,[1.67547799]
1.2220038450919384e-18,0.9306755063707565,-2.0756294218282864e-18,0.9306755063707565,3.4619824741059357e-19,-0.026375812073461704,-2.0756294218282864e-18,-0.026375812073461704,-5.838703984542299e-19,0.9310491832449019,-6.995677006583253e-19,-0.9310491832449022,0.4856347605319968,0.7268547026236124,0.48563476053199695,500.0,135.00000000000023,[1.67547799]
2.821678505540888e-19,0.9327603434619055,-1.9982367493566e-18,0.9327603434619055,4.1891073197645496e-19,-0.0249948472976769,-1.9982367493566e-18,-0.0249948472976769,-1.0548736566868243e-18,0.9330951723841501,-1.1632187860659903e-18,-0.93309517238415,0.48642706715800604,0.7257943349683306,0.48642706715800604,500.0,135.00000000000023,[1.67547799]
-7.010785825305437e-19,0.9333225096470277,-1.9407687898897847e-18,0.9333225096470277,4.449569951045246e-19,-0.024384106299006753,-1.9407687898897847e-18,-0.024384106299006753,-1.5486673951564799e-18,0.933640986489897,-1.6494581820140412e-18,-0.933640986489897,0.48677083402543003,0.7253332408516616,0.48677083402543003,500.0,135.00000000000023,[1.67547799]
-1.6517671867050892e-18,0.9325794834739577,-1.8971548649123138e-18,0.9325794834739577,4.829411288329597e-19,-0.024416782736823836,-1.8971548649123138e-18,-0.024416782736823836,-2.0674221357905352e-18,0.9328990686434256,-2.1692582520048492e-18,-0.9328990686434254,0.4867422057017065,0.7253716636161599,0.4867422057017065,500.0,135.00000000000023,[1.67547799]
-2.6654009267724696e-18,0.9304932858033009,-1.868446320982742e-18,0.9304932858033009,4.634064314869074e-19,-0.02509284223086123,-1.868446320982742e-18,-0.02509284223086123,-2.6024557908796344e-18,0.9308315667489181,-2.7068206393477874e-18,-0.9308315667489182,0.48633956771293324,0.7259115991314603,0.48633956771293324,500.0,135.00000000000023,[1.67547799]
-3.6681820572031544e-18,0.9267583581634751,-1.8662079702451736e-18,0.9267583581634751,4.2759281968581154e-19,-0.026539023512457457,-1.8662079702451736e-18,-0.026539023512457457,-3.160279926205795e-18,0.9271382713462185,-3.2721824687682852e-18,-0.9271382713462186,0.4854827820578957,0.7270577258035646,0.48548278205789586,500.0,135.00000000000023,[1.67547799]
-4.739334628345022e-18,0.9206359680745664,-1.881571195762121e-18,0.9206359680745664,3.3426037681022827e-19,-0.029078392908656193,-1.881571195762121e-18,-0.029078392908656193,-3.7463208465873636e-18,0.9210950757911717,-3.865580374801035e-18,-0.9210950757911714,0.4839660956824207,0.7290772499946955,0.4839660956824207,500.0,135.00000000000023,[1.67547799]
-5.8680060305613775e-18,0.9104330087563051,-1.9433632418810573e-18,0.9104330087563051,1.7689753707814029e-19,-0.033450626109852825,-1.9433632418810573e-18,-0.033450626109852825,-4.392051119970759e-18,0.9110473137110932,-4.5353959946322254e-18,-0.9110473137110934,0.4813045214271712,0.7325925984525936,0.4813045214271712,500.0,135.00000000000023,[1.67547799]
-7.123652965527073e-18,0.8917232643760284,-2.0926544531958528e-18,0.8917232643760284,-1.5736283973208798e-19,-0.04152644386131525,-2.0926544531958528e-18,-0.04152644386131525,-5.1397959239390945e-18,0.8926896581506969,-5.331956608888182e-18,-0.8926896581506968,0.4761995463664224,0.7392347286760999,0.4761995463664224,500.0,135.00000000000023,[1.67547799]
-8.769993847413814e-18,0.8489921800631501,-2.4958967300093283e-18,0.8489921800631501,-1.0071221742853631e-18,-0.059162380277518994,-2.4958967300093283e-18,-0.059162380277518994,-6.19249905869858e-18,0.8510510613638184,-6.548354337756676e-18,-0.8510510613638185,0.4640319691981369,0.7545519618450398,0.4640319691981367,500.0,135.00000000000023,[1.68470772]
-1.228189832584855e-17,0.6873354135398595,-3.790545230856899e-18,0.6873354135398595,-5.641186489154437e-18,-0.09716387109856087,-3.790545230856899e-18,-0.09716387109856087,-8.747203367176753e-18,0.6941691354078392,-9.87658839472133e-18,-0.6941691354078394,0.4250920361754219,0.799120467489394,0.42509203617542196,500.0,135.00000000000023,[1.62018629]
-1.271600271131638e-17,0.6805620305457035,-3.5070547185033376e-18,0.6805620305457035,-5.623279683253889e-18,-0.09563808362856789,-3.5070547185033376e-18,-0.09563808362856789,-8.584956853108152e-18,0.6872490963694571,-1.01313832522376e-17,-0.6872490963694573,0.5405459684276628,0.6446860569557868,0.5405459684276628,500.0,147.8571428571427,[1.59750464]
-9.423320947542896e-18,0.8407383854814873,-1.770535433416678e-18,0.8407383854814873,-9.398359945378496e-19,-0.057343881745848334,-1.770535433416678e-18,-0.057343881745848334,-6.3064514598838855e-18,0.8426917310592881,-6.498385851252352e-18,-0.842691731059288,0.5717365184083767,0.5884171199383446,0.5717365184083765,500.0,147.8571428571427,[1.48796034]
-8.037442696936853e-18,0.8847104778949049,-9.356984371138594e-19,0.8847104778949049,-3.364308987375674e-20,-0.04003602756571727,-9.356984371138594e-19,-0.04003602756571727,-5.496846780986384e-18,0.8856158948439636,-5.576612579605297e-18,-0.8856158948439635,0.581105285255774,0.5697660001225162,0.581105285255774,500.0,147.8571428571427,[1.4790206]
-7.059622568670568e-18,0.903520818929058,-3.3181853964197173e-19,0.903520818929058,3.413145730740805e-19,-0.03202809947871652,-3.3181853964197173e-19,-0.03202809947871652,-4.962898386860954e-18,0.9040883084049114,-4.991546345581598e-18,-0.9040883084049116,0.5850212787330576,0.5616940509379428,0.5850212787330576,500.0,147.8571428571427,[1.4790206]
-6.24459158495472e-18,0.9132957303130765,1.804246352100664e-19,0.9132957303130765,5.464288952076297e-19,-0.027603305193274027,1.804246352100664e-19,-0.027603305193274027,-4.5206545441656035e-18,0.9137127740519385,-4.5091395815553225e-18,-0.9137127740519386,0.5870860238929891,0.5573688196329621,0.5870860238929891,500.0,147.8571428571427,[1.47953535]
-5.4946762590590446e-18,0.9186853031505406,6.490538850846336e-19,0.9186853031505406,6.934817557848567e-19,-0.02494205241158609,6.490538850846336e-19,-0.02494205241158609,-4.121821140017036e-18,0.919023825699477,-4.081725957686375e-18,-0.9190238256994772,0.5882938242177442,0.5548159629773854,0.5882938242177443,500.0,147.8571428571427,[1.47953535]
-4.805535547128866e-18,0.9214599632375534,1.097673635941543e-18,0.9214599632375534,7.770468499874139e-19,-0.023322321889403235,1.097673635941543e-18,-0.023322321889403235,-3.752832412369381e-18,0.9217550621222899,-3.6981889478144546e-18,-0.92175506212229,0.5890140106760964,0.553285631888737,0.5890140106760963,500.0,147.8571428571427,[1.47953535]
-4.1196506180896965e-18,0.9223713325785309,1.5231637625102447e-18,0.9223713325785309,8.35108311543736e-19,-0.02242399038124664,1.5231637625102447e-18,-0.02242399038124664,-3.399037338213101e-18,0.9226438698150619,-3.3266054792483457e-18,-0.9226438698150621,0.5894042959839702,0.5524537553056197,0.58940429598397,500.0,147.8571428571427,[1.47953535]
-3.4750056056699705e-18,0.921696205243631,1.9340706948796366e-18,0.921696205243631,8.844876853907014e-19,-0.022113751821176038,1.9340706948796366e-18,-0.022113751821176038,-3.065319591884707e-18,0.9219614486409498,-2.9729499270809046e-18,-0.9219614486409496,0.5895287258899399,0.5521881587839137,0.5895287258899398,500.0,147.8571428571427,[1.47953535]
-2.8433837248142795e-18,0.919400313255404,2.3416540155477903e-18,0.919400313255404,8.985960779184059e-19,-0.022375147544150185,2.3416540155477903e-18,-0.022375147544150185,-2.7391986723020005e-18,0.9196725413111762,-2.627922639423071e-18,-0.9196725413111762,0.589394365058502,0.552474945019745,0.5893943650585018,500.0,147.8571428571427,[1.47953535]
-2.2747069798514236e-18,0.9151274054277992,2.7247511357231493e-18,0.9151274054277992,8.519298564806144e-19,-0.023303307305903846,2.7247511357231493e-18,-0.023303307305903846,-2.425558253801494e-18,0.9154240614580816,-2.289488285813571e-18,-0.9154240614580815,0.5889536500431963,0.5534141272154091,0.5889536500431964,500.0,147.8571428571427,[1.47953535]
-1.7125418006705853e-18,0.9080051422058382,3.087160468778557e-18,0.9080051422058382,7.900699815514487e-19,-0.025160309581182243,3.087160468778557e-18,-0.025160309581182243,-2.1406772508382314e-18,0.9083536643017769,-1.9696445177108604e-18,-0.908353664301777,0.5880743147218396,0.5552811906852938,0.5880743147218395,500.0,147.8571428571427,[1.47953535]
-1.2664995446023909e-18,0.8960321121333313,3.412569185853856e-18,0.8960321121333313,6.554976220564217e-19,-0.02855703109950291,3.412569185853856e-18,-0.02855703109950291,-1.8791293585938645e-18,0.8964870606982217,-1.6638723284744237e-18,-0.8964870606982218,0.5864368574830179,0.5587339477523139,0.5864368574830178,500.0,147.8571428571427,[1.47953535]
-9.940990427213282e-19,0.8740009867425605,3.6651636751479484e-18,0.8740009867425605,3.244930281372021e-19,-0.03504482195098151,3.6651636751479484e-18,-0.03504482195098151,-1.6951776252518721e-18,0.8747033007669206,-1.4024082159180274e-18,-0.8747033007669207,0.5831711756531558,0.5655287435441564,0.5831711756531559,500.0,147.8571428571427,[1.4790206]
-1.1883607552181817e-18,0.8239566123565264,3.711795982180625e-18,0.8239566123565264,-4.905379555786467e-19,-0.049459924637909526,3.711795982180625e-18,-0.049459924637909526,-1.7087433872977418e-18,0.8254397513999617,-1.292193600541954e-18,-0.8254397513999618,0.5751067238304695,0.5818114062219547,0.5751067238304695,500.0,147.8571428571427,[1.4790206]
-3.651903142748111e-18,0.6467517415943081,3.026826742079552e-18,0.6467517415943081,-5.110493877920016e-18,-0.07958616086967953,3.026826742079552e-18,-0.07958616086967953,-2.8515231820418012e-18,0.6516300885143699,-2.6221276885656243e-18,-0.6516300885143698,0.5482949272113384,0.6314628616067823,0.5482949272113384,500.0,147.8571428571427,[1.55284143]
-3.408804686886127e-18,0.6413115137569781,3.2451337678027096e-18,0.6413115137569781,-5.181578471040373e-18,-0.07526009020991303,3.2451337678027096e-18,-0.07526009020991303,-2.4071088174191114e-18,0.6457124273666037,-1.5444604623980655e-18,-0.6457124273666037,0.6356571767328755,0.43804098819172166,0.6356571767328755,500.0,160.7142857142859,[1.34070716]
-2.1705219273391446e-21,0.81731096553387,3.9683245424680205e-18,0.81731096553387,-7.097606702399003e-19,-0.044200109243672195,3.9683245424680205e-18,-0.044200109243672195,-8.5627090033529265e-19,0.8185052620716984,-4.046567783553586e-19,-0.8185052620716983,0.6538409152443291,0.3807677968328162,0.653840915244329,500.0,160.7142857142859,[0.97247815]
1.1123924877613116e-18,0.8683324507123473,3.981992047729234e-18,0.8683324507123473,-4.341043854678289e-20,-0.03059156572708394,3.981992047729234e-18,-0.03059156572708394,-4.140270576399419e-19,0.8688711577982926,-1.398783187587169e-19,-0.8688711577982926,0.6587898331652435,0.36330691080162686,0.6587898331652435,500.0,160.7142857142859,[0.97247815]
1.7299059760892985e-18,0.8904260503156576,3.815675805046872e-18,0.8904260503156576,1.2643290226750517e-19,-0.024181146938143137,3.815675805046872e-18,-0.024181146938143137,-1.4759549105906183e-19,0.8907543314225232,5.671491266277221e-20,-0.8907543314225231,0.6608403905319602,0.3557807702548487,0.6608403905319602,500.0,160.7142857142859,[0.96698912]
2.1683514054118055e-18,0.9020374055190167,3.57963154544874e-18,0.9020374055190167,1.2100659744915731e-19,-0.02052396954220929,3.57963154544874e-18,-0.02052396954220929,6.294513589283519e-20,0.9022708652512549,2.282018587712482e-19,-0.902270865251255,0.6619412126851539,0.3516641322310477,0.6619412126851539,500.0,160.7142857142859,[0.96758333]
2.4830770848759814e-18,0.9085532938661104,3.313573037324122e-18,0.9085532938661104,5.2092526256139477e-20,-0.018211946704012473,3.313573037324122e-18,-0.018211946704012473,2.425558253801494e-19,0.908735804729685,3.761067412935657e-19,-0.908735804729685,0.6626118378929324,0.3491290657741063,0.6626118378929325,500.0,160.7142857142859,[0.96834971]
2.7826091108487834e-18,0.9120370562533292,3.0261145395721437e-18,0.9120370562533292,-6.511565782017434e-20,-0.0166837291687994,3.0261145395721437e-18,-0.0166837291687994,4.1239916619443753e-19,0.9121896397121689,5.247536572358873e-19,-0.9121896397121689,0.6630432246702848,0.3474872147830204,0.6630432246702846,500.0,160.7142857142859,[0.96834971]
3.0365601763474633e-18,0.9133712991481879,2.7280747474243874e-18,0.9133712991481879,-2.3712952056180155e-19,-0.01568555673766166,2.7280747474243874e-18,-0.01568555673766166,5.665062230355167e-19,0.9135059752392535,6.617662009003338e-19,-0.9135059752392534,0.6633178120367024,0.3464375275135252,0.6633178120367021,500.0,160.7142857142859,[0.96834971]
3.253612369081378e-18,0.9128891420741345,2.42284510139232e-18,0.9128891420741345,-4.172828405309506e-19,-0.015103975544354416,2.42284510139232e-18,-0.015103975544354416,7.124738226490742e-19,0.9130140830206804,7.931462790209183e-19,-0.9130140830206803,0.663471479458083,0.3458485100320727,0.6634714794580832,500.0,160.7142857142859,[0.9771633]
3.4478740815782316e-18,0.9105668562698489,2.0987251317113795e-18,0.9105668562698489,-6.175134883279866e-19,-0.014909308621044896,2.0987251317113795e-18,-0.014909308621044896,8.522011717215318e-19,0.9106889080365002,9.223432663056418e-19,-0.9106889080365002,0.6635134209694378,0.3456875473413345,0.6635134209694378,500.0,160.7142857142859,[0.9771633]
3.583531702036928e-18,0.9060163071446445,1.773553815471884e-18,0.9060163071446445,-8.66852194731071e-19,-0.01514617868307539,1.773553815471884e-18,-0.01514617868307539,9.829751178437151e-19,0.9061429001767431,1.0427404048389855e-18,-0.9061429001767433,0.663429396477833,0.3460099301726995,0.6634293964778333,500.0,160.7142857142859,[0.9771633]
3.6703525791304936e-18,0.8982713203096536,1.4348676087941906e-18,0.8982713203096536,-1.1509192519715814e-18,-0.01596370981022473,1.4348676087941906e-18,-0.01596370981022473,1.0999119866791115e-18,0.8984131593658642,1.1513815232244624e-18,-0.8984131593658642,0.6631711645425519,0.3469985778624337,0.663171164542552,500.0,160.7142857142859,[0.96834971]
3.67903466683985e-18,0.8851086788891522,1.0657940951337494e-18,0.8851086788891522,-1.507427478537036e-18,-0.01772292765268672,1.0657940951337494e-18,-0.01772292765268672,1.1929731143137774e-18,0.8852860981679782,1.237682848580466e-18,-0.8852860981679781,0.6626171550609191,0.34910888221004654,0.6626171550609189,500.0,160.7142857142859,[0.96834971]
3.4652382569969448e-18,0.8607559535961191,6.607713120517535e-19,0.8607559535961191,-2.032693784953109e-18,-0.021348486038948435,6.607713120517535e-19,-0.021348486038948435,1.2475074777381734e-18,0.8610206556798274,1.2823528542286723e-18,-0.8610206556798273,0.661430571265196,0.3535805407422659,0.6614305712651959,500.0,160.7142857142859,[0.96698912]
2.6914471899005393e-18,0.8055018660670702,1.2363496384554456e-19,0.8055018660670702,-3.0696606357393853e-18,-0.0296983970822142,1.2363496384554456e-19,-0.0296983970822142,1.1796786675088251e-18,0.8060491616686821,1.1911915025524266e-18,-0.806049161668682,0.6583683953321293,0.36483162151271176,0.6583683953321292,500.0,160.7142857142859,[0.97247815]
-5.871261813452386e-19,0.6176875663047898,-8.249679044144484e-19,0.6176875663047898,-7.906668750814669e-18,-0.045993129678885664,-8.249679044144484e-19,-0.045993129678885664,2.3333110718895805e-19,0.6193975278810798,1.3736464009970664e-19,-0.6193975278810797,0.6482421346220418,0.39945496592396645,0.6482421346220418,500.0,160.7142857142859,[0.91330262]
-5.3503365508909915e-19,0.6146464644339472,-8.834193816295892e-19,0.6146464644339472,-7.996202780317409e-18,-0.039731272110333615,-8.834193816295892e-19,-0.039731272110333615,9.751069758571107e-19,0.6159292574838908,8.341176314870918e-19,-0.6159292574838908,0.6960902019084142,0.17583191295725178,0.6960902019084141,500.0,173.57142857142813,[0.34567148]
3.1255515753683686e-18,0.8017472866329536,-6.134268025116684e-19,0.8017472866329536,-3.326596168888157e-18,-0.02206196886939252,-6.134268025116684e-19,-0.02206196886939252,3.1111718675997468e-18,0.8020507727654761,3.0757793861569666e-18,-0.8020507727654761,0.700217015847589,0.13925610017157009,0.7002170158475891,500.0,173.57142857142813,[0.39106865]
4.2591066519212365e-18,0.8574993761851981,-7.375196108262611e-19,0.8574993761851981,-2.4722244752392857e-18,-0.014852449582729266,-7.375196108262611e-19,-0.014852449582729266,4.40344636008929e-18,0.8576279936059756,4.378249451502327e-18,-0.8576279936059754,0.7011841799641935,0.12915684858296433,0.7011841799641935,500.0,173.57142857142813,[0.39106865]
4.82181446158391e-18,0.8818427479649855,-9.463136459147524e-19,0.8818427479649855,-2.1143596724692443e-18,-0.011313265784058817,-9.463136459147524e-19,-0.011313265784058817,5.574171624647841e-18,0.8819153145972336,5.550087099062498e-18,-0.8819153145972336,0.7015872165640519,0.12470266680312897,0.7015872165640519,500.0,173.57142857142813,[0.39106865]
5.156617468875973e-18,0.8947608881399475,-1.1938548888467589e-18,0.8947608881399475,-1.914671655154043e-18,-0.009151774075192083,-1.1938548888467589e-18,-0.009151774075192083,6.7136956365008925e-18,0.8948076899053291,6.6892644364370225e-18,-0.894807689905329,0.701814159270047,0.12212195419396975,0.7018141592700469,500.0,173.57142857142813,[0.39106865]
5.413281686783827e-18,0.9021258298060302,-1.4515534961106103e-18,0.9021258298060302,-1.804246352100664e-18,-0.007650252182140395,-1.4515534961106103e-18,-0.007650252182140395,7.830971798598716e-18,0.9021582672467557,7.806166564372008e-18,-0.9021582672467559,0.7019640133904149,0.12038707492767585,0.701964013390415,500.0,173.57142857142813,[0.39106865]
5.612969704099028e-18,0.9061951766537505,-1.7264975783752737e-18,0.9061951766537505,-1.749305015814892e-18,-0.006519175564824162,-1.7264975783752737e-18,-0.006519175564824162,8.946891384491954e-18,0.9062186258517131,8.921860821675778e-18,-0.9062186258517132,0.7020729192664268,0.11911016776679637,0.7020729192664267,500.0,173.57142857142813,[0.39106865]
5.754053629376072e-18,0.907940819150292,-1.999338967522827e-18,0.907940819150292,-1.6953132828723308e-18,-0.00562138249142299,-1.999338967522827e-18,-0.00562138249142299,1.0052772306471248e-17,0.9079582209663708,1.0027876752545867e-17,-0.907958220966371,0.7021570097976819,0.11811463577370691,0.7021570097976819,500.0,173.57142857142813,[0.39106865]
5.88645546694376e-18,0.9077380725382843,-2.2801841562774434e-18,0.9077380725382843,-1.6908365813971939e-18,-0.004885720018052329,-2.2801841562774434e-18,-0.004885720018052329,1.1155668760800451e-17,0.907751220652231,1.1131001940513371e-17,-0.907751220652231,0.7022243494738195,0.1173112356602815,0.7022243494738194,500.0,173.57142857142813,[0.39106865]
5.960253212473291e-18,0.9055784968732034,-2.561843290754812e-18,0.9055784968732034,-1.7106425939841635e-18,-0.00427515148225427,-2.561843290754812e-18,-0.00427515148225427,1.2247848263113417e-17,0.9055885881123539,1.2223493556662756e-17,-0.9055885881123539,0.7022790582339921,0.11665439868240697,0.7022790582339921,500.0,173.57142857142813,[0.39106865]
5.998237346201726e-18,0.9010671996686648,-2.853524131943567e-18,0.9010671996686648,-1.765312615029018e-18,-0.0037749383694226073,-2.853524131943567e-18,-0.0037749383694226073,1.3337721585878587e-17,0.9010751070129627,1.3313693519052587e-17,-0.9010751070129628,0.7023227999346272,0.11612652317180171,0.7023227999346271,500.0,173.57142857142813,[0.39106865]
5.971648452591822e-18,0.8932025224878369,-3.13789641883011e-18,0.8932025224878369,-1.8442653501359794e-18,-0.003391701795160419,-3.13789641883011e-18,-0.003391701795160419,1.441633532614568e-17,0.8932089620126428,1.439238420269485e-17,-0.8932089620126429,0.7023549480946544,0.11573700261329914,0.7023549480946546,500.0,173.57142857142813,[0.39106865]
5.853355007551838e-18,0.8796698589183188,-3.43400308988633e-18,0.8796698589183188,-2.0177714467026523e-18,-0.0031651017000438536,-3.43400308988633e-18,-0.0031651017000438536,1.5483418168673788e-17,0.8796755530069862,1.5458591053262472e-17,-0.879675553006986,0.7023712345830846,0.11553916072253113,0.7023712345830845,500.0,173.57142857142813,[0.39106865]
5.506071499177575e-18,0.8544595929799836,-3.728617527117504e-18,0.8544595929799836,-2.3691246836906764e-18,-0.0032099515415552446,-3.728617527117504e-18,-0.0032099515415552446,1.652499737855566e-17,0.8544656223771784,1.6496821203873675e-17,-0.8544656223771784,0.7023582646607404,0.11569674206954574,0.7023582646607405,500.0,173.57142857142813,[0.39106865]
4.580615212408347e-18,0.7971365867912846,-4.048277752525865e-18,0.7971365867912846,-3.195957880386432e-18,-0.0038399685482493435,-4.048277752525865e-18,-0.0038399685482493435,1.7462120220684336e-17,0.7971458356911304,1.742281268612808e-17,-0.7971458356911305,0.7022711119661315,0.11675003467111407,0.7022711119661315,500.0,173.57142857142813,[0.39106865]
1.038866057472698e-18,0.6057591048712069,-4.378807544773479e-18,0.6057591048712069,-7.843655786111605e-18,-0.003074423993432701,-4.378807544773479e-18,-0.003074423993432701,1.7636033290112385e-17,0.6057669066705916,1.7591164204092576e-17,-0.6057669066705916,0.7022497799230737,0.11700638100543269,0.7022497799230738,500.0,173.57142857142813,[0.34224662]
5.217392082841469e-19,0.6057147051965815,-4.411161887252878e-18,0.6057147051965815,-7.815778145107342e-18,0.0038870451982943384,-4.411161887252878e-18,0.0038870451982943384,1.789893775856134e-17,0.6057271772107929,1.795484354390694e-17,-0.6057271772107933,0.7021381227188626,0.11833897603775001,0.7021381227188629,500.0,173.57142857142813,[0.34224662]
3.038459383033885e-18,0.7970036616197621,-4.76010720147776e-18,0.7970036616197621,-3.1132067319066273e-18,0.004672589311421067,-4.76010720147776e-18,0.004672589311421067,1.825164757175395e-17,0.7970173584848586,1.8306933606616164e-17,-0.7970173584848586,0.7021844203268459,0.11778828337531216,0.7021844203268458,500.0,173.57142857142813,[0.39106865]
2.9386153743762844e-18,0.8542385687154449,-5.092366628386223e-18,0.8542385687154449,-2.2220718231134493e-18,0.004061932282953816,-5.092366628386223e-18,0.004061932282953816,1.784263984607098e-17,0.8542482259711656,1.789074456858378e-17,-0.8542482259711656,0.7022762429271581,0.11668829093028403,0.7022762429271582,500.0,173.57142857142813,[0.39106865]
2.2532730758189495e-18,0.8793612337990158,-5.410246347526063e-18,0.8793612337990158,-1.8361258929084577e-18,0.004035913456219885,-5.410246347526063e-18,0.004035913456219885,1.7326598257846098e-17,0.879370495357874,1.7375928396853817e-17,-0.8793704953578741,0.702289883314475,0.11652398717981767,0.702289883314475,500.0,173.57142857142813,[0.39106865]
1.3345996700726565e-18,0.8928068645801223,-5.722182567169557e-18,0.8928068645801223,-1.6015060383251422e-18,0.004280832263863658,-5.722182567169557e-18,0.004280832263863658,1.6786409613179568e-17,0.8928171273929845,1.684095442185658e-17,-0.8928171273929845,0.7022729610228771,0.11672778774705563,0.7022729610228771,500.0,173.57142857142813,[0.39106865]
3.3833010542398917e-19,0.9005851447862112,-6.0321517513164e-18,0.9005851447862112,-1.4589977080332813e-18,0.004681872020667614,-6.0321517513164e-18,0.004681872020667614,1.623672493508093e-17,0.9005973145280963,1.6299021239311756e-17,-0.9005973145280964,0.7022395672449843,0.11712890501987114,0.7022395672449843,500.0,173.57142857142813,[0.39106865]
-7.303806285496222e-19,0.9050107464367011,-6.3364063582014214e-18,0.9050107464367011,-1.3462662254321044e-18,0.0051993660588868845,-6.3364063582014214e-18,0.0051993660588868845,1.5670761342527248e-17,0.9050256817203196,1.5743021663794633e-17,-0.9050256817203194,0.7021942105201271,0.11767149792550016,0.7021942105201271,500.0,173.57142857142813,[0.39106865]
-1.8313778761924033e-18,0.9070853913929846,-6.6333269749803934e-18,0.9070853913929846,-1.2778947847209214e-18,0.005826686862304451,-6.6333269749803934e-18,0.005826686862304451,1.5096590463935815e-17,0.9071041051380789,1.518108111939031e-17,-0.9071041051380792,0.7021376006463834,0.11834517107630405,0.7021376006463835,500.0,173.57142857142813,[0.39106865]
-2.9779560843093064e-18,0.907204033357223,-6.93461407141788e-18,0.907204033357223,-1.238689732408358e-18,0.006578568093950458,-6.93461407141788e-18,0.006578568093950458,1.4527099773250207e-17,0.9072278852073387,1.462676764124862e-17,-0.9072278852073387,0.7020680782342027,0.11916722304839839,0.7020680782342028,500.0,173.57142857142813,[0.39106865]
-4.160619219468223e-18,0.9053751712796,-7.230161154789707e-18,0.9053751712796,-1.2247169975011124e-18,0.007492043632101752,-7.230161154789707e-18,0.007492043632101752,1.394614601363584e-17,0.9054061693446485,1.4064642333957922e-17,-0.9054061693446483,0.7019814635460204,0.12018340016647508,0.7019814635460202,500.0,173.57142857142813,[0.39106865]
-5.372041770164383e-18,0.9012235467432946,-7.521875910383576e-18,0.9012235467432946,-1.236519210481019e-18,0.008638266051657937,-7.521875910383576e-18,0.008638266051657937,1.3355899707020052e-17,0.9012649448663487,1.3498336420054261e-17,-0.9012649448663486,0.7018695455853151,0.1214836695186906,0.7018695455853151,500.0,173.57142857142813,[0.39106865]
-6.65671943590824e-18,0.8937773240258676,-7.800211433159707e-18,0.8937773240258676,-1.2980399413590378e-18,0.010154399606730653,-7.800211433159707e-18,0.010154399606730653,1.2763211563236007e-17,0.8938350053417099,1.2937821091967746e-17,-0.8938350053417098,0.7017158786051877,0.12324630390684828,0.7017158786051877,500.0,173.57142857142813,[0.39106865]
-8.040969795068779e-18,0.8807789523717843,-8.066456470512456e-18,0.8807789523717843,-1.4274573112766343e-18,0.012329975378722106,-8.066456470512456e-18,0.012329975378722106,1.2152006154259348e-17,0.8808652514624344,1.237374925561449e-17,-0.8808652514624346,0.7014836023330527,0.1258630657329114,0.7014836023330527,500.0,173.57142857142813,[0.39106865]
-9.630741449224243e-18,0.8563564506704886,-8.300228464967905e-18,0.8563564506704886,-1.7347218216155822e-18,0.015882729835630778,-8.300228464967905e-18,0.015882729835630778,1.1503562728466778e-17,0.8565037254513194,1.1805439781113505e-17,-0.8565037254513193,0.7010717018948789,0.13037230382422355,0.7010717018948789,500.0,173.57142857142813,[0.39106865]
-1.1774131852471649e-17,0.8005263874532078,-8.43665763814296e-18,0.8005263874532078,-2.5417490057243677e-18,0.02310534407439247,-8.43665763814296e-18,0.02310534407439247,1.0743133936985555e-17,0.800859759217355,1.1212427591748468e-17,-0.800859759217355,0.7000840153569738,0.1405871362654268,0.7000840153569738,500.0,173.57142857142813,[0.39106865]
-1.6469377754167595e-17,0.61334882176179,-8.189930340933706e-18,0.61334882176179,-7.157838685882664e-18,0.04078739982047949,-8.189930340933706e-18,0.04078739982047949,9.130707460213488e-18,0.6147034969322132,1.0116685910558088e-17,-0.6147034969322132,0.6958589082157655,0.17765348213172055,0.6958589082157655,500.0,173.57142857142813,[0.3467181]
-1.7188634457839604e-17,0.6163153750978799,-8.093350593768393e-18,0.6163153750978799,-7.095232694040976e-18,0.047078321035615336,-8.093350593768393e-18,0.047078321035615336,8.067355202247995e-18,0.6181108394888193,9.08879314610081e-18,-0.6181108394888193,0.6476998544582951,0.40121041495629983,0.6476998544582951,500.0,160.7142857142859,[0.91330262]
-1.419996142151406e-17,0.8040587751428929,-8.716188643699383e-18,0.8040587751428929,-2.3563389529624442e-18,0.030833873566926722,-8.716188643699383e-18,0.030833873566926722,7.83158225789078e-18,0.8046497633401942,8.46873638433022e-18,-0.8046497633401941,0.6579868388920106,0.36620573410283824,0.6579868388920105,500.0,160.7142857142859,[0.97247815]
-1.3720818706053946e-17,0.8592435001514132,-8.924732560050154e-18,0.8592435001514132,-1.4251172173237218e-18,0.02253310636840767,-8.924732560050154e-18,0.02253310636840767,6.732857275390683e-18,0.8595389074585635,7.18567810984488e-18,-0.8595389074585634,0.6610745234978557,0.3549097755263535,0.6610745234978557,500.0,160.7142857142859,[0.96698912]
-1.3796108685408522e-17,0.8835284908629258,-9.006169525331765e-18,0.8835284908629258,-1.0031711460895036e-18,0.01895590945573798,-9.006169525331765e-18,0.01895590945573798,5.504341864516727e-18,0.8837318149019039,5.882023516671911e-18,-0.8837318149019038,0.6622632942808374,0.35044922327861694,0.6622632942808372,500.0,160.7142857142859,[0.96758333]
-1.4086822966051507e-17,0.8966250494077085,-9.044132462557004e-18,0.8966250494077085,-7.410127945530725e-19,0.017244355620840784,-9.044132462557004e-18,0.017244355620840784,4.234993509884703e-18,0.896790860249007,4.577690201713576e-18,-0.8967908602490069,0.6628121200550788,0.3483678903346045,0.6628121200550788,500.0,160.7142857142859,[0.96834971]
-1.4467206933817692e-17,0.9043056107737066,-9.058563041933297e-18,0.9043056107737066,-5.579428357440615e-19,0.01647381465841232,-9.058563041933297e-18,0.01647381465841232,2.9424477021542426e-18,0.9044556507901352,3.265886483765989e-18,-0.9044556507901353,0.6630618246427881,0.3474162250136764,0.6630618246427881,500.0,160.7142857142859,[0.96834971]
-1.4900090400701393e-17,0.9087933905438171,-9.060055275758343e-18,0.9087933905438171,-4.2362483428739466e-19,0.016283270142613986,-9.060055275758343e-18,0.016283270142613986,1.6401006313456413e-18,0.9089392562667016,1.9593914202398694e-18,-0.9089392562667016,0.6631353772911643,0.3471353378292255,0.6631353772911643,500.0,160.7142857142859,[0.96834971]
-1.5379504431402427e-17,0.9110545576799339,-9.049274734232516e-18,0.9110545576799339,-3.1974501142114774e-19,0.016523603604155362,-9.049274734232516e-18,0.016523603604155362,3.3548129539435654e-19,0.9112043879094568,6.583714840369802e-19,-0.9112043879094569,0.6630815423921839,0.3473409510518518,0.6630815423921839,500.0,160.7142857142859,[0.96834971]
-1.587872447469043e-17,0.9114772383848864,-9.030439521491954e-18,0.9114772383848864,-2.429627982415255e-19,0.017150197657513244,-9.030439521491954e-18,0.017150197657513244,-9.831786042744032e-19,0.9116385716792759,-6.485540742857677e-19,-0.9116385716792759,0.6629146698945926,0.3479774143203638,0.6629146698945926,500.0,160.7142857142859,[0.96834971]
-1.6433157169505123e-17,0.9100851508319587,-9.003189296982313e-18,0.9100851508319587,-1.9005632626263385e-19,0.018192735661129895,-9.003189296982313e-18,0.018192735661129895,-2.316591270168046e-18,0.9102669703969626,-1.962981166845833e-18,-0.9102669703969628,0.6626253720888653,0.34907768838495773,0.6626253720888653,500.0,160.7142857142859,[0.96834971]
-1.7018858945835545e-17,0.9065451634243388,-8.965111898639813e-18,0.9065451634243388,-1.620769420430277e-19,0.019764679810981692,-8.965111898639813e-18,0.019764679810981692,-3.654480637536826e-18,0.9067605945871777,-3.2712154519136698e-18,-0.9067605945871778,0.6621772019714589,0.3507744380346139,0.6621772019714589,500.0,160.7142857142859,[0.96758333]
-1.7650345169070777e-17,0.8999746571097746,-8.905659946473789e-18,0.8999746571097746,-1.8566441080028355e-19,0.022119801826831223,-8.905659946473789e-18,0.022119801826831223,-5.0068853702946865e-18,0.9002464490753159,-4.57614581519309e-18,-0.9002464490753158,0.6614864674185863,0.3533713441185627,0.6614864674185862,500.0,160.7142857142859,[0.96698912]
-1.8366413918662007e-17,0.888310279761232,-8.813391568058679e-18,0.888310279761232,-2.8735675453663394e-19,0.02581946873736222,-8.813391568058679e-18,0.02581946873736222,-6.389236522768805e-18,0.8886854325886963,-5.88226117096169e-18,-0.8886854325886963,0.6603593126775131,0.3575628005262356,0.6603593126775134,500.0,160.7142857142859,[0.96698912]
-1.9276133921458026e-17,0.8661652491418717,-8.653881522552768e-18,0.8661652491418717,-5.594265909678285e-19,0.032271801333100654,-8.653881522552768e-18,0.032271801333100654,-7.833006662905597e-18,0.8667662360649976,-7.19461072694426e-18,-0.8667662360649978,0.6582681782956378,0.3651931145116026,0.6582681782956378,500.0,160.7142857142859,[0.97247815]
-2.06932812535798e-17,0.8150939471579081,-8.309724498400014e-18,0.8150939471579081,-1.3398648814667097e-18,0.04592177635722199,-8.309724498400014e-18,0.04592177635722199,-9.446060556172285e-18,0.8163865213471257,-8.516581583414854e-18,-0.8163865213471256,0.6532327969759484,0.38284961265483675,0.6532327969759484,500.0,160.7142857142859,[0.97247815]
-2.4391375816094096e-17,0.6390464386674057,-7.261294578684978e-18,0.6390464386674057,-5.914358543751858e-18,0.07702305591513121,-7.261294578684978e-18,0.07702305591513121,-1.2169370329678061e-17,0.643671423877121,-1.0891168778886503e-17,-0.6436714238771208,0.6346844448593046,0.44085293569088535,0.6346844448593048,500.0,160.7142857142859,[1.34070716]
-2.3539920761285088e-17,0.6444421982061174,-6.594372041405551e-18,0.6444421982061174,-5.883835579148652e-18,0.08140229501444064,-6.594372041405551e-18,0.08140229501444064,-1.3063320134095758e-17,0.6495629919125251,-1.1644981236006411e-17,-0.649562991912525,0.5468591350474274,0.6339480837027265,0.5468591350474274,500.0,147.85714285714295,[1.55284143]
-1.8651023606384352e-17,0.8216103180864962,-6.700897187870742e-18,0.8216103180864962,-1.2354000351122347e-18,0.051350201418200445,-6.700897187870742e-18,0.051350201418200445,-1.1629707358290809e-17,0.8232134340326834,-1.0820539779036721e-17,-0.8232134340326835,0.5740917472989141,0.5838127536861109,0.5740917472989141,500.0,147.85714285714295,[1.48541125]
-1.6001765936446468e-17,0.8716187926859892,-6.0769357232703275e-18,0.8716187926859892,-3.8548808573594355e-19,0.037008020152332115,-6.0769357232703275e-18,0.037008020152332115,-1.1334126360513866e-17,0.872404099783453,-1.0841640657473773e-17,-0.8724040997834531,0.5822266454349482,0.5674718201735965,0.5822266454349482,500.0,147.85714285714295,[1.4790206]
-1.3853017057190945e-17,0.8936151035512212,-5.257656960313866e-18,0.8936151035512212,-6.40219182552261e-20,0.03059247587717605,-5.257656960313866e-18,0.03059247587717605,-1.1236011986517114e-17,0.8941386094309737,-1.0868237052777415e-17,-0.8941386094309737,0.5855022763048863,0.5606907961466766,0.5855022763048863,500.0,147.85714285714295,[1.4790206]
-1.1866107719142645e-17,0.9055544421463232,-4.354533309312651e-18,0.9055544421463232,1.119005796758673e-19,0.02726745961776488,-4.354533309312651e-18,0.02726745961776488,-1.1214527210876968e-17,0.9059648790350234,-1.0952787296300508e-17,-0.9059648790350233,0.5871303179553861,0.5572754969269819,0.5871303179553861,500.0,147.85714285714295,[1.47953535]
-9.975142233163759e-18,0.9126441312825974,-3.411422455030916e-18,0.9126441312825974,2.013540624664597e-19,0.02548165865477895,-3.411422455030916e-18,0.02548165865477895,-1.1217325149298929e-17,0.9129997947931676,-1.1028606278006411e-17,-0.9129997947931677,0.5879914159201463,0.5554567396372496,0.5879914159201464,500.0,147.85714285714295,[1.47953535]
-8.123347885092322e-18,0.9168855673451125,-2.454468164511434e-18,0.9168855673451125,2.482195310343e-19,0.02462420731724569,-2.454468164511434e-18,0.02462420731724569,-1.1249628620170656e-17,0.9172161660109204,-1.111900675189357e-17,-0.9172161660109204,0.5884088065814247,0.5545720446207568,0.5884088065814248,500.0,147.85714285714295,[1.47953535]
-6.292885697838016e-18,0.9191510735303764,-1.4765399340788465e-18,0.9191510735303764,2.613698416175149e-19,0.024433028024007628,-1.4765399340788465e-18,0.024433028024007628,-1.1288172341583483e-17,0.9194757576089029,-1.1209202137806837e-17,-0.9194757576089027,0.5885162293215527,0.5543440228326479,0.5885162293215527,500.0,147.85714285714295,[1.47953535]
-4.5100393353647105e-18,0.9197968861600853,-4.8911567021415e-19,0.9197968861600853,2.485671536867254e-19,0.02481298683430025,-4.8911567021415e-19,0.02481298683430025,-1.134441938246617e-17,0.9201315102230919,-1.1312797353076164e-17,-0.9201315102230918,0.5883616871824033,0.5546720203072727,0.5883616871824033,500.0,147.85714285714295,[1.47953535]
-2.7566645909360577e-18,0.9188572612003801,5.134927087154819e-19,0.9188572612003801,2.1201590357438538e-19,0.02578053529945417,5.134927087154819e-19,0.02578053529945417,-1.1416385750119509e-17,0.9192188544960279,-1.1438321172374026e-17,-0.9192188544960278,0.5879378492083673,0.5555701314293979,0.5879378492083674,500.0,147.85714285714295,[1.47953535]
-1.0067830302342164e-18,0.9160553965359081,1.5332956910382536e-18,0.9160553965359081,1.4495440676075659e-19,0.027468970909830467,1.5332956910382536e-18,0.027468970909830467,-1.1502223109464749e-17,0.9164671482848714,-1.1584837099684894e-17,-0.9164671482848713,0.5871796027808992,0.5571716325838302,0.5871796027808992,500.0,147.85714285714295,[1.47953535]
6.58685576137201e-19,0.9106396676738926,2.580483495665965e-18,0.9106396676738926,3.882775455566255e-20,0.030198408870735594,2.580483495665965e-18,0.030198408870735594,-1.1614378047178976e-17,0.9111402461967871,-1.1773955085168991e-17,-0.9111402461967869,0.5859267715342844,0.559803212565649,0.5859267715342842,500.0,147.85714285714295,[1.47953535]
2.2919694120547927e-18,0.9008396555351593,3.6675387433311354e-18,0.9008396555351593,-1.5837603258488887e-19,0.03469086545977823,3.6675387433311354e-18,0.03469086545977823,-1.1773784229819223e-17,0.9015073716454312,-1.2047051884493556e-17,-0.9015073716454309,0.5838042981846158,0.5642207749120349,0.5838042981846157,500.0,147.85714285714295,[1.4790206]
3.748355710894244e-18,0.882005296228562,4.846947155424203e-18,0.882005296228562,-5.152551979562851e-19,0.04276594923646383,4.846947155424203e-18,0.04276594923646383,-1.2019434744666087e-17,0.883041487694281,-1.2446701915527935e-17,-0.8830414876942809,0.5798022176140262,0.5724148643245689,0.5798022176140263,500.0,147.85714285714295,[1.4790206]
4.817303845703658e-18,0.8380103641427782,6.256665113175544e-18,0.8380103641427782,-1.3961861101105851e-18,0.06014054876736574,6.256665113175544e-18,0.06014054876736574,-1.254948298220333e-17,0.8401656122555549,-1.3316366967582391e-17,-0.8401656122555551,0.5702592209500174,0.5912772969114904,0.5702592209500175,500.0,147.85714285714295,[1.48652578]
3.966137063338124e-18,0.6778127324154126,8.56796255667022e-18,0.6778127324154126,-6.04743654977152e-18,0.09850153696276547,8.56796255667022e-18,0.09850153696276547,-1.4545430509214688e-17,0.6849325901199882,-1.6112709869820014e-17,-0.6849325901199877,0.5383981147857566,0.6482707304747664,0.5383981147857564,500.0,147.85714285714295,[1.59750464]
5.135743152527891e-18,0.6845672399510213,8.776138713690529e-18,0.6845672399510213,-6.112484378781465e-18,0.10010301517987923,8.776138713690529e-18,0.10010301517987923,-1.4183423909720017e-17,0.6918474684945102,-1.6437529641117388e-17,-0.6918474684945101,0.4223938450211833,0.8019768571326986,0.42239384502118327,500.0,134.9999999999996,[1.61587273]
7.731144747143673e-18,0.8462164270836309,6.7530045516791195e-18,0.8462164270836309,-1.5880653356481329e-18,0.06219756587481924,6.7530045516791195e-18,0.06219756587481924,-1.0877121272992354e-17,0.8484991329794853,-1.17793710063839e-17,-0.8484991329794853,0.4620033366773994,0.7570375379054194,0.4620033366773993,500.0,134.9999999999996,[1.68470772]
8.43627610108542e-18,0.8889402097866346,5.6272497883026255e-18,0.8889402097866346,-8.468681315172492e-19,0.04465640078199642,5.6272497883026255e-18,0.04465640078199642,-9.073235261446033e-18,0.8900611724518199,-9.561621370652873e-18,-0.8900611724518198,0.4742841476158954,0.741693396654256,0.4742841476158954,500.0,134.9999999999996,[1.67914765]
8.766738064522805e-18,0.907643449236901,4.74781746892433e-18,0.907643449236901,-6.107115304521748e-19,0.03667465529492221,4.74781746892433e-18,0.03667465529492221,-7.575821011019105e-18,0.9083840934778971,-7.930154416566579e-18,-0.908384093477897,0.47940557314655635,0.735078630400887,0.47940557314655635,500.0,134.9999999999996,[1.67547799]
8.961033691424773e-18,0.9178408441753342,3.9583203228717715e-18,0.9178408441753342,-5.650235276369096e-19,0.03239588792862326,3.9583203228717715e-18,0.03239588792862326,-6.180819785437214e-18,0.9184123849291093,-6.432428370506875e-18,-0.9184123849291093,0.48205194680331453,0.7316090767385743,0.48205194680331453,500.0,134.9999999999996,[1.67547799]
9.099455335900316e-18,0.9239586705325789,3.216559821668437e-18,0.9239586705325789,-5.794244319087281e-19,0.02994935780799072,3.216559821668437e-18,0.02994935780799072,-4.8361687335486956e-18,0.9244439349606018,-5.030816478734387e-18,-0.9244439349606016,0.48353895726660934,0.7296438539527625,0.4835389572666092,500.0,134.9999999999996,[1.67547799]
9.197145779833135e-18,0.9276900755857382,2.495243347798291e-18,0.9276900755857382,-6.346582799386143e-19,0.02859533740796631,2.495243347798291e-18,0.02859533740796631,-3.532626179959802e-18,0.9281306856589479,-3.670069088157886e-18,-0.928130685658948,0.48435783455399506,0.7285567762448781,0.4843578345539951,500.0,134.9999999999996,[1.67547799]
9.247135612972164e-18,0.9297738274936074,1.7980839987088117e-18,0.9297738274936074,-7.360210180502564e-19,0.028010695967977454,1.7980839987088117e-18,0.028010695967977454,-2.2413097694147482e-18,0.930195661880189,-2.3403629057124078e-18,-0.930195661880189,0.48471690875385526,0.7280790044605142,0.48471690875385515,500.0,134.9999999999996,[1.67547799]
9.317168859533966e-18,0.9305155201728651,1.1125609999617252e-18,0.9305155201728651,-8.510819963527475e-19,0.028068624057309293,1.1125609999617252e-18,0.028068624057309293,-9.700706866975816e-19,0.9309387632594572,-1.0324215920615742e-18,-0.9309387632594573,0.4846972388150693,0.7281051938903442,0.4846972388150693,500.0,134.9999999999996,[1.67547799]
9.338941907617587e-18,0.9299531698976032,4.4575080414924e-19,0.9299531698976032,-1.0020954235522725e-18,0.028769082001715615,4.4575080414924e-19,0.028769082001715615,2.737570780856496e-19,0.9303980644228695,2.5224698405950316e-19,-0.9303980644228694,0.4843002808990633,0.7286332931195068,0.4843002808990633,500.0,134.9999999999996,[1.67547799]
9.32166251821166e-18,0.9278693383615587,-2.0086866254325592e-19,0.9278693383615587,-1.1768489343320695e-18,0.03023880080282179,-2.0086866254325592e-19,0.03023880080282179,1.4953369931136546e-18,0.9283619413491215,1.5171850882533948e-18,-0.9283619413491216,0.4834485870102929,0.729763610654507,0.4834485870102928,500.0,134.9999999999996,[1.67547799]
9.307621954494186e-18,0.9236592142297281,-8.252731340604805e-19,0.9236592142297281,-1.4039737053850422e-18,0.032800836223598154,-8.252731340604805e-19,0.032800836223598154,2.684075046088737e-18,0.9242414397160769,2.7556648729679227e-18,-0.9242414397160768,0.48194029164056507,0.73175618247256,0.4819402916405649,500.0,134.9999999999996,[1.67547799]
9.228982927634535e-18,0.9158860100536221,-1.4100798880434233e-18,0.9158860100536221,-1.6959459984927515e-18,0.03719484977638927,-1.4100798880434233e-18,0.03719484977638927,3.7976460594277836e-18,0.9166409549337361,3.919176292747493e-18,-0.9166409549337362,0.47929953137471715,0.7352169193156214,0.47929953137471715,500.0,134.9999999999996,[1.67547799]
9.039138566403868e-18,0.9007419641795353,-1.8957097933068807e-18,0.9007419641795353,-2.1583090321098025e-18,0.045291542337439344,-1.8957097933068807e-18,0.045291542337439344,4.777053805783499e-18,0.9018799309449739,5.005149657871277e-18,-0.9018799309449739,0.47425959514686333,0.7417247958793521,0.4742595951468632,500.0,134.9999999999996,[1.67914765]
8.550822004360232e-18,0.864742416423085,-2.143563154748458e-18,0.864742416423085,-3.1462160463348035e-18,0.06294741411427693,-2.143563154748458e-18,0.06294741411427693,5.387055253378585e-18,0.8670304629624674,5.696738651437265e-18,-0.8670304629624671,0.462379948894316,0.756577534507191,0.4623799488943159,500.0,134.9999999999996,[1.68470772]
6.567007355778648e-18,0.7219789682670604,-1.4856520458468055e-18,0.7219789682670604,-7.92372610684961e-18,0.10096781574100931,-1.4856520458468055e-18,0.10096781574100931,4.1062544280694e-18,0.7290048905429097,4.738221647221298e-18,-0.7290048905429096,0.4259307177374089,0.7982268144928429,0.4259307177374088,500.0,134.9999999999996,[1.63391399]
7.02923526168782e-18,0.7287556115398318,-1.5214820849378788e-18,0.7287556115398318,-7.982990999874924e-18,0.09947341417000832,-1.5214820849378788e-18,0.09947341417000832,4.114243390124226e-18,0.7355132231832631,4.4528685156504414e-18,-0.7355132231832631,0.2917734644298395,0.9108987270323846,0.29177346442983954,500.0,122.14285714285755,[1.66982219]
9.346555691565831e-18,0.8730174199410137,-2.117105414502083e-18,0.8730174199410137,-3.326990423847615e-18,0.0612228742164132,-2.117105414502083e-18,0.0612228742164132,6.014838447505359e-18,0.875161502722659,6.3359955082134694e-18,-0.8751615027226591,0.33339739977872457,0.8818686680235163,0.3333973997787246,500.0,122.14285714285755,[1.69053567]
1.0206370647235607e-17,0.9077922235161426,-1.8140322477139872e-18,0.9077922235161426,-2.4789003139210774e-18,0.04395732637856704,-1.8140322477139872e-18,0.04395732637856704,5.997366169920343e-18,0.9088558563483725,6.2056749263301204e-18,-0.9088558563483728,0.34680557406203066,0.8714653106113927,0.3468055740620308,500.0,122.14285714285755,[1.68653388]
1.0788901426687808e-17,0.9228513950435634,-1.2764152687977937e-18,0.9228513950435634,-2.1379005089194674e-18,0.0359903568781067,-1.2764152687977937e-18,0.0359903568781067,5.57060849246048e-18,0.9235529238338565,5.677402235084104e-18,-0.9235529238338566,0.35258575950180315,0.866814031031497,0.35258575950180315,500.0,122.14285714285755,[1.68302745]
1.1269417675555068e-17,0.931068117750535,-6.4845110952497825e-19,0.931068117750535,-1.96728958973317e-18,0.03160513166711885,-6.4845110952497825e-19,0.03160513166711885,4.992456910568712e-18,0.9316043818269749,5.0468765200130025e-18,-0.9316043818269748,0.3556749160262357,0.864286242063045,0.35567491602623563,500.0,122.14285714285755,[1.67385057]
1.1697298767684354e-17,0.9360263712680961,1.8157984463428498e-20,0.9360263712680961,-1.872515519683923e-18,0.02898200419744849,1.8157984463428498e-20,0.02898200419744849,4.347688958430446e-18,0.9364749458883673,4.3539250900602164e-18,-0.9364749458883673,0.3574939772814996,0.8627839314770004,0.3574939772814996,500.0,122.14285714285755,[1.67385057]
1.2122458228803188e-17,0.9390856654177525,7.097283455725254e-19,0.9390856654177525,-1.819120468306348e-18,0.027398896752786076,7.097283455725254e-19,0.027398896752786076,3.655716393673192e-18,0.9394852774452473,3.622654732823847e-18,-0.9394852774452471,0.3585824316172192,0.8618800841596033,0.3585824316172192,500.0,122.14285714285755,[1.67385057]
1.2523195078938819e-17,0.9408379450200312,1.420002236146075e-18,0.9408379450200312,-1.79720248913212e-18,0.026535625403540195,1.420002236146075e-18,0.026535625403540195,2.936063315391405e-18,0.9412120792919478,2.8641593314840167e-18,-0.9412120792919482,0.3591740884265064,0.8613872232660389,0.35917408842650644,500.0,122.14285714285755,[1.67385057]
1.2914156101800143e-17,0.9415294279562892,2.1428925503785735e-18,0.9415294279562892,-1.808659993978791e-18,0.026258821905222086,2.1428925503785735e-18,0.026258821905222086,2.1854792398198757e-18,0.9418955300008318,2.0766741881431825e-18,-0.9418955300008319,0.3593656059749212,0.8612274510746598,0.3593656059749212,500.0,122.14285714285755,[1.67385057]
1.3286667688279084e-17,0.9411943569087217,2.879459908298724e-18,0.9411943569087217,-1.8411510539038085e-18,0.026551964268644434,2.879459908298724e-18,0.026551964268644434,1.4055888789286285e-18,0.9415688101691484,1.2534126846004835e-18,-0.9415688101691486,0.35917002332888726,0.8613906133014531,0.3591700233288873,500.0,122.14285714285755,[1.67385057]
1.3643430272882899e-17,0.9396659222590842,3.63598668849773e-18,0.9396659222590842,-1.9067478723465473e-18,0.027510117977313887,3.63598668849773e-18,0.027510117977313887,6.058925054504116e-19,0.9400685358239266,4.034255533553933e-19,-0.9400685358239267,0.35852132711185924,0.8619309229931958,0.3585213271118593,500.0,122.14285714285755,[1.67385057]
1.3970890811467633e-17,0.9364728545339492,4.412024055020403e-18,0.9364728545339492,-2.018474905652492e-18,0.02939529632843012,4.412024055020403e-18,0.02939529632843012,-2.5675218339612004e-19,0.9369340909184594,-5.209657019574565e-19,-0.9369340909184594,0.35723395780355083,0.862999304046082,0.35723395780355083,500.0,122.14285714285755,[1.67385057]
1.4271198629457433e-17,0.9304866049801461,5.232117823524776e-18,0.9304866049801461,-2.1917968575976436e-18,0.032818309646089436,5.232117823524776e-18,0.032818309646089436,-1.1950970039340838e-18,0.9310651768246436,-1.5376717501618783e-18,-0.9310651768246438,0.3548657946633603,0.864951175243946,0.3548657946633604,500.0,122.14285714285755,[1.67385057]
1.451237244282916e-17,0.9186804582710412,6.110563445679267e-18,0.9186804582710412,-2.547585197923281e-18,0.03933043877256339,6.110563445679267e-18,0.03933043877256339,-2.3182064437116325e-18,0.9195219778902146,-2.8174930923854683e-18,-0.9195219778902147,0.35025013785648723,0.8687057510244901,0.3502501378564871,500.0,122.14285714285755,[1.6877734]
1.452995282258048e-17,0.8900102868878894,7.21202370443875e-18,0.8900102868878894,-3.409791251631787e-18,0.05376784624262265,7.21202370443875e-18,0.05376784624262265,-3.909339973197483e-18,0.8916329357172905,-4.68605387616752e-18,-0.8916329357172903,0.3394141696983551,0.8772662325747825,0.3394141696983551,500.0,122.14285714285755,[1.69053567]
1.3436768606015992e-17,0.7628105319358236,9.034227336613199e-18,0.7628105319358236,-8.068519022751637e-18,0.08391422638468703,9.034227336613199e-18,0.08391422638468703,-7.764602367614459e-18,0.7674122132348131,-9.488724345425105e-18,-0.7674122132348132,0.30847891496134217,0.8998230481870011,0.3084789149613423,500.0,122.14285714285755,[1.69163721]
1.3512160328585913e-17,0.7682673192011736,9.048762706202171e-18,0.7682673192011736,-8.05442493786359e-18,0.07961850457769762,9.048762706202171e-18,0.07961850457769762,-8.077621728571303e-18,0.7723818874259977,-9.751469109410092e-18,-0.7723818874259974,0.1634989604490834,0.9729009095813087,0.16349896044908344,500.0,109.28571428571402,[1.68366642]
1.4272661188178004e-17,0.8967169797654333,7.644281212087424e-18,0.8967169797654333,-3.362892001136977e-18,0.048599061777355144,7.644281212087424e-18,0.048599061777355144,-4.381200629984383e-18,0.8980329674378777,-5.17684887435547e-18,-0.8980329674378772,0.1970810618873867,0.9603739428424116,0.19708106188738667,500.0,109.28571428571402,[1.67645224]
1.3907195319361636e-17,0.9244526689829019,6.944961011975189e-18,0.9244526689829019,-2.4765575704052653e-18,0.03502876370838148,6.944961011975189e-18,0.03502876370838148,-2.955957293466641e-18,0.9251160745963442,-3.4666500377099398e-18,-0.9251160745963439,0.20810353855248154,0.9557122132126762,0.20810353855248157,500.0,109.28571428571402,[1.68977677]
1.339087393729456e-17,0.9362381447618664,6.4398903363704704e-18,0.9362381447618664,-2.0954146353464944e-18,0.028654292687613648,6.4398903363704704e-18,0.028654292687613648,-2.0456724038604308e-18,0.9366765355215055,-2.4270410450522183e-18,-0.9366765355215052,0.21301572207146066,0.9535452817253872,0.21301572207146063,500.0,109.28571428571402,[1.68833305]
1.2808902745526751e-17,0.9426272284161916,5.993556032231669e-18,0.9426272284161916,-1.8691956173707444e-18,0.025030714546946782,5.993556032231669e-18,0.025030714546946782,-1.3087600728507544e-18,0.9429595051868994,-1.614169266938526e-18,-0.9429595051868993,0.2157435412519003,0.9523179347340777,0.2157435412519003,500.0,109.28571428571402,[1.68777019]
1.2199783072464645e-17,0.946467173547431,5.586296090715409e-18,0.946467173547431,-1.736040509070705e-18,0.02274988303563634,5.586296090715409e-18,0.02274988303563634,-6.662643858551709e-19,0.9467405493486577,-9.281767561912365e-19,-0.9467405493486576,0.21743707991105493,0.9515472834071392,0.21743707991105493,500.0,109.28571428571402,[1.68777019]
1.1557016070228144e-17,0.9488245385374293,5.190961964288322e-18,0.9488245385374293,-1.6406013987336627e-18,0.02125038935525813,5.190961964288322e-18,0.02125038935525813,-7.640438551014157e-20,0.9490624763304658,-3.0382595554076167e-19,-0.949062476330466,0.2185397191920427,0.951041945589639,0.2185397191920428,500.0,109.28571428571402,[1.68777019]
1.0909912263437604e-17,0.9501602509907721,4.814472853984525e-18,0.9501602509907721,-1.5820650030275902e-18,0.020278415802089916,4.814472853984525e-18,0.020278415802089916,4.751985761277956e-19,0.9503766183520558,2.7453930416624217e-19,-0.9503766183520558,0.21924835846826576,0.9507156854801236,0.2192483584682658,500.0,109.28571428571402,[1.68777019]
1.026876255439501e-17,0.9506641745065413,4.446281181096138e-18,0.9506641745065413,-1.540896094693855e-18,0.01972045389236236,4.446281181096138e-18,0.01972045389236236,9.901750400670445e-19,0.9508686917718575,8.127738873490753e-19,-0.9508686917718573,0.2196503064541539,0.950530107755242,0.2196503064541539,500.0,109.28571428571402,[1.68777019]
9.610791300415536e-18,0.9503599879361896,4.086743709267589e-18,0.9503599879361896,-1.5341881963009785e-18,0.019546775382514668,4.086743709267589e-18,0.019546775382514668,1.479102591315324e-18,0.9505609833661014,1.3139788853288784e-18,-0.9505609833661013,0.21976862115644463,0.9504754106814074,0.21976862115644463,500.0,109.28571428571402,[1.68777019]
8.947383143366117e-18,0.949112744982042,3.733443904656313e-18,0.949112744982042,-1.5527166558968415e-18,0.019801955323851293,3.733443904656313e-18,0.019801955323851293,1.9240781333601458e-18,0.9493192930315879,1.773145295840223e-18,-0.9493192930315877,0.21956983287564777,0.9505672921902583,0.21956983287564774,500.0,109.28571428571402,[1.68777019]
8.278001811715875e-18,0.9465449956887317,3.396980615012299e-18,0.9465449956887317,-1.6190007709557323e-18,0.02063507382728597,3.396980615012299e-18,0.02063507382728597,2.316145613688336e-18,0.9467698955581759,2.1709277034190817e-18,-0.9467698955581759,0.218940373507078,0.9508576264074248,0.21894037350707807,500.0,109.28571428571402,[1.68777019]
7.567925313578345e-18,0.9417499863948045,3.0836866268609127e-18,0.9417499863948045,-1.7691257997150267e-18,0.022407115952787802,3.0836866268609127e-18,0.022407115952787802,2.6097267213886726e-18,0.9420165156301328,2.4644720222404865e-18,-0.9420165156301326,0.2176008645977611,0.951472399732443,0.21760086459776115,500.0,109.28571428571402,[1.68777019]
6.8383014001928446e-18,0.932266097454859,2.8222293496677115e-18,0.932266097454859,-2.070920353686856e-18,0.026042696670697005,2.8222293496677115e-18,0.026042696670697005,2.69819191721772e-18,0.9326297756953692,2.546252816749533e-18,-0.9326297756953692,0.2148143234800731,0.9527379560275726,0.2148143234800731,500.0,109.28571428571402,[1.68777019]
5.9616140279785174e-18,0.9088053262210802,2.672289392876953e-18,0.9088053262210802,-2.8966294070833903e-18,0.034399783020337964,2.672289392876953e-18,0.034399783020337964,2.2291053527866848e-18,0.9094561375017767,2.040587433912178e-18,-0.9094561375017765,0.20813033041517942,0.9557005446909278,0.20813033041517945,500.0,109.28571428571402,[1.68977677]
4.2313625488871134e-18,0.7922137220276559,2.94002937985672e-18,0.7922137220276559,-7.517500885884712e-18,0.0506987558058904,2.94002937985672e-18,0.0506987558058904,-7.507351006568057e-19,0.793834331085005,-1.0935881820286558e-18,-0.7938343310850053,0.19044016501843491,0.9630498881654587,0.19044016501843494,500.0,109.28571428571402,[1.68868484]
3.898827567437094e-18,0.7952675767370498,2.501670326284739e-18,0.7952675767370498,-7.582468565616943e-18,0.04445156418781009,2.501670326284739e-18,0.04445156418781009,-8.49486959487198e-19,0.7965089203316953,-1.142913799286953e-18,-0.7965089203316953,0.03983337395233774,0.9984120415134957,0.03983337395233777,500.0,96.42857142857196,[1.68879788]
4.713862790453582e-18,0.9126096187496593,1.9318831495106676e-18,0.9126096187496593,-3.1097075866632918e-18,0.026807587809305304,1.9318831495106676e-18,0.026807587809305304,2.188972953459267e-18,0.9130032656012531,2.075647853630647e-18,-0.9130032656012531,0.05850519437781731,0.9965712641159328,0.05850519437781732,500.0,96.42857142857196,[1.68502782]
4.684558624784184e-18,0.9356076292972385,1.7404270591681835e-18,0.9356076292972385,-2.45326758132256e-18,0.019620725562267717,1.7404270591681835e-18,0.019620725562267717,2.7060976829974986e-18,0.9358133408275329,2.634075548254024e-18,-0.9358133408275331,0.06442110616878256,0.9958412735772612,0.06442110616878258,500.0,96.42857142857196,[1.68098018]
4.520684219270079e-18,0.9451354531280787,1.6480164654644383e-18,0.9451354531280787,-2.285195870741079e-18,0.016101558062895833,1.6480164654644383e-18,0.016101558062895833,2.6483054170317742e-18,0.9452725982126385,2.5929669872355787e-18,-0.9452725982126383,0.06719039250440417,0.9954752143123448,0.06719039250440419,500.0,96.42857142857196,[1.68168809]
4.3448698235052884e-18,0.9502090907228948,1.5881624421284026e-18,0.9502090907228948,-2.2986349836803484e-18,0.013957426986412162,1.5881624421284026e-18,0.013957426986412162,2.382958581501984e-18,0.950311594089282,2.3369470855597856e-18,-0.950311594089282,0.0688421755299411,0.9952494711059181,0.0688421755299411,500.0,96.42857142857196,[1.68168809]
4.122931836784541e-18,0.9531905676813287,1.5399655019644487e-18,0.9531905676813287,-2.3820745548405377e-18,0.01247058825663498,1.5399655019644487e-18,0.01247058825663498,2.0166819464383434e-18,0.953272140518184,1.977014184371907e-18,-0.9532721405181841,0.06997194591775326,0.9950918819732008,0.06997194591775327,500.0,96.42857142857196,[1.68168809]
3.896646447258157e-18,0.9549522104018543,1.497464790839238e-18,0.9549522104018543,-2.5138094311873278e-18,0.011351496936376307,1.497464790839238e-18,0.011351496936376307,1.5939733310016251e-18,0.9550196755219674,1.5589019922050757e-18,-0.9550196755219675,0.0708133251647512,0.9949728367941622,0.0708133251647512,500.0,96.42857142857196,[1.68168809]
3.680132645705438e-18,0.955865696419768,1.4698941679359651e-18,0.955865696419768,-2.671591564248275e-18,0.010462974280302174,1.4698941679359651e-18,0.010462974280302174,1.1254092603743875e-18,0.9559229589369841,1.0933902452010435e-18,-0.955922958936984,0.07147518483413148,0.9948781814402473,0.0714751848341315,500.0,96.42857142857196,[1.68168809]
3.450585114337086e-18,0.9560787304792271,1.4385153945161928e-18,0.9560787304792271,-2.864374754408088e-18,0.009733854360664422,1.4385153945161928e-18,0.009733854360664422,6.232052793488728e-19,0.9561282794664561,5.941562651645095e-19,-0.956128279466456,0.07201330785036582,0.9948005664377645,0.07201330785036582,500.0,96.42857142857196,[1.68168809]
3.221582333100888e-18,0.9555997422221392,1.4170473442418503e-18,0.9555997422221392,-3.0785933720990425e-18,0.009127091799287662,1.4170473442418503e-18,0.009127091799287662,9.00703010336155e-20,0.9556433284127148,6.316224759265888e-20,-0.9556433284127148,0.07245630701663068,0.9947362299358679,0.07245630701663068,500.0,96.42857142857196,[1.68168809]
2.9665311690863006e-18,0.954300585362373,1.394213245575555e-18,0.954300585362373,-3.322115559307743e-18,0.008627943677206252,1.394213245575555e-18,0.008627943677206252,-4.910880048366003e-19,0.9543395876914389,-5.160932811129462e-19,-0.9543395876914388,0.07281502695459333,0.9946838410767532,0.07281502695459335,500.0,96.42857142857196,[1.68168809]
2.723956266853274e-18,0.9518393383667578,1.3765506300157399e-18,0.9518393383667578,-3.606879252873626e-18,0.008243030863954193,1.3765506300157399e-18,0.008243030863954193,-1.132748019693655e-18,0.9518750304637111,-1.1564174418360016e-18,-0.9518750304637109,0.07308298323509402,0.994644537069861,0.07308298323509403,500.0,96.42857142857196,[1.67980975]
2.4602208954790107e-18,0.9474006834720836,1.359684241226786e-18,0.9474006834720836,-3.9719537812497256e-18,0.008012016651047208,1.359684241226786e-18,0.008012016651047208,-1.872625211587966e-18,0.9474345610405963,-1.895350396837177e-18,-0.9474345610405965,0.07322593274879241,0.9946235094477403,0.07322593274879242,500.0,96.42857142857196,[1.67980975]
2.1617486946660424e-18,0.9387602357761005,1.3501261749032908e-18,0.9387602357761005,-4.516912169048086e-18,0.00804971954712031,1.3501261749032908e-18,0.00804971954712031,-2.826841973719597e-18,0.938794747673413,-2.8495485594784875e-18,-0.938794747673413,0.07314294820560968,0.9946357213852636,0.07314294820560968,500.0,96.42857142857196,[1.67980975]
1.776998247241343e-18,0.9173539015814162,1.3583384619910149e-18,0.9173539015814162,-5.5589219329011406e-18,0.008669855331040323,1.3583384619910149e-18,0.008669855331040323,-4.374695423153325e-18,0.9173948698014984,-4.399592110936656e-18,-0.9173948698014983,0.072526798787286,0.9947259556859552,0.072526798787286,500.0,96.42857142857196,[1.68168809]
6.189972435517536e-19,0.8043106661976204,1.3812353221784942e-18,0.8043106661976204,-1.0398532713612686e-17,0.007891650266722722,1.3812353221784942e-18,0.007891650266722722,-8.534228851745298e-18,0.8043493804953122,-8.56054824336215e-18,-0.8043493804953123,0.07227307022841271,0.9947628896573887,0.07227307022841271,500.0,96.42857142857196,[1.68168809]
9.075770363228355e-19,0.804351669138032,5.23209583215271e-19,0.804351669138032,-1.0396792281983023e-17,0.0009301984443492202,5.23209583215271e-19,0.0009301984443492202,-8.052664965707542e-18,0.8043522070052919,-8.053863009813776e-18,-0.8043522070052919,0.07998338392317245,0.993582063340717,0.07998338392317246,500.0,83.57142857142804,[1.65929621]
2.640028712446054e-18,0.917488250285754,-5.984121269941613e-19,0.917488250285754,-5.550714050711737e-18,0.0001575949108044534,-5.984121269941613e-19,0.0001575949108044534,-2.918335619942869e-18,0.917488263820617,-2.9181298795143125e-18,-0.9174882638206172,0.07929153358655007,0.9936929633458143,0.0792915335865501,500.0,83.57142857142804,[1.65929621]
3.600857723749887e-18,0.938986068109293,-1.7340923517097135e-18,0.938986068109293,-4.503320110090438e-18,0.000778745495843471,-1.7340923517097135e-18,0.000778745495843471,-4.087077951627372e-19,0.9389863910344478,-4.058286419079164e-19,-0.9389863910344478,0.07975356253488053,0.9936190107510974,0.07975356253488053,500.0,83.57142857142804,[1.65929621]
4.467269031214467e-18,0.947717208855258,-2.888477000117197e-18,0.947717208855258,-3.961793369920546e-18,0.0008128611387580233,-2.888477000117197e-18,0.0008128611387580233,1.5173193566663425e-18,0.9477175574524467,1.5222765128217722e-18,-0.9477175574524468,0.079773486025973,0.9936158119990482,0.07977348602597302,500.0,83.57142857142804,[1.65929621]
5.302750401214464e-18,0.9522459851707845,-4.044286616571613e-18,0.9522459851707845,-3.595671668047459e-18,0.0005736480608577572,-4.044286616571613e-18,0.0005736480608577572,3.224938799382081e-18,0.9522461579581069,3.2298122238781362e-18,-0.9522461579581067,0.07959411976000565,0.9936445804206149,0.07959411976000566,500.0,83.57142857142804,[1.65929621]
6.12901129232391e-18,0.9547968053146836,-5.209694771422815e-18,0.9547968053146836,-3.300634161860294e-18,0.00017592100771394032,-5.209694771422815e-18,0.00017592100771394032,4.835969486418647e-18,0.9547968215213788,4.837889300060179e-18,-0.9547968215213786,0.07930030395845664,0.9936915636072358,0.07930030395845664,500.0,83.57142857142804,[1.65929621]
6.938991149327992e-18,0.9561849600653329,-6.374035251784095e-18,0.9561849600653329,-3.056739313629767e-18,-0.00034065469974074947,-6.374035251784095e-18,-0.00034065469974074947,6.380258213927275e-18,0.9561850207469087,6.3757165962108214e-18,-0.9561850207469088,0.0789205022956988,0.9937520357890036,0.07892050229569882,500.0,83.57142857142804,[1.65929621]
7.746802604055054e-18,0.956752327521544,-7.542276451765678e-18,0.956752327521544,-2.8432319048601333e-18,-0.0009694504114640637,-7.542276451765678e-18,-0.0009694504114640637,7.890088846014233e-18,0.9567528186799309,7.87480388809262e-18,-0.9567528186799306,0.07845881362358671,0.9938251501796271,0.07845881362358671,500.0,83.57142857142804,[1.65929621]
8.55134767763951e-18,0.956627005018716,-8.718386224287834e-18,0.956627005018716,-2.6492588622411895e-18,-0.0017251956161705403,-8.718386224287834e-18,-0.0017251956161705403,9.358952466460405e-18,0.9566285606393905,9.327504366745407e-18,-0.9566285606393905,0.07790352478722797,0.9939125120710832,0.07790352478722798,500.0,83.57142857142804,[1.65960943]
9.352645446934235e-18,0.9558005132807815,-9.895633122967421e-18,0.9558005132807815,-2.480111561600622e-18,-0.002644916818886499,-9.895633122967421e-18,-0.002644916818886499,1.0794443782361157e-17,0.9558041728161605,1.0739665942599298e-17,-0.9558041728161604,0.07722612324672223,0.9940182351328192,0.07722612324672225,500.0,83.57142857142804,[1.65960943]
1.0138204812605432e-17,0.9541251007135055,-1.1076984062100319e-17,0.9541251007135055,-2.3416224857492853e-18,-0.0037997560530392254,-1.1076984062100319e-17,-0.0037997560530392254,1.2182724656604544e-17,0.954132666853839,1.2094452097462015e-17,-0.9541326668538392,0.07637192340477879,0.9941502193486201,0.07637192340477882,500.0,83.57142857142804,[1.65960943]
1.0917254732144931e-17,0.9512290504632385,-1.2264015862807143e-17,0.9512290504632385,-2.2594317198227424e-18,-0.005326864083911238,-1.2264015862807143e-17,-0.005326864083911238,1.3526106037951583e-17,0.9512439655136651,1.3388699876828571e-17,-0.9512439655136652,0.07523477478336457,0.9943236180070312,0.07523477478336459,500.0,83.57142857142804,[1.65960943]
1.168382415060223e-17,0.9462400150145402,-1.346944715563569e-17,0.9462400150145402,-2.249953305983916e-18,-0.007515756177177057,-1.346944715563569e-17,-0.007515756177177057,1.4749022922418716e-17,0.9462698624629402,1.4534833603732952e-17,-0.9462698624629403,0.07358745514260595,0.9945701447817896,0.07358745514260599,500.0,83.57142857142804,[1.65960943]
1.2405350999766605e-17,0.9367959988875562,-1.4708640503712187e-17,0.9367959988875562,-2.4173724292232296e-18,-0.01108415260695608,-1.4708640503712187e-17,-0.01108415260695608,1.577957730107542e-17,0.9368615703350994,1.5430853800134828e-17,-0.9368615703350994,0.07085201350887196,0.9949673282894654,0.07085201350887198,500.0,83.57142857142804,[1.66463024]
1.3028123340537685e-17,0.9138812245505379,-1.6035350272262926e-17,0.9138812245505379,-3.0764149014830046e-18,-0.018324726142734716,-1.6035350272262926e-17,-0.018324726142734716,1.623385916784874e-17,0.9140649255792485,1.5591445983163743e-17,-0.9140649255792482,0.0650683326566765,0.9957571110318821,0.06506833265667651,500.0,83.57142857142804,[1.66463024]
1.279190738926366e-17,0.7966229035466371,-1.775969011285185e-17,0.7966229035466371,-7.541332445624091e-18,-0.036027095141836524,-1.775969011285185e-17,-0.036027095141836524,1.4159752714775134e-17,0.7974371461371943,1.255820840445586e-17,-0.7974371461371943,0.047344775766918645,0.9977559543371117,0.04734477576691867,500.0,83.57142857142804,[1.66819239]
1.1887001112343604e-17,0.7936372246234316,-1.6839865472025692e-17,0.7936372246234316,-7.37866796300808e-18,-0.04232375319339824,-1.6839865472025692e-17,-0.04232375319339824,1.318575908524843e-17,0.7947649617291634,1.136907420409375e-17,-0.7947649617291633,0.19766861154712384,0.9601324075449515,0.19766861154712387,500.0,70.71428571428592,[1.60838129]
1.0592316577440599e-17,0.9103030010984621,-1.2723173355869669e-17,0.9103030010984621,-2.576618180829907e-18,-0.02607034094645472,-1.2723173355869669e-17,-0.02607034094645472,1.3040152886014376e-17,0.9106762413096828,1.2307696915656924e-17,-0.9106762413096829,0.21434013220856982,0.9529515283841179,0.21434013220856982,500.0,70.71428571428592,[1.61969924]
8.438103239660973e-18,0.933834889501221,-9.024374804492951e-18,0.933834889501221,-1.5813922790073858e-18,-0.017762780215121825,-9.024374804492951e-18,-0.017762780215121825,1.0381082824834171e-17,0.934003810062212,1.0036348983806297e-17,-0.9340038100622117,0.22080728777804334,0.9499938333106215,0.2208072877780434,500.0,70.71428571428592,[1.61969924]
6.139554433013934e-18,0.9433878453657926,-5.44653277382659e-18,0.9433878453657926,-1.0921686391050775e-18,-0.014180905578377492,-5.44653277382659e-18,-0.014180905578377492,7.161881918867429e-18,0.9434944222765367,6.997542911964821e-18,-0.9434944222765365,0.22348463568444102,0.9487408683228448,0.223484635684441,500.0,70.71428571428592,[1.61969924]
3.805196253866438e-18,0.9482500888718678,-1.9182230630255727e-18,0.9482500888718678,-7.859464668108263e-19,-0.012466779567793683,-1.9182230630255727e-18,-0.012466779567793683,3.741910384184716e-18,0.9483320365980983,3.691548639501431e-18,-0.9483320365980983,0.22474839255821133,0.9481436178580755,0.22474839255821133,500.0,70.71428571428592,[1.61969924]
1.4550975514450937e-18,0.9508832782261365,1.587583843830206e-18,0.9508832782261365,-5.343940506051396e-19,-0.011695769876624738,1.587583843830206e-18,-0.011695769876624738,2.295528304941514e-19,0.9509552039097798,2.6891710680895466e-19,-0.9509552039097798,0.22531624402328795,0.9478740319042803,0.22531624402328793,500.0,70.71428571428592,[1.61969924]
-9.053111301311114e-19,0.9521941611273247,5.08548829685983e-18,0.9521941611273247,-3.368320425605644e-19,-0.011506857966305153,5.08548829685983e-18,-0.011506857966305153,-3.343304312532933e-18,0.952263686310271,-3.2202117926157688e-18,-0.952263686310271,0.22546054165269608,0.9478054063547781,0.22546054165269608,500.0,70.71428571428592,[1.61969924]
-3.2809092258980515e-18,0.9525601683549609,8.569572166131718e-18,0.9525601683549609,-1.6775786985602557e-19,-0.011750921370021424,8.569572166131718e-18,-0.011750921370021424,-6.964186372852715e-18,0.9526326461388336,-6.7525662019816905e-18,-0.9526326461388337,0.22529195415752382,0.9478855789512617,0.22529195415752387,500.0,70.71428571428592,[1.61969924]
-5.674418366866178e-18,0.9521162238540556,1.2041327288036479e-17,0.9521162238540556,-3.300534008382689e-20,-0.01238333627160314,1.2041327288036479e-17,-0.01238333627160314,-1.0605958646897977e-17,0.9521967500172018,-1.0292265817349301e-17,-0.9521967500172019,0.22484292260162228,0.9480987924852143,0.22484292260162228,500.0,70.71428571428592,[1.61969924]
-8.048388571187614e-18,0.9508386276056557,1.5511216985181788e-17,0.9508386276056557,9.035406922016094e-20,-0.013433777017528535,1.5511216985181788e-17,-0.013433777017528535,-1.4283816907810412e-17,0.9509335213946155,-1.3844558602921954e-17,-0.9509335213946154,0.22409057045848496,0.9484549712364745,0.22409057045848496,500.0,70.71428571428592,[1.61969924]
-1.0452199212709323e-17,0.9485374990811891,1.8958637594069755e-17,0.9485374990811891,1.6731804241469464e-19,-0.01501569424885843,1.8958637594069755e-17,-0.01501569424885843,-1.799667271515087e-17,0.9486563435918045,-1.7394033595760062e-17,-0.9486563435918045,0.22294902899174238,0.9489928666450969,0.2229490289917424,500.0,70.71428571428592,[1.61969924]
-1.286035937668699e-17,0.944751902114975,2.239574762765121e-17,0.944751902114975,1.9341093784979707e-19,-0.017382845813298062,2.239574762765121e-17,-0.017382845813298062,-2.1762977624952056e-17,0.9449118053439866,-2.0935465405260044e-17,-0.9449118053439864,0.2212248933992347,0.9497995015165014,0.22122489339923468,500.0,70.71428571428592,[1.61969924]
-1.5334440665606303e-17,0.9384152874331008,2.5796857122769005e-17,0.9384152874331008,1.5642436455305536e-19,-0.021096583174516414,2.5796857122769005e-17,-0.021096583174516414,-2.562234472221307e-17,0.9386523943983675,-2.4457801724034933e-17,-0.9386523943983675,0.21848290100913426,0.951068054312238,0.2184829010091342,500.0,70.71428571428592,[1.61969924]
-1.7825360456665053e-17,0.9266804571382247,2.913034063169741e-17,0.9266804571382247,-3.989234892871537e-20,-0.027565011814206914,2.913034063169741e-17,-0.027565011814206914,-2.9664170259165865e-17,0.9270903405376554,-2.792186542848522e-17,-0.9270903405376554,0.21359484370876175,0.9532861508917767,0.2135948437087617,500.0,70.71428571428592,[1.6202621]
-2.0515942829235168e-17,0.8989938164228928,3.2280719605020966e-17,0.8989938164228928,-7.605252355707683e-19,-0.041233101666469735,3.2280719605020966e-17,-0.041233101666469735,-3.42122679160202e-17,0.899938914949029,-3.1226335693639544e-17,-0.8999389149490291,0.20271738626078575,0.9580246983325593,0.2027173862607857,500.0,70.71428571428592,[1.62442289]
-2.4267918902875404e-17,0.7705925668425947,3.472266023870873e-17,0.7705925668425947,-5.268921312025157e-18,-0.07235455361638679,3.472266023870873e-17,-0.07235455361638679,-4.104375676008563e-17,0.7739819671685411,-3.431293712051951e-17,-0.7739819671685413,0.17012648548075202,0.9706255497749555,0.17012648548075193,500.0,70.71428571428592,[1.61722877]
-2.4612472301637936e-17,0.7651665119770639,3.52909712115133e-17,0.7651665119770639,-5.1921465176216534e-18,-0.07673899736646254,3.52909712115133e-17,-0.07673899736646254,-4.105472807014023e-17,0.7690049835781018,-3.396877385107802e-17,-0.7690049835781017,0.3145789751677284,0.8955892678928457,0.3145789751677283,500.0,57.857142857142705,[1.59658035]
-2.1004242434076246e-17,0.8923977081581017,3.4384028745504916e-17,0.8923977081581017,-5.110731278755819e-19,-0.046677078334549156,3.4384028745504916e-17,-0.046677078334549156,-3.4742228188069175e-17,0.8936176023152643,-3.1076788450136e-17,-0.8936176023152645,0.3444162513042354,0.8733583981820267,0.3444162513042354,500.0,57.857142857142705,[1.5999458]
-1.8544769775160078e-17,0.9210957049896692,3.2748892997598666e-17,0.9210957049896692,3.7810004454674376e-19,-0.03232703063344277,3.2748892997598666e-17,-0.03232703063344277,-3.0687616920388144e-17,0.921662809632672,-2.837390541156764e-17,-0.9216628096326721,0.35497193967144514,0.8648640610476215,0.354971939671445,500.0,57.857142857142705,[1.58726248]
-1.6292853275545716e-17,0.932926932000586,3.090206340048847e-17,0.932926932000586,7.452616336188453e-19,-0.025905521663715854,3.090206340048847e-17,-0.025905521663715854,-2.710821853647457e-17,0.9332865350494964,-2.5384734188966806e-17,-0.9332865350494964,0.3594395566584243,0.861165727498715,0.35943955665842436,500.0,57.857142857142705,[1.58381027]
-1.4084881366358692e-17,0.9389357359896051,2.898455618311929e-17,0.9389357359896051,9.486177058122306e-19,-0.02257643090688255,2.898455618311929e-17,-0.02257643090688255,-2.3706389618790466e-17,0.9392071185584331,-2.2308630258639217e-17,-0.9392071185584329,0.3617027944631426,0.8592683963437195,0.3617027944631425,500.0,57.857142857142705,[1.58263121]
-1.1898877513084699e-17,0.9421489044188798,2.7027776217105463e-17,0.9421489044188798,1.0726829586726675e-18,-0.020788442814275773,2.7027776217105463e-17,-0.020788442814275773,-2.0377338894832134e-17,0.9423782242031791,-1.9181313361009053e-17,-0.9423782242031793,0.362904349752809,0.8582545460765014,0.36290434975280894,500.0,57.857142857142705,[1.58263121]
-9.770952078569585e-18,0.9436950223543158,2.5051173148823966e-17,0.9436950223543158,1.1598472191180194e-18,-0.01993068944408928,2.5051173148823966e-17,-0.01993068944408928,-1.711002086678379e-17,0.9439054653926047,-1.6049837836169505e-17,-0.9439054653926047,0.3634774689926709,0.8577693507402582,0.36347746899267097,500.0,57.857142857142705,[1.58263121]
-7.634353034946393e-18,0.9440453855754065,2.3058460473156705e-17,0.9440453855754065,1.2156088600775027e-18,-0.01974108964078401,2.3058460473156705e-17,-0.01974108964078401,-1.3872068474264114e-17,0.9442517676162556,-1.290744291396955e-17,-0.9442517676162557,0.36360397428227326,0.8576621128231514,0.36360397428227326,500.0,57.857142857142705,[1.58263121]
-5.541393352104508e-18,0.9433668281740237,2.105202875822984e-17,0.9433668281740237,1.233386367308551e-18,-0.02012450404889784,2.105202875822984e-17,-0.02012450404889784,-1.0664503388727183e-17,0.9435814581488617,-9.762691066304389e-18,-0.943581458148862,0.36334844992469695,0.8578786673385926,0.3633484499246969,500.0,57.857142857142705,[1.58263121]
-3.424846200505368e-18,0.9416251335722408,1.90319296705199e-17,0.9416251335722408,1.2435691674442318e-18,-0.021097376822485206,1.90319296705199e-17,-0.021097376822485206,-7.473147269184749e-18,0.9418614502588638,-6.620181279790187e-18,-0.941861450258864,0.3626978743274179,0.8584290907912809,0.3626978743274179,500.0,57.857142857142705,[1.58263121]
-1.3555418152309678e-18,0.9385741139496268,1.6991345619729976e-17,0.9385741139496268,1.21244210249992e-18,-0.022792996117964894,1.6991345619729976e-17,-0.022792996117964894,-4.321000441255517e-18,0.9388508337581432,-3.498643542070197e-18,-0.9388508337581432,0.36155704484943163,0.8593910673491388,0.36155704484943163,500.0,57.857142857142705,[1.58381027]
7.181375283032248e-19,0.9336218616476778,1.4929514326613852e-17,0.9336218616476778,1.1302431229283884e-18,-0.025531466096930536,1.4929514326613852e-17,-0.025531466096930536,-1.2175568187212768e-18,0.9339708969274868,-3.98246084451783e-19,-0.9339708969274869,0.3596958863065022,0.8609516471604892,0.3596958863065022,500.0,57.857142857142705,[1.58381027]
2.724276334051544e-18,0.9254089182506036,1.2821372648357353e-17,0.9254089182506036,9.755330255713638e-19,-0.030034790909288695,1.2821372648357353e-17,-0.030034790909288695,1.824571679015952e-18,0.9258961899925482,2.6588217916527624e-18,-0.9258961899925485,0.3565837127436843,0.8635369775590731,0.35658371274368433,500.0,57.857142857142705,[1.58726248]
4.6370148681140504e-18,0.9103513921955895,1.0626341336850041e-17,0.9103513921955895,6.546116082228008e-19,-0.03812256785052604,1.0626341336850041e-17,-0.03812256785052604,4.712597359212741e-18,0.9111492673826642,5.581686531037082e-18,-0.9111492673826641,0.35082337116797657,0.8682430100407792,0.35082337116797657,500.0,57.857142857142705,[1.60118531]
6.296158437931582e-18,0.875576321579008,8.194213889273463e-18,0.875576321579008,-1.7631463324023182e-19,-0.055511683323408494,8.194213889273463e-18,-0.055511683323408494,7.190799248353488e-18,0.8773342817280223,8.229617300772352e-18,-0.8773342817280222,0.33756650430644575,0.8786909071685292,0.33756650430644575,500.0,57.857142857142705,[1.5999458]
6.463729513603187e-18,0.7313131257035703,4.8715618597176275e-18,0.7313131257035703,-4.811046637960001e-18,-0.09388905425720412,4.8715618597176275e-18,-0.09388905425720412,7.753587604728309e-18,0.7373154293351241,9.17396599162027e-18,-0.7373154293351243,0.2968999033132883,0.9075796906195732,0.29689990331328825,500.0,57.857142857142705,[1.58398832]
6.4970673738309114e-18,0.7245180198198276,3.885953341308016e-18,0.7245180198198276,-4.826308120261604e-18,-0.09549229497229164,3.885953341308016e-18,-0.09549229497229164,8.45238968281553e-18,0.7307839211714496,9.66526855973369e-18,-0.7307839211714496,0.4303773705360155,0.7934422712844397,0.43037737053601544,500.0,45.00000000000011,[1.55237615]
6.960219447279458e-18,0.8672597967648369,5.3862065983818485e-18,0.8672597967648369,-2.5458696059458006e-19,-0.05757397611252406,5.3862065983818485e-18,-0.05757397611252406,8.673448014653615e-18,0.8691687510547027,9.42837275133158e-18,-0.8691687510547026,0.46578171366020055,0.7523927102514578,0.4657817136602005,500.0,45.00000000000011,[1.59037731]
5.93848016438967e-18,0.903234415872191,5.980590727377917e-18,0.903234415872191,5.393344255877038e-19,-0.04002178312281812,5.980590727377917e-18,-0.04002178312281812,7.012282298431122e-18,0.9041206518713683,7.526454294879242e-18,-0.9041206518713683,0.47737690260844895,0.7377144337153279,0.47737690260844895,500.0,45.00000000000011,[1.57418399]
4.613308698938893e-18,0.9183509553645286,6.3250778870679604e-18,0.9183509553645286,8.23187398145928e-19,-0.03203079615658029,6.3250778870679604e-18,-0.03203079615658029,4.971105672898705e-18,0.9189093802554019,5.409452658785306e-18,-0.9189093802554018,0.4822674456547623,0.7313249768217013,0.4822674456547622,500.0,45.00000000000011,[1.57418399]
3.1814764294024663e-18,0.9260942827962302,6.588577712300451e-18,0.9260942827962302,9.21462865566975e-19,-0.027744564790573974,6.588577712300451e-18,-0.027744564790573974,2.7899685367586677e-18,0.9265097848934369,3.183110221172946e-18,-0.926509784893437,0.48480314652531115,0.7279641599957483,0.48480314652531115,500.0,45.00000000000011,[1.57418399]
1.7084720720568244e-18,0.9302722601440426,6.800970648675447e-18,0.9302722601440426,9.57874218758217e-19,-0.02529234850833574,6.800970648675447e-18,-0.02529234850833574,5.4912509041424625e-19,0.930616022259757,9.222500980507169e-19,-0.9306160222597571,0.48622626840133193,0.7260633800385692,0.4862262684013321,500.0,45.00000000000011,[1.57418399]
1.812046665277039e-19,0.9323217487125403,6.996135862121058e-18,0.9323217487125403,9.475430431001593e-19,-0.023934421274744516,6.996135862121058e-18,-0.023934421274744516,-1.7318221399782775e-18,0.9326289185116263,-1.3689513344579887e-18,-0.9326289185116265,0.487003624596737,0.7250206474710089,0.487003624596737,500.0,45.00000000000011,[1.57418399]
-1.3787562255319623e-18,0.9328476258374399,7.16315317914665e-18,0.9328476258374399,9.02555584715544e-19,-0.02334765307849132,7.16315317914665e-18,-0.02334765307849132,-4.0366196757676955e-18,0.9331397569146979,-3.677241821928208e-18,-0.933139756914698,0.48733320278094605,0.7245776003538408,0.4873332027809461,500.0,45.00000000000011,[1.57418399]
-2.9213190277678006e-18,0.9320673938162458,7.316190342488877e-18,0.9320673938162458,8.412552974707707e-19,-0.023405233942454307,7.316190342488877e-18,-0.023405233942454307,-6.364351828015913e-18,0.9323612130453036,-5.988411772107426e-18,-0.9323612130453037,0.4872908413392129,0.7246345781798191,0.4872908413392129,500.0,45.00000000000011,[1.57418399]
-4.511328082759068e-18,0.9299431007595691,7.46097093792342e-18,0.9299431007595691,7.43060376761871e-19,-0.02410712218998591,7.46097093792342e-18,-0.02410712218998591,-8.712559802352113e-18,0.9302555154314349,-8.32352962929426e-18,-0.9302555154314353,0.4868748228541658,0.725193638789978,0.48687482285416595,500.0,45.00000000000011,[1.57418399]
-6.1104940271312975e-18,0.9261692191057753,7.579305716144638e-18,0.9261692191057753,6.079665832882059e-19,-0.02558004538528684,7.579305716144638e-18,-0.02558004538528684,-1.1080438131654825e-17,0.9265224018559483,-1.0658125648459992e-17,-0.9265224018559484,0.48600507225539624,0.7263595111816558,0.48600507225539624,500.0,45.00000000000011,[1.57418399]
-7.765720483158083e-18,0.9200070510917806,7.675403242862227e-18,0.9200070510917806,4.424982007337108e-19,-0.028147054619642495,7.675403242862227e-18,-0.028147054619642495,-1.3480823418259954e-17,0.9204375213681573,-1.3003679626150462e-17,-0.9204375213681569,0.4844761191104305,0.7283994645957617,0.4844761191104305,500.0,45.00000000000011,[1.57418399]
-9.473073379846123e-18,0.9097635286176139,7.73116859320977e-18,0.9097635286176139,1.863766133076917e-19,-0.03254780609288968,7.73116859320977e-18,-0.03254780609288968,-1.5931096794788765e-17,0.9103455594905886,-1.538037397947296e-17,-0.9103455594905884,0.48180370265967754,0.7319360519928295,0.4818037026596777,500.0,45.00000000000011,[1.57418399]
-1.1315202122459878e-17,0.8910124786103868,7.689463943257739e-18,0.8910124786103868,-2.222156609126236e-19,-0.04065299664178524,7.689463943257739e-18,-0.04065299664178524,-1.8487819010371262e-17,0.8919394055513991,-1.7755579013185697e-17,-0.891939405551399,0.47669128456260224,0.738600594668128,0.47669128456260207,500.0,45.00000000000011,[1.57418399]
-1.353924098106998e-17,0.8482393931748772,7.40118514083205e-18,0.8482393931748772,-1.1506394581293854e-18,-0.05831913190636432,7.40118514083205e-18,-0.05831913190636432,-2.1354315402271192e-17,0.8502418416427147,-2.030580398893592e-17,-0.8502418416427149,0.4645268102439776,0.7539427598492549,0.46452681024397746,500.0,45.00000000000011,[1.600078]
-1.7647225043800227e-17,0.6865399813125351,6.213861424532766e-18,0.6865399813125351,-5.882394216931278e-18,-0.09635161446802666,6.213861424532766e-18,-0.09635161446802666,-2.5717429056077858e-17,0.6932681873209037,-2.4213298947455524e-17,-0.6932681873209036,0.4256566056530426,0.7985191970941341,0.4256566056530427,500.0,45.00000000000011,[1.53876001]
-1.8397615171367507e-17,0.6797210821639627,5.9654272789035986e-18,0.6797210821639627,-5.948993629975219e-18,-0.09485496521491214,5.9654272789035986e-18,-0.09485496521491214,-2.5817883524027523e-17,0.686307667131929,-2.415663639442735e-17,-0.686307667131929,0.5409830920941907,0.6439523182165094,0.5409830920941906,500.0,32.14285714285738,[1.50225342]
-1.5158789482916127e-17,0.8398489839124847,6.514760095049173e-18,0.8398489839124847,-1.3743558314683333e-18,-0.05658784410070794,6.514760095049173e-18,-0.05658784410070794,-2.2243881769827815e-17,0.8417532298000401,-2.1322391024303535e-17,-0.84175322980004,0.5720792471214905,0.5877505168230966,0.5720792471214902,500.0,32.14285714285738,[1.43531795]
-1.3833346702224434e-17,0.8837719896868053,6.162810176496162e-18,0.8837719896868053,-5.748491666937266e-19,-0.039307529437136196,6.162810176496162e-18,-0.039307529437136196,-2.0137152838509373e-17,0.884645698359194,-1.9564970590457845e-17,-0.8846456983591938,0.5814172226024207,0.5691291826313026,0.5814172226024207,500.0,32.14285714285738,[1.4332633]
-1.2920303087727177e-17,0.9025326777475005,5.579657279675139e-18,0.9025326777475005,-2.8104867518530455e-19,-0.03132755954644718,5.579657279675139e-18,-0.03132755954644718,-1.831079429427394e-17,0.9030762151608307,-1.7924409082121505e-17,-0.9030762151608304,0.585313632121798,0.5610845783879442,0.5853136321217978,500.0,32.14285714285738,[1.4332633]
-1.2151531352587742e-17,0.9122574407715507,4.901778269893352e-18,0.9122574407715507,-1.7613446296306012e-19,-0.026931098988223746,4.901778269893352e-18,-0.026931098988223746,-1.6567373427746445e-17,0.9126548758078121,-1.627456829871662e-17,-0.912654875807812,0.5873624857774645,0.556785973784034,0.5873624857774644,500.0,32.14285714285738,[1.43453863]
-1.1462051496606417e-17,0.9175964445778986,4.188437510263534e-18,0.9175964445778986,-1.357763208765979e-19,-0.024298509275038245,4.188437510263534e-18,-0.024298509275038245,-1.4877995165769183e-17,0.9179181078151745,-1.4652746231206933e-17,-0.9179181078151742,0.5885560087778574,0.5542595502677039,0.5885560087778573,500.0,32.14285714285738,[1.43453863]
-1.0807299991462518e-17,0.9203201933796539,3.445171527420656e-18,0.9203201933796539,-1.5729501092185864e-19,-0.022707721992372244,3.445171527420656e-18,-0.022707721992372244,-1.3212017843321047e-17,0.9206002927331961,-1.3045848539074565e-17,-0.9206002927331958,0.5892627417770446,0.5527556804835209,0.5892627417770444,500.0,32.14285714285738,[1.43453863]
-1.0186395062623064e-17,0.9211803912052394,2.683234604736989e-18,0.9211803912052394,-1.9728009455205947e-19,-0.021838561829103022,2.683234604736989e-18,-0.021838561829103022,-1.1561725933238445e-17,0.9214392198749749,-1.1435988512565282e-17,-0.9214392198749745,0.5896400363588841,0.5519504099512818,0.589640036358884,500.0,32.14285714285738,[1.43453863]
-9.600761115102871e-18,0.9204539176152201,1.9167065194609234e-18,0.9204539176152201,-2.6010653002699328e-19,-0.02155766787198064,1.9167065194609234e-18,-0.02155766787198064,-9.928340354105509e-18,0.9207063307576879,-9.837408225314625e-18,-0.9207063307576879,0.5897517512108498,0.5517116492221923,0.5897517512108498,500.0,32.14285714285738,[1.43453863]
-9.038460278301574e-18,0.9181065934378658,1.1341761340965307e-18,0.9181065934378658,-3.521671827107762e-19,-0.021848523964636095,1.1341761340965307e-18,-0.021848523964636095,-8.316354764599933e-18,0.9183665253663793,-8.25945666941815e-18,-0.9183665253663792,0.5896048413878265,0.5520255990659054,0.5896048413878265,500.0,32.14285714285738,[1.43453863]
-8.496372426948623e-18,0.9137822594234366,3.2681828453787697e-19,0.9137822594234366,-4.762939054304835e-19,-0.022806199892885078,3.2681828453787697e-19,-0.022806199892885078,-6.707116241908646e-18,0.9140668139641412,-6.691460902679587e-18,-0.9140668139641411,0.5891516636245218,0.5529924362022657,0.5891516636245216,500.0,32.14285714285738,[1.43453863]
-8.027539690643368e-18,0.9066086708568765,-4.928377761754855e-19,0.9066086708568765,-6.481381961465374e-19,-0.024692711877534954,-4.928377761754855e-19,-0.024692711877534954,-5.122669149356184e-18,0.9069448781997391,-5.148120757857242e-18,-0.9069448781997389,0.588259862168508,0.5548879788957188,0.5882598621685079,500.0,32.14285714285738,[1.43453863]
-7.621109459749113e-18,0.894584513771055,-1.3507408072569218e-18,0.894584513771055,-8.798074974848764e-19,-0.028118872331745627,-1.3507408072569218e-18,-0.028118872331745627,-3.569898111180829e-18,0.8950263254565214,-3.6593034696624535e-18,-0.8950263254565215,0.5866097611656037,0.5583708232084361,0.5866097611656037,500.0,32.14285714285738,[1.43453863]
-7.410026202315381e-18,0.8725025595510185,-2.2884550318247846e-18,0.8725025595510185,-1.3165232921465352e-18,-0.03463596521554892,-2.2884550318247846e-18,-0.03463596521554892,-2.0937057997544077e-18,0.8731897654630933,-2.2887319257375806e-18,-0.8731897654630933,0.5833307269244667,0.5651995453391186,0.5833307269244669,500.0,32.14285714285738,[1.4332633]
-7.663705952573144e-18,0.8224077564034029,-3.4310716134942302e-18,0.8224077564034029,-2.2225805391901694e-18,-0.04908016536508866,-3.4310716134942302e-18,-0.04908016536508866,-8.058401799297722e-19,0.8238709731655454,-1.2331822959896915e-18,-0.8238709731655459,0.575249639154778,0.5815287656725117,0.5752496391547781,500.0,32.14285714285738,[1.4332633]
-1.017337193105903e-17,0.6451529605076974,-5.3007388530611e-18,0.6451529605076974,-6.945602338675033e-18,-0.0792352255892487,-5.3007388530611e-18,-0.0792352255892487,-6.561080813484858e-19,0.6500004334044908,-2.0528812299587514e-18,-0.6500004334044905,0.548400043176798,0.6312802747491574,0.5484000431767981,500.0,32.14285714285738,[1.48888823]
-9.683919236444052e-18,0.6396614810491449,-5.331518295352987e-18,0.6396614810491449,-6.968698048558127e-18,-0.07493389175201723,-5.331518295352987e-18,-0.07493389175201723,1.327070672137199e-19,0.644035634473038,-1.2103751027971617e-18,-0.644035634473038,0.6357204829041563,0.43785720872473083,0.6357204829041562,500.0,19.285714285714306,[1.32758609]
-5.707794380799657e-18,0.815608306185219,-3.913957631418878e-18,0.815608306185219,-2.262701280440829e-18,-0.043894544582817295,-3.913957631418878e-18,-0.043894544582817295,1.067591558604827e-18,0.8167886141239085,6.1454857456846065e-19,-0.8167886141239085,0.6539111627767004,0.3805264542604721,0.6539111627767005,500.0,19.285714285714306,[0.98056329]
-4.017364772263839e-18,0.8665777672605747,-3.2048392152258374e-18,0.8665777672605747,-1.3692601920998535e-18,-0.0303062436410183,-3.2048392152258374e-18,-0.0303062436410183,8.971038440933602e-19,0.8671075452987084,6.684153144084283e-19,-0.8671075452987085,0.6588559875267073,0.36306690209989584,0.6588559875267073,500.0,19.285714285714306,[0.98056329]
-2.825205603672814e-18,0.8886200371613183,-2.677872949253391e-18,0.8886200371613183,-9.819576856902749e-19,-0.02391563003002879,-2.677872949253391e-18,-0.02391563003002879,5.575528200852428e-19,0.8889418022594703,4.093006928198183e-19,-0.8889418022594704,0.660901610845531,0.35555326121913766,0.660901610845531,500.0,19.285714285714306,[0.97382731]
-1.8232384189648815e-18,0.900180848928073,-2.22168604675527e-18,0.900180848928073,-7.666690420223235e-19,-0.02027777445599504,-2.22168604675527e-18,-0.02027777445599504,1.5227567896488686e-19,0.9004092119218657,5.230125054938634e-20,-0.9004092119218656,0.6619975064133927,0.35145213472804565,0.6619975064133927,500.0,19.285714285714306,[0.97442152]
-9.075494808686798e-19,0.9066470716582459,-1.7976203252013845e-18,0.9066470716582459,-6.162925697438584e-19,-0.017984544542391498,-1.7976203252013845e-18,-0.017984544542391498,-2.775554914584931e-19,0.9068254277361602,-3.496583709667601e-19,-0.90682542773616,0.6626633182015226,0.3489335945710812,0.6626633182015225,500.0,19.285714285714306,[0.97395752]
-5.589093962898297e-20,0.910082137157459,-1.389519809855232e-18,0.910082137157459,-5.201791456488719e-19,-0.01647454612122328,-1.389519809855232e-18,-0.01647454612122328,-7.278709625711363e-19,0.9102312382263033,-7.770912645981526e-19,-0.9102312382263031,0.663090018884918,0.34730858571362466,0.663090018884918,500.0,19.285714285714306,[0.97395752]
7.626671422187919e-19,0.911368741812351,-9.932639004953794e-19,0.911368741812351,-4.423795003158094e-19,-0.015493974924001161,-9.932639004953794e-19,-0.015493974924001161,-1.1836127385021273e-18,0.9115004370879772,-1.2177673457736895e-18,-0.9115004370879772,0.6633600415790287,0.34627577228639406,0.663360041579029,500.0,19.285714285714306,[0.97395752]
1.5641323638887713e-18,0.9108400937273549,-6.067456647040776e-19,0.9108400937273549,-4.145018593115473e-19,-0.014929334077547884,-6.067456647040776e-19,-0.014929334077547884,-1.650342781690273e-18,0.9109624368530547,-1.6696202078487175e-18,-0.9109624368530548,0.6635092484911074,0.3457035642476543,0.6635092484911074,500.0,19.285714285714306,[0.98277111]
2.320559255566463e-18,0.9084725510170858,-2.3851577187086385e-19,0.9084725510170858,-3.9544196363710046e-19,-0.014750904892135342,-2.3851577187086385e-19,-0.014750904892135342,-2.124466165193417e-18,0.9085922986392898,-2.1306527873959802e-18,-0.9085922986392898,0.6635468001576725,0.3455593841889239,0.6635468001576724,500.0,19.285714285714306,[0.98277111]
3.0303199258063633e-18,0.9038780638987356,1.283151517513696e-19,0.9038780638987356,-4.1131390523076795e-19,-0.015003269868344707,1.283151517513696e-19,-0.015003269868344707,-2.606254204252478e-18,0.9040025732839867,-2.6005615091578768e-18,-0.9040025732839867,0.6634583911786723,0.3458987226764731,0.6634583911786723,500.0,19.285714285714306,[0.98277111]
3.689887276476546e-18,0.8960905403474121,4.792953302831322e-19,0.8960905403474121,-4.646273500710356e-19,-0.015835514600068285,4.792953302831322e-19,-0.015835514600068285,-3.105745562781399e-18,0.896230450287629,-3.085875505628937e-18,-0.896230450287629,0.6631956435707064,0.34690499664558566,0.6631956435707064,500.0,19.285714285714306,[0.97395752]
4.262362434812245e-18,0.8828868430427584,8.10783204475236e-19,0.8828868430427584,-6.181917764302801e-19,-0.017608628197894667,8.10783204475236e-19,-0.017608628197894667,-3.618802683356189e-18,0.8830624221452412,-3.58412649033505e-18,-0.8830624221452413,0.6626366644198799,0.3490348147864204,0.6626366644198799,500.0,19.285714285714306,[0.97395752]
4.638947989205587e-18,0.8584946190698287,1.0902972528291014e-18,0.8584946190698287,-9.193516938485864e-19,-0.021247230110317518,1.0902972528291014e-18,-0.021247230110317518,-4.173235378170882e-18,0.858757506959451,-4.1173876443527334e-18,-0.8587575069594507,0.661443717207136,0.3535313535380041,0.6614437172071359,500.0,19.285714285714306,[0.97382731]
4.424608948880846e-18,0.8032026628979071,1.251687428168557e-18,0.8032026628979071,-1.729634660848381e-18,-0.029609300434868358,1.251687428168557e-18,-0.029609300434868358,-4.861969117239684e-18,0.8037482369240576,-4.7549525844478894e-18,-0.8037482369240577,0.6583697829795706,0.3648266132272507,0.6583697829795706,500.0,19.285714285714306,[0.98056329]
1.7190533664526027e-18,0.6153521934678324,9.94794288026179e-19,0.6153521934678324,-6.3368387668666335e-18,-0.045915278612655826,9.94794288026179e-19,-0.045915278612655826,-6.416198474834971e-18,0.6170628289046024,-6.207040712086623e-18,-0.6170628289046025,0.648198285806716,0.3995972529365907,0.648198285806716,500.0,19.285714285714306,[0.92707103]
1.4933190860093315e-18,0.6122744928298863,1.4225905941426786e-18,0.6122744928298863,-6.3403658649985596e-18,-0.0396606734143168,1.4225905941426786e-18,-0.0396606734143168,-6.770264864232169e-18,0.6135576774727637,-6.5572229820604406e-18,-0.6135576774727638,0.6960734665239453,0.1759643668549877,0.6960734665239451,500.0,6.428571428571418,[0.34175457]
4.017093457022922e-18,0.7993381015157235,1.9800162352087413e-18,0.7993381015157235,-1.7167471869048049e-18,-0.021994892858241112,1.9800162352087413e-18,-0.021994892858241112,-6.210948495080963e-18,0.7996406541982508,-6.0917332178654876e-18,-0.7996406541982509,0.7002171120577875,0.13925513262678738,0.7002171120577875,500.0,6.428571428571418,[0.39464297]
4.0132950436500784e-18,0.8550545284355172,2.1425171073157025e-18,0.8550545284355172,-9.08363426591432e-19,-0.014788303052875712,2.1425171073157025e-18,-0.014788303052875712,-6.5008488300011976e-18,0.8551824018917066,-6.423017442964875e-18,-0.8551824018917067,0.7011865074975735,0.12913157401158928,0.7011865074975736,500.0,6.428571428571418,[0.39464297]
3.4250836013411706e-18,0.8793638400686322,2.2179257870881804e-18,0.8793638400686322,-6.050329872457866e-19,-0.011251446880811028,2.2179257870881804e-18,-0.011251446880811028,-6.908364321859122e-18,0.8794358181681949,-6.849821710649601e-18,-0.8794358181681952,0.701590225582194,0.12466880417751618,0.7015902255821941,500.0,6.428571428571418,[0.39464297]
2.6371841417170607e-18,0.892249571220519,2.258071964142676e-18,0.892249571220519,-4.560809199821378e-19,-0.009091673851727424,2.258071964142676e-18,-0.009091673851727424,-7.345181859736124e-18,0.8922958903170101,-7.298065901595076e-18,-0.89229589031701,0.7018174890424648,0.12208367682970413,0.7018174890424647,500.0,6.428571428571418,[0.39464297]
1.753239086808194e-18,0.899583800469408,2.283397546162059e-18,0.899583800469408,-3.7034530385224155e-19,-0.007591256203262927,2.283397546162059e-18,-0.007591256203262927,-7.802348040681931e-18,0.8996158298061052,-7.763211777515367e-18,-0.8996158298061053,0.7019675553298538,0.12034576240340768,0.701967555329854,500.0,6.428571428571418,[0.39464297]
8.161162446795185e-19,0.9036241736717625,2.2940466693680665e-18,0.9036241736717625,-3.559655960836197e-19,-0.0064606655480948,2.2940466693680665e-18,-0.0064606655480948,-8.26670407551205e-18,0.9036472693719052,-8.233380317720178e-18,-0.9036472693719051,0.7020766479681357,0.1190662032469888,0.7020766479681356,500.0,6.428571428571418,[0.39464297]
-1.7092860177795764e-19,0.9053426199883237,2.306467820241316e-18,0.9053426199883237,-3.7007398861132416e-19,-0.005562737978540913,2.306467820241316e-18,-0.005562737978540913,-8.74123443187657e-18,0.9053597095194482,-8.712586038569235e-18,-0.9053597095194482,0.7021609349461142,0.11806795869836022,0.7021609349461141,500.0,6.428571428571418,[0.39464297]
-1.1872754942545121e-18,0.9051144897397851,2.3103849340320608e-18,0.9051144897397851,-4.0046129559407223e-19,-0.004826320068645953,2.3103849340320608e-18,-0.004826320068645953,-9.216036103482008e-18,0.9051273572831158,-9.19116543690287e-18,-0.9051273572831158,0.7022284981910156,0.11726155660224448,0.7022284981910155,500.0,6.428571428571418,[0.39464297]
-2.245404933832345e-18,0.9029313743155959,2.311453237793173e-18,0.9029313743155959,-4.734450954008509e-19,-0.004214376381783887,2.311453237793173e-18,-0.004214376381783887,-9.69870591707405e-18,0.9029412094326726,-9.676963765046934e-18,-0.9029412094326725,0.7022834675858686,0.11660129635272794,0.7022834675858685,500.0,6.428571428571418,[0.39464297]
-3.342603768102283e-18,0.8983984087124028,2.3118941250596637e-18,0.8983984087124028,-5.553822981579036e-19,-0.003712171342309716,2.3118941250596637e-18,-0.003712171342309716,-1.0190600448857284e-17,0.898406078003178,-1.0171378743293637e-17,-0.898406078003178,0.7023275137032853,0.11606949207575327,0.7023275137032853,500.0,6.428571428571418,[0.39464297]
-4.51685613079276e-18,0.8905139580281596,2.312351969528712e-18,0.8905139580281596,-6.885980814483436e-19,-0.0033263307143899475,2.312351969528712e-18,-0.0033263307143899475,-1.0687649970217948e-17,0.890520170416707,-1.0670286099537166e-17,-0.8905201704167068,0.7023600160713417,0.11567547557079512,0.7023600160713416,500.0,6.428571428571418,[0.39464297]
-5.7790146315404725e-18,0.8769634353651626,2.3010754298280827e-18,0.8769634353651626,-9.032084370140016e-19,-0.0030965207837366756,2.3010754298280827e-18,-0.0030965207837366756,-1.1197722623142647e-17,0.8769689021900562,-1.1181403930321416e-17,-0.8769689021900564,0.7023767147920263,0.115472512036075,0.7023767147920263,500.0,6.428571428571418,[0.39464297]
-7.249543237312743e-18,0.8517372401872518,2.2929020581954462e-18,0.8517372401872518,-1.287933448634865e-18,-0.003137563027016902,2.2929020581954462e-18,-0.003137563027016902,-1.1733298908713581e-17,0.8517430191222847,-1.1716344934960707e-17,-0.8517430191222847,0.7023642333570973,0.11562425092251917,0.7023642333570973,500.0,6.428571428571418,[0.39464297]
-9.319135895030617e-18,0.7944002459426651,2.2601746572597857e-18,0.7944002459426651,-2.1857155808305186e-18,-0.003763184334412761,2.2601746572597857e-18,-0.003763184334412761,-1.2380385758301565e-17,0.7944091592561742,-1.2358895250031226e-17,-0.7944091592561742,0.7022777192111139,0.11667051983800988,0.7022777192111138,500.0,6.428571428571418,[0.39464297]
-1.3994440126519135e-17,0.6030107243616505,2.215407642508416e-18,0.6030107243616505,-6.880554509665089e-18,-0.0029926672415772682,2.215407642508416e-18,-0.0029926672415772682,-1.3785527391012744e-17,0.6030181504336178,-1.3763533405507693e-17,-0.6030181504336182,0.702259078813106,0.11689470667714319,0.7022590788131062,500.0,6.428571428571418,[0.34025637]
-1.4691177665195e-17,0.6029533114316562,2.1823919691292806e-18,0.6029533114316562,-6.911484447129672e-18,0.003975297296160985,2.1823919691292806e-18,0.003975297296160985,-1.3520723715877368e-17,0.6029664159428721,-1.3549543879028482e-17,-0.6029664159428724,0.7021234055228343,0.1185134879835844,0.7021234055228345,500.0,6.428571428571418,[0.34025637]
-1.1387643291784822e-17,0.7942281354428831,1.5448181101759642e-18,0.7942281354428831,-2.2969548296066498e-18,0.004768479792240358,1.5448181101759642e-18,0.004768479792240358,-1.159601339680938e-17,0.7942424500922927,-1.1614568014546706e-17,-0.7942424500922926,0.7021726515091066,0.11792851625176118,0.7021726515091066,500.0,6.428571428571418,[0.39464297]
-1.0699587840818313e-17,0.8514506827869526,9.298142878264634e-19,0.8514506827869526,-1.4726991276996096e-18,0.004165508118086337,9.298142878264634e-19,0.004165508118086337,-1.043668337236936e-17,0.8514608720758983,-1.0445754808550073e-17,-0.8514608720758982,0.7022649147713558,0.11682456489266549,0.702264914771356,500.0,6.428571428571418,[0.39464297]
-1.060625539794273e-17,0.8765627767299969,3.2222076299451895e-19,0.8765627767299969,-1.1639423835356163e-18,0.004147205745071904,3.2222076299451895e-19,0.004147205745071904,-9.3750268346596e-18,0.876572587333242,-9.37809665656457e-18,-0.876572587333242,0.7022782080177399,0.11666463511614963,0.7022782080177398,500.0,6.428571428571418,[0.39464297]
-1.0749509845147114e-17,0.8899996380664135,-2.7569019917718604e-19,0.8899996380664135,-1.0255716106677458e-18,0.004399855962283813,-2.7569019917718604e-19,0.004399855962283813,-8.340230505800663e-18,0.8900105136967966,-8.33757086287052e-18,-0.8900105136967966,0.7022606669207255,0.11687562360096937,0.7022606669207255,500.0,6.428571428571418,[0.39464297]
-1.096113573306268e-17,0.8977709606781165,-8.718036978778133e-19,0.8977709606781165,-9.604559528475715e-19,0.004808625735378983,-8.718036978778133e-19,0.004808625735378983,-7.323340982842274e-18,0.8977838385259401,-7.31410401002424e-18,-0.8977838385259398,0.7022265157286245,0.11728529837652998,0.7022265157286243,500.0,6.428571428571418,[0.39464297]
-1.1244388844580439e-17,0.9021914237727756,-1.4638305107621223e-18,0.9021914237727756,-9.403786250196844e-19,0.005333831908436607,-1.4638305107621223e-18,0.005333831908436607,-6.3113351342203985e-18,0.9022071906674076,-6.294219497613519e-18,-0.9022071906674077,0.7021803060110828,0.11783732727944896,0.7021803060110829,500.0,6.428571428571418,[0.39464297]
-1.1552602958262597e-17,0.9042627533986127,-2.04351248018469e-18,0.9042627533986127,-9.577428004383976e-19,0.00596883040563162,-2.04351248018469e-18,0.00596883040563162,-5.308554003789713e-18,0.9042824526222166,-5.281855907937571e-18,-0.9042824526222166,0.7021227580249171,0.11852115982797186,0.7021227580249171,500.0,6.428571428571418,[0.39464297]
-1.19270179907286e-17,0.9043799044255584,-2.6343014172823134e-18,0.9043799044255584,-1.0016958694670152e-18,0.006728338326791856,-2.6343014172823134e-18,0.006728338326791856,-4.3101139172137064e-18,0.9044049325746861,-4.2713356091290965e-18,-0.904404932574686,0.7020522039796608,0.11935411921924537,0.7020522039796608,500.0,6.428571428571418,[0.39464297]
-1.2318797198613315e-17,0.9025513739429567,-3.214203830338127e-18,0.9025513739429567,-1.0516178737958156e-18,0.0076493730514598625,-3.214203830338127e-18,0.0076493730514598625,-3.3165575049742134e-18,0.9025837886392595,-3.2626663536800996e-18,-0.9025837886392595,0.7019644366348572,0.12038213903987388,0.701964436634857,500.0,6.428571428571418,[0.39464297]
-1.2746390018299128e-17,0.8984018986579304,-3.7896295419188025e-18,0.8984018986579304,-1.1503766214897466e-18,0.00880307078774282,-3.7896295419188025e-18,0.00880307078774282,-2.3278847670712326e-18,0.898445026458196,-2.254544951885873e-18,-0.8984450264581958,0.7018511872741676,0.1216956114396987,0.7018511872741675,500.0,6.428571428571418,[0.39464297]
-1.3258633193151166e-17,0.8909596349751342,-4.358001057235626e-18,0.8909596349751342,-1.2930884382122954e-18,0.010326579622052365,-4.358001057235626e-18,0.010326579622052365,-1.350064638804948e-18,0.8910194775658471,-1.2507941719358194e-18,-0.8910194775658472,0.7016958899430172,0.1234737060031583,0.7016958899430172,500.0,6.428571428571418,[0.39464297]
-1.3854441462205762e-17,0.8779670213000564,-4.905888271863187e-18,0.8779670213000564,-1.52262113202841e-18,0.01250941473345276,-4.905888271863187e-18,0.01250941473345276,-3.901513164392113e-19,0.8780561348498555,-2.533273310080421e-19,-0.8780561348498556,0.701461405100396,0.1261102466461639,0.7014614051003961,500.0,6.428571428571418,[0.39464297]
-1.46662166630306e-17,0.8535520627704594,-5.4247447557125865e-18,0.8535520627704594,-1.9046329912400994e-18,0.01606929701770156,-5.4247447557125865e-18,0.01606929701770156,5.377468074982731e-19,0.8537033127301015,7.364550478059321e-19,-0.8537033127301015,0.7010459159215947,0.13064933042042093,0.7010459159215948,500.0,6.428571428571418,[0.39464297]
-1.603364547725426e-17,0.7977313113028415,-5.853558493982526e-18,0.7977313113028415,-2.7956322424128183e-18,0.023298892393336008,-5.853558493982526e-18,0.023298892393336008,1.3489793778412784e-18,0.7980714776382547,1.6758591865568945e-18,-0.7980714776382548,0.7000498304215589,0.14092717925756224,0.7000498304215591,500.0,6.428571428571418,[0.39464297]
-1.9940584946464722e-17,0.6105648065414896,-5.893577492017842e-18,0.6105648065414896,-7.490471171247388e-18,0.0409877678625991,-5.893577492017842e-18,0.0409877678625991,1.3039410478489911e-18,0.6119390329938147,1.975712997522713e-18,-0.6119390329938146,0.6957798082267681,0.17827203069422834,0.695779808226768,500.0,6.428571428571418,[0.34280119]
-2.017283079269001e-17,0.6135411095254503,-5.225158481612729e-18,0.6135411095254503,-7.370007204280066e-18,0.04728389102422233,-5.225158481612729e-18,0.04728389102422233,6.636370792839435e-19,0.6153604305024096,1.3326951162553566e-18,-0.6153604305024097,0.6475077919657996,0.40182996240592783,0.6475077919657996,500.0,19.28571428571425,[0.92323132]
-1.7032085563830268e-17,0.801293007170867,-4.414366798536215e-18,0.801293007170867,-2.4223024709104854e-18,0.031042641299042776,-4.414366798536215e-18,0.031042641299042776,-3.017025479001411e-19,0.8018940883431878,1.6863964925154453e-20,-0.8018940883431878,0.6578851988296285,0.36657077123224113,0.6578851988296286,500.0,19.28571428571425,[0.98056329]
-1.6387440551410542e-17,0.8564880344444898,-3.1895819722248734e-18,0.8564880344444898,-1.2740963713480779e-18,0.0227443730492241,-3.1895819722248734e-18,0.0227443730492241,-2.1428477727655705e-18,0.8567899740613144,-1.9796921059888502e-18,-0.8567899740613145,0.6609914690503597,0.35521902494840374,0.6609914690503599,500.0,19.28571428571425,[0.97382731]
-1.628976706468028e-17,0.880785122399963,-1.8451810390740756e-18,0.880785122399963,-6.413892295287172e-19,0.019168965577124705,-1.8451810390740756e-18,0.019168965577124705,-4.1044569645983225e-18,0.8809936895814949,-4.028842934526933e-18,-0.880993689581495,0.6621867965132612,0.3507382115581502,0.6621867965132612,500.0,19.28571428571425,[0.97442152]
-1.641565733646595e-17,0.8938955597489936,-4.523164210144089e-19,0.8938955597489936,-1.72556493223462e-19,0.017458482817447694,-4.523164210144089e-19,0.017458482817447694,-6.106763442568683e-18,0.8940660324390216,-6.094864516283596e-18,-0.8940660324390216,0.6627386443742205,0.34864735551275994,0.6627386443742205,500.0,19.28571428571425,[0.97395752]
-1.662402744149051e-17,0.9015917643495485,9.628299612055987e-19,0.9015917643495485,2.192227146612536e-19,0.01668828760414384,9.628299612055987e-19,0.01668828760414384,-8.135116183667114e-18,0.9017461995961449,-8.17293203753923e-18,-0.9017461995961448,0.6629899115075059,0.3476906016540269,0.6629899115075057,500.0,19.28571428571425,[0.97395752]
-1.689751320433524e-17,0.9060969309892906,2.3938821994243885e-18,0.9060969309892906,5.610799182171689e-19,0.01649735847609773,2.3938821994243885e-18,0.01649735847609773,-1.017540679536591e-17,0.9062471027180724,-1.026326911607168e-17,-0.9062471027180723,0.6630642879469207,0.3474068221824177,0.6630642879469206,500.0,19.28571428571425,[0.97395752]
-1.7212238883799417e-17,0.9083772042201266,3.830801629728017e-18,0.9083772042201266,8.682087709356578e-19,0.016736573873727408,3.830801629728017e-18,0.016736573873727408,-1.2220038450919384e-17,0.9085313742803847,-1.2362225399920115e-17,-0.9085313742803847,0.6630108263469452,0.34761082879202976,0.6630108263469452,500.0,19.28571428571425,[0.97395752]
-1.7555181348319002e-17,0.9088206823044899,5.282982542333249e-18,0.9088206823044899,1.1655702749811207e-18,0.01736131527352495,5.282982542333249e-18,0.01736131527352495,-1.4272266933218545e-17,0.9089864948680071,-1.447497089247082e-17,-0.9089864948680073,0.662843976071611,0.34824664646074416,0.6628439760716112,500.0,19.28571428571425,[0.97395752]
-1.7932852163676013e-17,0.9074510520333863,6.7430655113302e-18,0.9074510520333863,1.433629733007505e-18,0.018401266846311083,6.7430655113302e-18,0.018401266846311083,-1.6336433286118072e-17,0.9076376030432239,-1.6610624796197368e-17,-0.9076376030432237,0.6625543280834062,0.349347283767732,0.662554328083406,500.0,19.28571428571425,[0.97395752]
-1.8358274461434485e-17,0.9039351470981496,8.213458459482011e-18,0.9039351470981496,1.6593640134507763e-18,0.019969893537977138,8.213458459482011e-18,0.019969893537977138,-1.8408196465763286e-17,0.9041557093815598,-1.8772500558991793e-17,-0.9041557093815598,0.6621052850536612,0.35104584174722836,0.6621052850536612,500.0,19.28571428571425,[0.97442152]
-1.8816254588103045e-17,0.8973903105226614,9.701927785559944e-18,0.8973903105226614,1.8481994211292816e-18,0.02232097173406462,9.701927785559944e-18,0.02232097173406462,-2.050383538660923e-17,0.8976678646354179,-2.098734537323939e-17,-0.897667864635418,0.6614127832463462,0.35364708441699827,0.6614127832463463,500.0,19.28571428571425,[0.97382731]
-1.9374078723429205e-17,0.8857531491851659,1.1225634178552024e-17,0.8857531491851659,1.95346973460523e-18,0.026015875013012016,1.1225634178552024e-17,0.026015875013012016,-2.2616838482873887e-17,0.8861351291107531,-2.3271983045371758e-17,-0.8861351291107532,0.6602820684974862,0.35784798454282557,0.660282068497486,500.0,19.28571428571425,[0.97382731]
-2.0116397222579192e-17,0.8636368369301126,1.2813201396375036e-17,0.8636368369301126,1.8970361644944124e-18,0.03246273255904152,1.2813201396375036e-17,0.03246273255904152,-2.47992982808134e-17,0.8642467327724475,-2.574917932090211e-17,-0.8642467327724475,0.6581830052322236,0.36550001812169247,0.6581830052322236,500.0,19.28571428571425,[0.98056329]
-2.136227680887186e-17,0.8125957089752905,1.459011273795327e-17,0.8125957089752905,1.3196773318222e-18,0.046106531305162325,1.459011273795327e-17,0.046106531305162325,-2.7144547223303346e-17,0.8139026959496134,-2.8766617998346387e-17,-0.8139026959496134,0.6531246491486224,0.3832184564305035,0.6531246491486223,500.0,19.28571428571425,[0.98056329]
-2.490022755043467e-17,0.6365797808914296,1.7071460188168404e-17,0.6365797808914296,-3.039815959238472e-18,0.07720094528671524,1.7071460188168404e-17,0.07720094528671524,-3.060435917548194e-17,0.6412439499854509,-3.466247155342894e-17,-0.6412439499854505,0.6344549267451448,0.44151318423986635,0.6344549267451446,500.0,19.28571428571425,[1.32758609]
-2.4073258696118453e-17,0.6420059981404789,1.7592012392273538e-17,0.6420059981404789,-3.1081873999496555e-18,0.08156936411296598,1.7592012392273538e-17,0.08156936411296598,-3.0466531033095903e-17,0.6471671057850099,-3.4859976141752863e-17,-0.6471671057850097,0.546532708936898,0.634510832156703,0.5465327089368982,500.0,32.142857142857125,[1.48888823]
-1.938276081113856e-17,0.819203578156669,1.5762737209198244e-17,0.819203578156669,1.1199893145069986e-18,0.05150222192191724,1.5762737209198244e-17,0.05150222192191724,-2.6238354318639253e-17,0.8208209191581224,-2.8161384791933716e-17,-0.820820919158122,0.5739398973981702,0.584111280792587,0.5739398973981701,500.0,32.142857142857125,[1.43531795]
-1.694743520866404e-17,0.8692429943228576,1.4662893051329362e-17,0.8692429943228576,1.5562642219021669e-18,0.03714397501374335,1.4662893051329362e-17,0.03714397501374335,-2.31442753112173e-17,0.8700362395091306,-2.4381600983699753e-17,-0.8700362395091306,0.5821174961273333,0.567695729598954,0.5821174961273333,500.0,32.142857142857125,[1.4332633]
-1.499396547405881e-17,0.8912716663658637,1.3763381284472862e-17,0.8912716663658637,1.4802959544452966e-18,0.03071138175296093,1.3763381284472862e-17,0.03071138175296093,-2.025205484303789e-17,0.8918006348034069,-2.1202157849916614e-17,-0.8918006348034072,0.5854137852086865,0.5608755656785878,0.5854137852086866,500.0,32.142857142857125,[1.4332633]
-1.3220649059422731e-17,0.9032447206378578,1.2942652680697748e-17,0.9032447206378578,1.2350269766559733e-18,0.027368369662790513,1.2942652680697748e-17,0.027368369662790513,-1.7427120554605992e-17,0.9036592571418504,-1.8203149417422448e-17,-0.9036592571418501,0.5870560102195028,0.557432042252971,0.5870560102195027,500.0,32.142857142857125,[1.43453863]
-1.1527641956098197e-17,0.9103694118500794,1.2156143711683338e-17,0.9103694118500794,9.051076437004233e-19,0.025563665099212037,1.2156143711683338e-17,0.025563665099212037,-1.4635829356047852e-17,0.910728261890211,-1.5317422196858458e-17,-0.9107282618902106,0.5879286756441752,0.5555895469774181,0.5879286756441751,500.0,32.142857142857125,[1.43453863]
-9.880215813247786e-18,0.914647065621037,1.1395070546504936e-17,0.914647065621037,5.448010037621253e-19,0.024686443815233137,1.1395070546504936e-17,0.024686443815233137,-1.1867328637726773e-17,0.9149801501439345,-1.247514716008719e-17,-0.9149801501439345,0.5883563816045749,0.55468327579831,0.588356381604575,500.0,32.142857142857125,[1.43453863]
-8.280541152798837e-18,0.9169499320230419,1.064993715173043e-17,0.9169499320230419,1.4759549105906183e-19,0.024474671768632893,1.064993715173043e-17,0.024474671768632893,-9.10968052904239e-18,0.9172765054198457,-9.675928584068868e-18,-0.9172765054198456,0.5884734416831063,0.5544348626009007,0.5884734416831063,500.0,32.142857142857125,[1.43453863]
-6.685207536204566e-18,0.9176341722169129,9.916979028392093e-18,0.9176341722169129,-2.7565628477207137e-19,0.024833260431917924,9.916979028392093e-18,0.024833260431917924,-6.366140812885712e-18,0.91797013287138,-6.903566035506592e-18,-0.9179701328713801,0.5883281076250134,0.5547432519253767,0.5883281076250135,500.0,32.142857142857125,[1.43453863]
-5.128943314302399e-18,0.9167339652968058,9.199316301760474e-18,0.9167339652968058,-7.336364114406309e-19,0.025778708399277372,9.199316301760474e-18,0.025778708399277372,-3.6399652721477455e-18,0.9170963444129198,-4.158197836173842e-18,-0.9170963444129197,0.587913121364227,0.5556224648585976,0.5879131213642271,500.0,32.142857142857125,[1.43453863]
-3.6095779651649975e-18,0.9139724308671817,8.496948971835572e-18,0.9139724308671817,-1.2133217573825818e-18,0.027444361590597762,8.496948971835572e-18,0.027444361590597762,-9.278981239374843e-19,0.9143843816297283,-1.443170622297319e-18,-0.9143843816297285,0.587163300873771,0.5572059908274817,0.5871633008737708,500.0,32.142857142857125,[1.43453863]
-2.13145253264704e-18,0.9085978650667427,7.823476715068373e-18,0.9085978650667427,-1.740758585725994e-18,0.030150384782120475,7.823476715068373e-18,0.030150384782120475,1.7570375001810376e-18,0.9090979738764978,1.239317851852334e-18,-0.9090979738764979,0.5859182045466863,0.5598211456899206,0.5859182045466863,500.0,32.142857142857125,[1.4332633]
-7.119311921672394e-19,0.8988397686567893,7.18581807010227e-18,0.8988397686567893,-2.3485047253809545e-18,0.03461884472365642,7.18581807010227e-18,0.03461884472365642,4.394221641898098e-18,0.8995061946029008,3.848784384332151e-18,-0.8995061946029008,0.5838020848520192,0.5642253551949535,0.5838020848520195,500.0,32.142857142857125,[1.4332633]
5.599946572534993e-19,0.8800479970820293,6.640644007883884e-18,0.8800479970820293,-3.1125284438043338e-18,0.0426694011129443,6.640644007883884e-18,0.0426694011129443,6.942414384594254e-18,0.8810818094589338,6.2979712500813225e-18,-0.8810818094589337,0.5798029720562481,0.5724133359640424,0.5798029720562481,500.0,32.142857142857125,[1.4332633]
1.3891340334970526e-18,0.8360962438563403,6.331141146807368e-18,0.8360962438563403,-4.397477424789107e-18,0.06001899408927333,6.331141146807368e-18,0.06001899408927333,9.21060979866366e-18,0.838247701244787,8.281087626266347e-18,-0.8382477012447868,0.5702513535484076,0.5912924720917886,0.5702513535484075,500.0,32.142857142857125,[1.43531795]
3.3426037681022827e-19,0.6759423012926503,6.916028977415038e-18,0.6759423012926503,-9.469987168980688e-18,0.09835454834939586,6.916028977415038e-18,0.09835454834939586,1.0015873433706483e-17,0.6830604745246336,7.426399484634073e-18,-0.6830604745246335,0.5383152060821056,0.6484084189780082,0.5383152060821057,500.0,32.142857142857125,[1.50498589]
1.0375094812681111e-18,0.6827387387178249,6.3313107188329416e-18,0.6827387387178249,-9.598047962693698e-18,0.09992663191430708,6.3313107188329416e-18,0.09992663191430708,1.0652921619380522e-17,0.6900126934424786,8.895080708036363e-18,-0.6900126934424785,0.42231984450594934,0.8020547973006218,0.42231984450594945,500.0,45.0,[1.53364807]
2.86725946601501e-18,0.8444281482002963,4.430035253699194e-18,0.8444281482002963,-4.753443020872727e-18,0.06198783983403257,4.430035253699194e-18,0.06198783983403257,1.1726244712449729e-17,0.8467002951223482,1.1148806059700641e-17,-0.8467002951223486,0.4620526961391937,0.7569772863045523,0.46205269613919375,500.0,45.0,[1.600078]
2.8325311151775837e-18,0.8871925918064805,3.4335961170249538e-18,0.8871925918064805,-3.6985693641859024e-18,0.04441302787817737,3.4335961170249538e-18,0.04441302787817737,1.1296481370836578e-17,0.8883035584762722,1.0925127689419162e-17,-0.8883035584762723,0.47437587966772443,0.7415760578517522,0.47437587966772443,500.0,45.0,[1.57632934]
2.415790905128468e-18,0.9059368433776294,2.677203139752376e-18,0.9059368433776294,-3.1667914919878124e-18,0.03639740654412179,2.677203139752376e-18,0.03639740654412179,1.0561759698432278e-17,0.9066677094681167,1.0316515668577545e-17,-0.9066677094681167,0.47952487319947124,0.7349229836969734,0.47952487319947124,500.0,45.0,[1.57418399]
1.8579667698023078e-18,0.9161755157068355,2.018754964450978e-18,0.9161755157068355,-2.7869501547034617e-18,0.03208460811691529,2.018754964450978e-18,0.03208460811691529,9.722852973515698e-18,0.9167371475285063,9.577760868030153e-18,-0.9167371475285062,0.4821943290797156,0.7314213956446218,0.4821943290797156,500.0,45.0,[1.57418399]
1.2502206301473473e-18,0.9223348004480169,1.396798689052969e-18,0.9223348004480169,-2.491759172585338e-18,0.02960396383494446,1.396798689052969e-18,0.02960396383494446,8.83076846137931e-18,0.922809773892878,8.727663976330802e-18,-0.9228097738928778,0.48370252562837684,0.7294269897676252,0.48370252562837684,500.0,45.0,[1.57418399]
5.773588326722125e-19,0.9261077625425853,8.058740943348869e-19,0.9261077625425853,-2.2464901947960147e-18,0.02821581633304027,8.058740943348869e-19,0.02821581633304027,7.905040859369165e-18,0.9265374898691221,7.850909314715231e-18,-0.9265374898691223,0.4845416165169835,0.728312325672316,0.4845416165169835,500.0,45.0,[1.57418399]
-9.550296480292236e-20,0.9282330899777402,2.367903765106548e-19,0.9282330899777402,-2.025096958207422e-18,0.027597102792070796,2.367903765106548e-19,0.027597102792070796,6.955437516158289e-18,0.9286432411922998,6.932444849646758e-18,-0.9286432411923,0.4849203371303973,0.7278080332578666,0.4849203371303974,500.0,45.0,[1.57418399]
-8.030931131154836e-19,0.9290162988713228,-3.226446930584524e-19,0.9290162988713228,-1.8406025943835946e-18,0.027621079266840525,-3.226446930584524e-19,0.027621079266840525,5.986299475601361e-18,0.9294268166931896,6.001892163223544e-18,-0.9294268166931894,0.484919954650953,0.7278085429305122,0.48491995465095294,500.0,45.0,[1.57418399]
-1.5280474368467578e-18,0.928495330245605,-8.586279514907625e-19,0.928495330245605,-1.6734724059784807e-18,0.028287768906340233,-8.586279514907625e-19,0.028287768906340233,5.000882520589389e-18,0.9289261413899349,5.040114220832626e-18,-0.9289261413899347,0.48454205411438894,0.7283117434102085,0.48454205411438894,500.0,45.0,[1.57418399]
-2.28338906756078e-18,0.9264526732401,-1.384979518870505e-18,0.9264526732401,-1.5323884807014361e-18,0.02972396269615216,-1.384979518870505e-18,0.02972396269615216,3.993760346304026e-18,0.9269293768740365,4.072378283244726e-18,-0.9269293768740366,0.48370929485915265,0.729418011933982,0.4837092948591527,500.0,45.0,[1.57418399]
-3.047412785984159e-18,0.9222834467904097,-1.885352651932407e-18,0.9222834467904097,-1.4477381255352095e-18,0.03225277339571641,-1.885352651932407e-18,0.03225277339571641,2.9367161676898627e-18,0.9228472233340218,3.0657086635831584e-18,-0.9228472233340217,0.48221994436913934,0.7313876198742008,0.4822199443691393,500.0,45.0,[1.57418399]
-3.8808932060823906e-18,0.9145507966396008,-2.3434853934239827e-18,0.9145507966396008,-1.4368855158985137e-18,0.03661391640816747,-2.3434853934239827e-18,0.03661391640816747,1.8210678970375423e-18,0.9152834197716425,2.0060033212145603e-18,-0.9152834197716424,0.4795983742666688,0.7348270536674169,0.4795983742666688,500.0,45.0,[1.57418399]
-4.818558678692901e-18,0.8994468973323089,-2.7035885469315927e-18,0.8994468973323089,-1.5931630946669323e-18,0.04467814330187599,-2.7035885469315927e-18,0.04467814330187599,5.686767449628559e-19,0.9005558603493844,8.211759871183527e-19,-0.9005558603493846,0.4745784196545079,0.741316833207273,0.4745784196545079,500.0,45.0,[1.57632934]
-6.060097221130892e-18,0.8634870279463372,-2.8213393614897413e-18,0.8634870279463372,-2.263854370214728e-18,0.06230200171271224,-2.8213393614897413e-18,0.06230200171271224,-1.0592147005415026e-18,0.8657317060435118,-6.909684649957645e-19,-0.8657317060435117,0.4627213146063045,0.7561600161460713,0.4627213146063046,500.0,45.0,[1.600078]
-8.790613805723536e-18,0.7207627323298688,-2.0361021826671337e-18,0.7207627323298688,-6.713424321259975e-18,0.10029088639871471,-2.0361021826671337e-18,0.10029088639871471,-4.577630744758256e-18,0.727706794121271,-4.389033418100782e-18,-0.7277067941212711,0.4263199484624804,0.7978111324655082,0.42631994846248045,500.0,45.0,[1.54103108]
-8.512786999024125e-18,0.727575704915897,-1.962245086928652e-18,0.727575704915897,-6.639626575730444e-18,0.09876331227491618,-1.962245086928652e-18,0.09876331227491618,-4.683986319197874e-18,0.734248321915261,-4.567815473386912e-18,-0.7342483219152613,0.2922505986273233,0.9105927603511588,0.2922505986273234,500.0,57.8571428571429,[1.58248963]
-5.795293545995516e-18,0.8718711309252538,-2.459862674574987e-18,0.8718711309252538,-2.0229264362800828e-18,0.06047814229340656,-2.459862674574987e-18,0.06047814229340656,-7.813878938420922e-19,0.873966174766588,-4.2605839153780943e-19,-0.8739661747665879,0.3338701531964709,0.8815108857008688,0.3338701531964709,500.0,57.8571428571429,[1.5999458]
-4.545072915848169e-18,0.9066790906147653,-2.0617160371299913e-18,0.9066790906147653,-1.2111512354552427e-18,0.043178793241586876,-2.0617160371299913e-18,0.043178793241586876,1.2089807135279036e-18,0.9077066605152886,1.4175594105802914e-18,-0.9077066605152887,0.3472968229003716,0.8710739541546492,0.3472968229003716,500.0,57.8571428571429,[1.5999458]
-3.568338048545554e-18,0.9217709133018712,-1.4233875826628734e-18,0.9217709133018712,-9.15960253337119e-19,0.035178887578799285,-1.4233875826628734e-18,0.035178887578799285,2.793461720485479e-18,0.9224419606352736,2.8895347841185407e-18,-0.9224419606352733,0.35309644235250637,0.8663981791278225,0.3530964423525063,500.0,57.8571428571429,[1.59341994]
-2.674083014481826e-18,0.9300197419763269,-7.005189948461516e-19,0.9300197419763269,-7.683647622780572e-19,0.03076162256529975,-7.005189948461516e-19,0.03076162256529975,4.2238356706019754e-18,0.9305283434095726,4.263801248915552e-18,-0.9305283434095728,0.35620509520177834,0.8638494430770814,0.35620509520177834,500.0,57.8571428571429,[1.58726248]
-1.8406025943835946e-18,0.9350095191841804,6.362766329576801e-20,0.9350095191841804,-7.075901483125611e-19,0.028107378157471382,6.362766329576801e-20,0.028107378157471382,5.58258239711628e-18,0.9354318925886159,5.5712391187532805e-18,-0.935431892588616,0.35804345816409394,0.8623281070055606,0.3580434581640939,500.0,57.8571428571429,[1.58381027]
-1.0461915689774677e-18,0.9380997207314391,8.621677675246066e-19,0.9380997207314391,-6.923964948211871e-19,0.026494098491149212,8.621677675246066e-19,0.026494098491149212,6.9000892070111415e-18,0.9384737733635727,6.8425639137865194e-18,-0.9384737733635731,0.3591509254787046,0.8614065390137111,0.35915092547870464,500.0,57.8571428571429,[1.58381027]
-2.430984558619842e-19,0.9398822603927929,1.6652778378426476e-18,0.9398822603927929,-7.097606702399003e-19,0.02560161701098051,1.6652778378426476e-18,0.02560161701098051,8.178526622213897e-18,0.9402308791965105,8.084190585112298e-18,-0.9402308791965106,0.3597612882375027,0.8608969920794156,0.35976128823750275,500.0,57.8571428571429,[1.58381027]
5.382894379801079e-19,0.9406033278745687,2.48760677760911e-18,0.9406033278745687,-7.51000586859344e-19,0.025296578560357687,2.48760677760911e-18,0.025296578560357687,9.433088296215923e-18,0.9409434293811577,9.291619626341853e-18,-0.9409434293811576,0.35997124145505166,0.8607214477696127,0.35997124145505166,500.0,57.8571428571429,[1.58381027]
1.3153362879675216e-18,0.9402971404434466,3.325106054713431e-18,0.9402971404434466,-8.161162446795185e-19,0.025562470159683527,3.325106054713431e-18,0.025562470159683527,1.0665944750944557e-17,0.9406445408371789,1.048109238536763e-17,-0.9406445408371789,0.35979392336427235,0.8608697145447086,0.35979392336427235,500.0,57.8571428571429,[1.58381027]
2.0793600063909005e-18,0.9387968657226569,4.182591514681892e-18,0.9387968657226569,-9.116192094824407e-19,0.02649436244186432,4.182591514681892e-18,0.02649436244186432,1.1861902332908425e-17,0.9391706481422242,1.1614491086158396e-17,-0.9391706481422245,0.35916351863491336,0.8613960376990231,0.3591635186349134,500.0,57.8571428571429,[1.58381027]
2.7956322424128183e-18,0.9356312140274282,5.053560070333757e-18,0.9356312140274282,-1.0613852224688417e-18,0.02835427022153409,5.053560070333757e-18,0.02835427022153409,1.3012278954398174e-17,0.9360607529974937,1.2699766761582254e-17,-0.9360607529974939,0.35789486108374957,0.8624514692547559,0.3578948610837497,500.0,57.8571428571429,[1.58381027]
3.485858215306666e-18,0.9296716188241614,5.9696432633894165e-18,0.9296716188241614,-1.2806079371300953e-18,0.03175300194357463,5.9696432633894165e-18,0.03175300194357463,1.4073664176867014e-17,0.9302137238181157,1.3655586834585557e-17,-0.930213723818116,0.3555466883501308,0.8643917542448621,0.3555466883501308,500.0,57.8571428571429,[1.58726248]
4.123991661944375e-18,0.9178913493409119,6.949218462120386e-18,0.9178913493409119,-1.662619796341785e-18,0.03824183341036064,6.949218462120386e-18,0.03824183341036064,1.496791921093074e-17,0.9186876329947331,1.4376531402738307e-17,-0.9186876329947332,0.3509545541085908,0.8681369718546035,0.3509545541085908,500.0,57.8571428571429,[1.60118531]
4.545072915848169e-18,0.889246264839769,8.145553341841155e-18,0.889246264839769,-2.5612158742601907e-18,0.052656919195585426,8.145553341841155e-18,0.052656919195585426,1.537380681134316e-17,0.8908039462590248,1.4407406530898495e-17,-0.8908039462590248,0.3401540431199726,0.876692907407304,0.3401540431199726,500.0,57.8571428571429,[1.5999458]
3.854846942954321e-18,0.7620707953409044,1.0068983392116063e-17,0.7620707953409044,-7.25605480309476e-18,0.08278194298169621,1.0068983392116063e-17,0.08278194298169621,1.352886317310489e-17,0.7665538123284912,1.1616837347773704e-17,-0.766553812328491,0.3093456940558662,0.8992277148410124,0.3093456940558662,500.0,57.8571428571429,[1.59819436]
4.46693412646396e-18,0.7675492130229047,1.0099421570706483e-17,0.7675492130229047,-7.262566368876778e-18,0.07846534061748485,1.0099421570706483e-17,0.07846534061748485,1.3841418330641727e-17,0.7715494825935002,1.157353185749711e-17,-0.7715494825935005,0.16445553023801657,0.9725784066841425,0.16445553023801662,500.0,70.71428571428567,[1.61447011]
5.947230080909256e-18,0.8960180970529824,8.622127041113835e-18,0.8960180970529824,-2.567727440042208e-18,0.04742560696689906,8.622127041113835e-18,0.04742560696689906,1.6806351283386997e-17,0.8972723212284145,1.584038218960426e-17,-0.8972723212284146,0.19793908981277114,0.9600209546922315,0.1979390898127712,500.0,70.71428571428567,[1.60838129]
6.3162188085569116e-18,0.9237725264504947,7.860265366016516e-18,0.9237725264504947,-1.6561082305597675e-18,0.03383610113643748,7.860265366016516e-18,0.03383610113643748,1.7487895168571488e-17,0.9243919960519156,1.6896253071226823e-17,-0.9243919960519156,0.2089558343871605,0.9553402108940725,0.2089558343871605,500.0,70.71428571428567,[1.62170581]
6.5245889135814695e-18,0.9355762541358431,7.280931019246374e-18,0.9355762541358431,-1.2675848055660605e-18,0.02744347531673068,7.280931019246374e-18,0.02744347531673068,1.765719587890394e-17,0.9359786705050047,1.7224777619595293e-17,-0.9359786705050044,0.21387280137637074,0.9531615024028441,0.2138728013763708,500.0,70.71428571428567,[1.61969924]
6.667843360785853e-18,0.941983097359672,6.767314310987192e-18,0.941983097359672,-1.0461915689774677e-18,0.023802763222597858,6.767314310987192e-18,0.023802763222597858,1.7650684313121924e-17,0.9422837827578021,1.7304921393696515e-17,-0.9422837827578021,0.21660837386308174,0.9519252201432541,0.21660837386308182,500.0,70.71428571428567,[1.61969924]
6.7633463255887754e-18,0.9458403065026639,6.290698218708119e-18,0.9458403065026639,-8.920845121363884e-19,0.021505784803522943,6.290698218708119e-18,0.021505784803522943,1.7555181348319002e-17,0.9460847658561402,1.726226955313902e-17,-0.9460847658561404,0.2183107176912989,0.9511471290406232,0.2183107176912989,500.0,70.71428571428567,[1.61969924]
6.850167202682341e-18,0.9482144374979198,5.8288179354513715e-18,0.9482144374979198,-7.965815473334662e-19,0.019991096071586473,5.8288179354513715e-18,0.019991096071586473,1.740975637918728e-17,0.9484251490769527,1.7159025702190466e-17,-0.9484251490769526,0.2194225323691133,0.9506353162898223,0.2194225323691133,500.0,70.71428571428567,[1.61969924]
6.923964948211872e-18,0.9495664162057554,5.385421002982122e-18,0.9495664162057554,-7.292953675859526e-19,0.01900484302137856,5.385421002982122e-18,0.01900484302137856,1.7216579927654095e-17,0.9497565808374845,1.6996804770985354e-17,-0.9497565808374847,0.22014045282077663,0.950303300038323,0.22014045282077663,500.0,70.71428571428567,[1.61969924]
7.00210373759608e-18,0.9500861051321096,4.943957191604409e-18,0.9500861051321096,-6.837144071118306e-19,0.01843348001482948,4.943957191604409e-18,0.01843348001482948,1.6993016169138163e-17,0.9502649106173282,1.67971914909986e-17,-0.950264910617328,0.22055171522948688,0.9501125627096312,0.22055171522948686,500.0,70.71428571428567,[1.61969924]
7.058537307706898e-18,0.9497971826376946,4.515533468993288e-18,0.9497971826376946,-6.620091878384391e-19,0.01824724104338802,4.515533468993288e-18,0.01824724104338802,1.6736894581712144e-17,0.9499724469436982,1.656049463214458e-17,-0.9499724469436981,0.22067943309464613,0.9500532488329542,0.22067943309464613,500.0,70.71428571428567,[1.61969924]
7.127994009381751e-18,0.9485647024943301,4.0926377944158585e-18,0.9485647024943301,-6.706912755477957e-19,0.01849066300597771,4.0926377944158585e-18,0.01849066300597771,1.6448215165376038e-17,0.9487449074627796,1.6286397128846466e-17,-0.9487449074627794,0.2204903305489917,0.9501410570377392,0.22049033054899167,500.0,70.71428571428567,[1.61969924]
7.167063404073856e-18,0.9460112153470386,3.689599004033071e-18,0.9460112153470386,-7.292953675859526e-19,0.019312787676988158,3.689599004033071e-18,0.019312787676988158,1.6096590613147096e-17,0.946208329772169,1.5941560458984283e-17,-0.946208329772169,0.2198712652809935,0.9504279317273193,0.2198712652809935,500.0,70.71428571428567,[1.61969924]
7.195280189129264e-18,0.9412299686341717,3.3085706625697076e-18,0.9412299686341717,-8.682087709356578e-19,0.021074561779824447,3.3085706625697076e-18,0.021074561779824447,1.5649463096115233e-17,0.941465873523462,1.5498792305253472e-17,-0.941465873523462,0.2185438149988378,0.9510400632210546,0.21854381499883785,500.0,70.71428571428567,[1.61969924]
7.171404447928534e-18,0.931759344293088,2.970783187627553e-18,0.931759344293088,-1.169911318835799e-18,0.02470056211108873,2.970783187627553e-18,0.02470056211108873,1.499613599598615e-17,0.9320866877313981,1.4830326620232414e-17,-0.9320866877313982,0.21577355888205982,0.9523043329601836,0.2157735588820599,500.0,70.71428571428567,[1.61969924]
7.02815000072415e-18,0.9083113417186266,2.7581059531534313e-18,0.9083113417186266,-1.981686519660639e-18,0.03304871784182147,2.7581059531534313e-18,0.03304871784182147,1.3793666848240266e-17,0.9089123782002752,1.3584938658206905e-17,-0.9089123782002753,0.20912002189159842,0.9552683564779664,0.20912002189159842,500.0,70.71428571428567,[1.62170581]
6.008004694874752e-18,0.7917320127390295,2.951129789863599e-18,0.7917320127390295,-6.6005571810383396e-18,0.049339372332848803,2.951129789863599e-18,0.049339372332848803,1.0069051220926292e-17,0.7932678952648939,9.676685463535434e-18,-0.7932678952648939,0.1915780666029473,0.9625984047323959,0.1915780666029473,500.0,70.71428571428567,[1.62233143]
6.4334269926332254e-18,0.7947966596845053,1.7671948645128825e-18,0.7947966596845053,-6.5701698740555915e-18,0.043084829486714396,1.7671948645128825e-18,0.043084829486714396,9.786883370372203e-18,0.7959635875952783,9.604190285264762e-18,-0.7959635875952784,0.04102035064513162,0.9983159127580313,0.04102035064513161,500.0,83.57142857142856,[1.67174003]
8.037442696936853e-18,0.9121482694366864,-2.3200844538948576e-19,0.9121482694366864,-1.918741383767804e-18,0.025434456201596248,-2.3200844538948576e-19,0.025434456201596248,1.3205455405931357e-17,0.9125028093099834,1.3213987744560015e-17,-0.9125028093099831,0.059554615165663696,0.9964469356794367,0.05955461516566369,500.0,83.57142857142856,[1.66796997]
8.781931718014179e-18,0.9351556976145401,-1.8471311173681694e-18,0.9351556976145401,-1.0635557443961809e-18,0.018241724672812775,-1.8471311173681694e-18,0.018241724672812775,1.4093198874213066e-17,0.9353335978676145,1.4162826643184793e-17,-0.9353335978676145,0.06545185649550603,0.9957068388650263,0.06545185649550604,500.0,83.57142857142856,[1.66463024]
9.411383076942531e-18,0.9446927843612252,-3.368717860040582e-18,0.9446927843612252,-7.032491044578829e-19,0.01471717195101023,-3.368717860040582e-18,0.01471717195101023,1.441443611945926e-17,0.9448074152833478,1.4518326338201757e-17,-0.9448074152833474,0.06821595917974613,0.995335705089682,0.06821595917974611,500.0,83.57142857142856,[1.66463024]
9.9974239973241e-18,0.9497755253697225,-4.864699226851415e-18,0.9497755253697225,-5.274368283434121e-19,0.012568096808486307,-4.864699226851415e-18,0.012568096808486307,1.4525132737753556e-17,0.9498586766718087,1.46532844972394e-17,-0.9498586766718085,0.06986662447788192,0.9951066825060183,0.06986662447788192,500.0,83.57142857142856,[1.66463024]
1.058129439577833e-17,0.9527659412396637,-6.340705009049706e-18,0.9527659412396637,-4.2325177583113325e-19,0.011076712644952445,-6.340705009049706e-18,0.011076712644952445,1.454032639124493e-17,0.9528303271565828,1.4687082116954378e-17,-0.9528303271565829,0.07099701618787246,0.9949466555473404,0.07099701618787246,500.0,83.57142857142856,[1.66463024]
1.1145630096886508e-17,0.9545363531149906,-7.806570384118708e-18,0.9545363531149906,-3.798413372843503e-19,0.009953431835149105,-7.806570384118708e-18,0.009953431835149105,1.4494745430770808e-17,0.9545882464305556,1.465695308221545e-17,-0.9545882464305556,0.07183993793016161,0.9948256362983322,0.0718399379301616,500.0,83.57142857142856,[1.66463024]
1.1712136319922024e-17,0.9554584329157582,-9.269281719512046e-18,0.9554584329157582,-3.4728350837426314e-19,0.009061031783037427,-9.269281719512046e-18,0.009061031783037427,1.4403583509822564e-17,0.9555013968209618,1.4579098789683635e-17,-0.9555013968209618,0.0725039406841935,0.9947292883847977,0.07250394068419348,500.0,83.57142857142856,[1.66463024]
1.2269960455248185e-17,0.9556798792315069,-1.072495581584409e-17,0.9556798792315069,-3.494540303016023e-19,0.00832829968269018,-1.072495581584409e-17,0.00832829968269018,1.4282034281891572e-17,0.9557161671456393,1.4468675324689447e-17,-0.9557161671456396,0.07304471044612638,0.9946501598811932,0.0730447104461264,500.0,83.57142857142856,[1.66463024]
1.2823443546719668e-17,0.9552091146075686,-1.2184835298410352e-17,0.9552091146075686,-3.6681820572031544e-19,0.007718136617982942,-1.2184835298410352e-17,0.007718136617982942,1.4121415659268475e-17,0.9552402955603525,1.4318286083903516e-17,-0.9552402955603525,0.07349090879448593,0.9945844220824703,0.07349090879448594,500.0,83.57142857142856,[1.66064133]
1.3359562462772437e-17,0.9539179838906068,-1.3635184833139393e-17,0.9539179838906068,-4.2759281968581154e-19,0.007215731882362148,-1.3635184833139393e-17,0.007215731882362148,1.3917386598098595e-17,0.9539452745186794,1.412361532229286e-17,-0.9539452745186793,0.07385358411020292,0.9945306914460481,0.07385358411020287,500.0,83.57142857142856,[1.65960943]
1.3889169813043186e-17,0.9514645529591942,-1.5079022802086414e-17,0.9514645529591942,-5.25266306416073e-19,0.006827606811487841,-1.5079022802086414e-17,0.006827606811487841,1.36569239668179e-17,0.9514890497281677,1.3873359202232749e-17,-0.9514890497281676,0.07412671497524517,0.9944900503544305,0.07412671497524514,500.0,83.57142857142856,[1.65960943]
1.4423118207168616e-17,0.9470334825498288,-1.652397994640222e-17,0.9470334825498288,-7.05419626385222e-19,0.006593247150247511,-1.652397994640222e-17,0.006593247150247511,1.3290105761097584e-17,0.9470564333652147,1.35202321921693e-17,-0.9470564333652147,0.07427711681722507,0.99446760622689,0.07427711681722504,500.0,83.57142857142856,[1.65960943]
1.4909315118892584e-17,0.938400340581191,-1.7963714272330366e-17,0.938400340581191,-1.0483620909048069e-18,0.006627066879304519,-1.7963714272330366e-17,0.006627066879304519,1.2712746928425372e-17,0.9384237407580422,1.2966592703533962e-17,-0.9384237407580425,0.07420673775863486,0.99447811446127,0.07420673775863484,500.0,83.57142857142856,[1.65960943]
1.5315202719305004e-17,0.9170008880118115,-1.9378148452042966e-17,0.9170008880118115,-1.9100592960584473e-18,0.0072415067102103905,-1.9378148452042966e-17,0.0072415067102103905,1.1542835609589571e-17,0.9170294804606257,1.1849135874300841e-17,-0.9170294804606257,0.07361967150158116,0.9945653764011687,0.07361967150158112,500.0,83.57142857142856,[1.65960943]
1.4941872947802672e-17,0.8039635382374145,-2.0790242537802653e-17,0.8039635382374145,-6.565828830200913e-18,0.006450732519643409,-2.0790242537802653e-17,0.006450732519643409,7.768297977946799e-18,0.8039894170729257,8.102380121796745e-18,-0.8039894170729258,0.07353056120702049,0.9945785605658115,0.07353056120702045,500.0,83.57142857142856,[1.66064133]
