stress_11,stress_12,stress_13,stress_21,stress_22,stress_23,stress_31,stress_32,stress_33,e1,e2,e3,anev1,anev2,anev3,temp,miss,velo
1.337692663819115e-17,0.793403135426412,-1.71346596820996e-17,0.793403135426412,-7.164892882146516e-18,-0.04376985021324112,-1.71346596820996e-17,-0.04376985021324112,9.604559528475715e-19,0.7946095488302108,-8.853477700478434e-19,-0.7946095488302107,0.19642383324142412,0.9606431988358065,0.19642383324142415,700.0,109.28571428571416,[1.64814786]
1.4062811567230318e-17,0.9100777718559216,-1.6197282481932564e-17,0.9100777718559216,-2.4830770848759814e-18,-0.02750528404773257,-1.6197282481932564e-17,-0.02750528404773257,4.3377880717872805e-18,0.9104933231368505,3.3709234172919416e-18,-0.9104933231368505,0.2132735536245365,0.9534300093078274,0.21327355362453654,700.0,109.28571428571416,[1.66002867]
1.388048772533383e-17,0.9336180054549006,-1.5669938918203217e-17,0.9336180054549006,-1.604015704303628e-18,-0.019193104714060782,-1.5669938918203217e-17,-0.019193104714060782,5.204911581759269e-18,0.933815268336383,4.565314913573456e-18,-0.9338152683363833,0.219775331571006,0.9504723074691386,0.21977533157100604,700.0,109.28571428571416,[1.65946581]
1.3557079958160299e-17,0.9431793316964046,-1.52710461638457e-17,0.9431793316964046,-1.2328564547286341e-18,-0.01560833921604646,-1.52710461638457e-17,-0.01560833921604646,5.512040434477758e-18,0.9433084712819871,5.008955949410748e-18,-0.9433084712819874,0.22246710386711568,0.9492190344667327,0.2224671038671157,700.0,109.28571428571416,[1.65946581]
1.3205455405931357e-17,0.9480501056632163,-1.4915733420060536e-17,0.9480501056632163,-1.0244863497040763e-18,-0.01389183788850829,-1.4915733420060536e-17,-0.01389183788850829,5.618396008917376e-18,0.9481518791881165,5.1835649730437185e-18,-0.9481518791881167,0.22373870631344803,0.948621095377058,0.2237387063134481,700.0,109.28571428571416,[1.66080623]
1.2836466678283703e-17,0.9506920273892575,-1.4581769794295062e-17,0.9506920273892575,-8.964255559910667e-19,-0.013118582995255782,-1.4581769794295062e-17,-0.013118582995255782,5.630333879517741e-18,0.9507825346320266,5.229328925927037e-18,-0.9507825346320266,0.22431140549994733,0.9483505610929307,0.22431140549994733,700.0,109.28571428571416,[1.66080623]
1.243926116558064e-17,0.9520118622260945,-1.4254690792767866e-17,0.9520118622260945,-8.2479833238887505e-19,-0.012927386055864805,-1.4254690792767866e-17,-0.012927386055864805,5.58258239711628e-18,0.9520996287833715,5.197561295701036e-18,-0.9520996287833717,0.22445887771226705,0.9482807729951607,0.22445887771226708,700.0,109.28571428571416,[1.66080623]
1.202903252131354e-17,0.9523870503894144,-1.3949715504774158e-17,0.9523870503894144,-7.705352842053963e-19,-0.013169028657859582,-1.3949715504774158e-17,-0.013169028657859582,5.491420476168036e-18,0.9524780926957014,5.107551712817113e-18,-0.9524780926957016,0.22429235859853533,0.9483595709163334,0.22429235859853533,700.0,109.28571428571416,[1.66080623]
1.162314492090112e-17,0.9519525220201598,-1.3650857527603012e-17,0.9519525220201598,-7.4665954300466575e-19,-0.013798821094675368,-1.3650857527603012e-17,-0.013798821094675368,5.370956509200713e-18,0.9520525256749997,4.976355287414113e-18,-0.9520525256749994,0.22384451621019405,0.9485711703004938,0.22384451621019408,700.0,109.28571428571416,[1.66080623]
1.1221598364343378e-17,0.9506845819452561,-1.3364611469833884e-17,0.9506845819452561,-7.488300649320049e-19,-0.014846385264374476,-1.3364611469833884e-17,-0.014846385264374476,5.216849452359634e-18,0.9508004993182558,4.801613943038145e-18,-0.9508004993182555,0.22309248607930365,0.948925437170862,0.22309248607930365,700.0,109.28571428571416,[1.66080623]
1.0798346588512244e-17,0.9483933539669532,-1.3080396037070997e-17,0.9483933539669532,-7.727058061327355e-19,-0.01642512559742315,-1.3080396037070997e-17,-0.01642512559742315,5.029099305644798e-18,0.9485355758217918,4.578790348702232e-18,-0.948535575821792,0.22195019400680555,0.9494610169778867,0.22195019400680555,700.0,109.28571428571416,[1.65946581]
1.0357730637262398e-17,0.9446179061399278,-1.2821417161014066e-17,0.9446179061399278,-8.660382490083188e-19,-0.018788756524097422,-1.2821417161014066e-17,-0.018788756524097422,4.788171371710153e-18,0.9448047448927759,4.280421489752771e-18,-0.9448047448927759,0.2202236800579483,0.9502647323159313,0.2202236800579483,700.0,109.28571428571416,[1.65946581]
9.878045291320447e-18,0.9382916935201152,-1.2594894370651879e-17,0.9382916935201152,-1.0114632181400414e-18,-0.02249858711788008,-1.2594894370651879e-17,-0.02249858711788008,4.456081516827264e-18,0.9385613930644852,3.856840701507254e-18,-0.9385613930644853,0.21747634297215843,0.9515293376953293,0.21747634297215848,700.0,109.28571428571416,[1.65946581]
9.344096897195018e-18,0.9265675227704163,-1.2436436731529683e-17,0.9265675227704163,-1.337041507240913e-18,-0.02896268055436169,-1.2436436731529683e-17,-0.02896268055436169,3.93298573233853e-18,0.9270200705043014,3.167548885004138e-18,-0.9270200705043015,0.21257630422306034,0.9537413851593782,0.21257630422306042,700.0,109.28571428571416,[1.66002867]
8.640847792737135e-18,0.8988918039421289,-1.2457995694931017e-17,0.8988918039421289,-2.1661808834844663e-18,-0.04262596403658657,-1.2457995694931017e-17,-0.04262596403658657,2.9139256874528017e-18,0.8999019102126538,1.734618650302502e-18,-0.8999019102126535,0.20166620976569288,0.958468298733703,0.20166620976569283,700.0,109.28571428571416,[1.66418946]
6.8393145930456455e-18,0.7705017437873705,-1.3193182630580485e-17,0.7705017437873705,-6.798074676426202e-18,-0.07374209502988308,-1.3193182630580485e-17,-0.07374209502988308,-3.9177920788471565e-19,0.774022502101053,-2.8203454090884765e-18,-0.7740225021010532,0.16889371931592295,0.9710560350212898,0.16889371931592306,700.0,109.28571428571416,[1.65812069]
1.3761109019330178e-17,0.7963862277096596,-1.6529253636397552e-17,0.7963862277096596,-7.169233926001195e-18,-0.03743423857880635,-1.6529253636397552e-17,-0.03743423857880635,9.51773865138215e-19,0.7972655429049954,-5.79177687480807e-19,-0.7972655429049954,0.046091294253413295,0.9978733312340253,0.046091294253413316,700.0,96.42857142857144,[1.64176047]
1.4935361382020654e-17,0.9136368084447033,-1.4938176277645172e-17,0.9136368084447033,-2.5156349137860686e-18,-0.019742414550620892,-1.4938176277645172e-17,-0.019742414550620892,4.575460222830917e-18,0.9138500865444572,3.934035823509354e-18,-0.9138500865444574,0.06397239222560952,0.9958991244427647,0.06397239222560955,700.0,96.42857142857144,[1.63878586]
1.525225758341217e-17,0.9365445989504105,-1.3730942155980676e-17,0.9365445989504105,-1.6604492744144458e-18,-0.012505284834248901,-1.3730942155980676e-17,-0.012505284834248901,5.6802558838465415e-18,0.936628084125162,5.3156632578662875e-18,-0.9366280841251619,0.06978228874128063,0.9951185177435187,0.06978228874128066,700.0,96.42857142857144,[1.63949377]
1.5460627688436727e-17,0.9459818248072169,-1.2621618921882242e-17,0.9459818248072169,-1.3023131564034868e-18,-0.008938284176975392,-1.2621618921882242e-17,-0.008938284176975392,6.203351668335276e-18,0.9460240513801011,5.9654272220422596e-18,-0.9460240513801013,0.07252838380079568,0.9947257245524966,0.07252838380079571,700.0,96.42857142857144,[1.63949377]
1.5638610486478537e-17,0.9509641278844454,-1.1538308036506762e-17,0.9509641278844454,-1.1178187925796595e-18,-0.0067500023940493415,-1.1538308036506762e-17,-0.0067500023940493415,6.5245889135814695e-18,0.9509880835506526,6.361274021663151e-18,-0.9509880835506527,0.0741814427621311,0.9944818887739774,0.07418144276213114,700.0,96.42857142857144,[1.63447297]
1.5775353367900903e-17,0.9538534668093247,-1.0471309979991442e-17,0.9538534668093247,-1.0071221742853631e-18,-0.005223105693549812,-1.0471309979991442e-17,-0.005223105693549812,6.745982150170062e-18,0.9538677670291901,6.6315951768213696e-18,-0.9538677670291901,0.07532208569941183,0.9943103976182595,0.07532208569941184,700.0,96.42857142857144,[1.63447297]
1.5935971990524e-17,0.9555221785973711,-9.421218254425787e-18,0.9555221785973711,-9.572001699565628e-19,-0.004068232139626966,-9.421218254425787e-18,-0.004068232139626966,6.908771294720498e-18,0.9555308390126446,6.828707530606712e-18,-0.9555308390126445,0.07617850123685949,0.9941798991624261,0.0761785012368595,700.0,96.42857142857144,[1.63447297]
1.606403278423701e-17,0.9563419792555709,-8.367548559120533e-18,0.9563419792555709,-9.203012971917973e-19,-0.0031482990660996794,-8.367548559120533e-18,-0.0031482990660996794,7.023808956869472e-18,0.9563471613768049,6.968822052761057e-18,-0.9563471613768046,0.07685724937683582,0.9940754128517886,0.07685724937683582,700.0,96.42857142857144,[1.63447297]
1.6209457753368732e-17,0.9564606241784741,-7.320458258407527e-18,0.9564606241784741,-9.224718191191365e-19,-0.0023921916765542485,-7.320458258407527e-18,-0.0023921916765542485,7.10628879010836e-18,0.9564636157141023,7.069727433652505e-18,-0.9564636157141022,0.07741318245505012,0.9939891339267056,0.07741318245505012,700.0,96.42857142857144,[1.63447297]
1.6335348025154402e-17,0.9558865994917041,-6.278353375246378e-18,0.9558865994917041,-9.46347560319867e-19,-0.0017628836886737279,-6.278353375246378e-18,-0.0017628836886737279,7.15404027250982e-18,0.9558882250800629,7.130914143084138e-18,-0.9558882250800628,0.07787483345841331,0.9939170089236067,0.07787483345841328,700.0,96.42857142857144,[1.63447297]
1.6459067775012734e-17,0.9544918177434655,-5.240759107965479e-18,0.9544918177434655,-1.0027811304306848e-18,-0.0012456188210383191,-5.240759107965479e-18,-0.0012456188210383191,7.162722360219177e-18,0.9544926305139669,7.149059600908075e-18,-0.9544926305139668,0.07825379637950683,0.9938574780643297,0.07825379637950682,700.0,96.42857142857144,[1.63439875]
1.6563252827525013e-17,0.9519344152882617,-4.198111594322495e-18,0.9519344152882617,-1.0917725294515897e-18,-0.0008469580671330404,-4.198111594322495e-18,-0.0008469580671330404,7.10411826818102e-18,0.9519347920672783,7.0966553600992e-18,-0.9519347920672782,0.07854563579042309,0.993811433923235,0.0785456357904231,700.0,96.42857142857144,[1.63415975]
1.6652244226545918e-17,0.9473991253493611,-3.1740830890874673e-18,0.9473991253493611,-1.2719258494207387e-18,-0.0006064138564982938,-3.1740830890874673e-18,-0.0006064138564982938,6.947840689412602e-18,0.9473993194268718,6.943781306943652e-18,-0.9473993194268717,0.07872106320816356,0.9937836728457319,0.07872106320816354,700.0,96.42857142857144,[1.6326542]
1.6732553537857466e-17,0.9386615898586845,-2.142678200739997e-18,0.9386615898586845,-1.6148683139403238e-18,-0.0006384148862482877,-2.142678200739997e-18,-0.0006384148862482877,6.5831930056196264e-18,0.9386618069622312,6.5802831166425036e-18,-0.9386618069622309,0.07869291929105145,0.9937881307939356,0.07869291929105143,700.0,96.42857142857144,[1.6326542]
1.6708677796656735e-17,0.9171576449768737,-1.1304010368772036e-18,0.9171576449768737,-2.459201343675251e-18,-0.0012554052197338674,-1.1304010368772036e-18,-0.0012554052197338674,5.617310747953706e-18,0.9171585041756908,5.614236864323924e-18,-0.9171585041756907,0.0782089652772138,0.9938645357897299,0.07820896527721378,700.0,96.42857142857144,[1.63439875]
1.5905584683541252e-17,0.8040157802299364,-1.3684462463771013e-19,0.8040157802299364,-7.125823487454412e-18,-0.00047154311094671747,-1.3684462463771013e-19,-0.00047154311094671747,2.042461133626135e-18,0.8040159185063805,2.0423054124552327e-18,-0.8040159185063805,0.07875872690616814,0.9937777044551962,0.07875872690616814,700.0,96.42857142857144,[1.6326542]
6.018857304511448e-18,0.7650885451604323,-1.2443309697691204e-17,0.7650885451604323,-6.830632505336289e-18,-0.07812051045406855,-1.2443309697691204e-17,-0.07812051045406855,-6.554976220564217e-19,0.769066509535626,-3.1873282414425294e-18,-0.7690665095356257,0.31344015066218106,0.8963874965134991,0.3134401506621811,700.0,122.14285714285735,[1.65779334]
6.698230667768601e-18,0.8923345237980764,-9.822294248612562e-18,0.8923345237980764,-2.2540870215417017e-18,-0.04805186029045783,-9.822294248612562e-18,-0.04805186029045783,1.6409145770683935e-18,0.8936273740431825,6.118079964963158e-19,-0.8936273740431823,0.3434647906879979,0.8741074734352174,0.3434647906879979,700.0,122.14285714285735,[1.65830582]
6.246762106882059e-18,0.9210479303981682,-7.929353248535747e-18,0.9210479303981682,-1.4759549105906183e-18,-0.03369450567567346,-7.929353248535747e-18,-0.03369450567567346,1.6788987107968286e-18,0.9216640438920665,1.1182987766972955e-18,-0.9216640438920662,0.35406363495159276,0.8656083899834442,0.35406363495159265,700.0,122.14285714285735,[1.64162072]
5.563047699770228e-18,0.9328952053787285,-6.243425777278903e-18,0.9328952053787285,-1.2068101916005644e-18,-0.02726507694470136,-6.243425777278903e-18,-0.02726507694470136,1.2371974985833124e-18,0.933293549018432,8.757652365400795e-19,-0.9332935490184318,0.35855188769742635,0.8619054981012849,0.35855188769742624,700.0,122.14285714285735,[1.64162072]
4.842434419893632e-18,0.9389207060768686,-4.63007513296746e-18,0.9389207060768686,-1.111307226797642e-18,-0.023927416079914263,-4.63007513296746e-18,-0.023927416079914263,6.218545321826649e-19,0.9392255392290748,3.863393800302425e-19,-0.9392255392290751,0.36082847312321015,0.8600032709049109,0.36082847312321026,700.0,122.14285714285735,[1.64162072]
4.08492226725227e-18,0.9421512300946445,-3.057290356473808e-18,0.9421512300946445,-1.0678967882508592e-18,-0.022130169714049408,-3.057290356473808e-18,-0.022130169714049408,-7.488300649320049e-20,0.9424111017917947,-2.1584944402074425e-19,-0.9424111017917945,0.362040203357446,0.8589841571913874,0.362040203357446,700.0,122.14285714285735,[1.64044166]
3.2774881102821088e-18,0.9437153722033557,-1.5053926142301555e-18,0.9437153722033557,-1.111307226797642e-18,-0.021262431901345833,-1.5053926142301555e-18,-0.021262431901345833,-8.291393762435533e-19,0.9439548690182588,-8.946224409124707e-19,-0.9439548690182588,0.36262186860169343,0.8584933085491304,0.3626218686016935,700.0,122.14285714285735,[1.64044166]
2.5004412602946946e-18,0.9440844373835723,3.2803708347168557e-20,0.9440844373835723,-1.1633997530537815e-18,-0.021062083456936935,3.2803708347168557e-20,-0.021062083456936935,-1.6126977920129846e-18,0.9443193507862703,-1.6119951417944787e-18,-0.94431935078627,0.3627559631274551,0.85837999885304,0.3627559631274551,700.0,122.14285714285735,[1.64044166]
1.677813449833159e-18,0.9434252683658397,1.5577140627208192e-18,0.9434252683658397,-1.2393680205106516e-18,-0.0214339471480424,1.5577140627208192e-18,-0.0214339471480424,-2.4147056441647984e-18,0.9436687189270935,-2.3411740758633784e-18,-0.9436687189270935,0.3625073536664432,0.8585900285208911,0.3625073536664431,700.0,122.14285714285735,[1.64044166]
8.421625078075882e-19,0.9417036565646545,3.061792493752781e-18,0.9417036565646545,-1.337041507240913e-18,-0.02239442960288114,3.061792493752781e-18,-0.02239442960288114,-3.2471008032993607e-18,0.9419698972177821,-3.0986313113336326e-18,-0.9419698972177819,0.3618630599265435,0.8591334306853606,0.36186305992654344,700.0,122.14285714285735,[1.64044166]
1.0852609636695723e-20,0.9386734214155441,4.5567733856127314e-18,0.9386734214155441,-1.4726991276996096e-18,-0.024076782021601364,4.5567733856127314e-18,-0.024076782021601364,-4.120735879053366e-18,0.9389821529211719,-3.8840786483067605e-18,-0.9389821529211723,0.3607276856061067,0.86008782904685,0.3607276856061067,700.0,122.14285714285735,[1.64162072]
-8.747203367176753e-19,0.933742661680367,6.019823865057216e-18,0.933742661680367,-1.6528524476687588e-18,-0.026801072414916825,6.019823865057216e-18,-0.026801072414916825,-5.025843522753789e-18,0.9341272160281633,-4.680611343721641e-18,-0.9341272160281631,0.3588705958741987,0.8616401748025653,0.3588705958741987,700.0,122.14285714285735,[1.64162072]
-1.7819985023454377e-18,0.9255519244102522,7.44365233498658e-18,0.9255519244102522,-1.9176561228041343e-18,-0.031289269841899,7.44365233498658e-18,-0.031289269841899,-6.005834172947413e-18,0.9260806569553005,-5.504922981242551e-18,-0.9260806569553004,0.355759739510165,0.8642164170433926,0.3557597395101649,700.0,122.14285714285735,[1.64162072]
-2.7869501547034617e-18,0.9105173224373768,8.780456441391691e-18,0.9105173224373768,-2.3430784205626066e-18,-0.03936093783665585,8.780456441391691e-18,-0.03936093783665585,-7.143187662873125e-18,0.9113676963146718,-6.376678687480777e-18,-0.9113676963146717,0.34999423404042146,0.8689120049101159,0.3499942340404215,700.0,122.14285714285735,[1.65554355]
-4.063217047978879e-18,0.8757658970342174,9.879334038714805e-18,0.8757658970342174,-3.2677207616090826e-18,-0.056732930657464126,9.879334038714805e-18,-0.056732930657464126,-8.683172970320248e-18,0.8776015792084312,-7.346984675585289e-18,-0.8776015792084308,0.3367117857739714,0.8793465452492587,0.33671178577397126,700.0,122.14285714285735,[1.65830582]
-6.8241209395542715e-18,0.731527069316301,1.0086398439142448e-17,0.731527069316301,-8.014652216699792e-18,-0.09509213500567609,1.0086398439142448e-17,-0.09509213500567609,-1.2136473356716827e-17,0.7376817520329715,-9.892520463120929e-18,-0.7376817520329711,0.29588511791977584,0.9082422551209564,0.2958851179197759,700.0,122.14285714285735,[1.64009383]
-7.770468499874138e-18,0.7247592376715704,1.0552331493810398e-17,0.7247592376715704,-7.987520692608052e-18,-0.0966770182410475,1.0552331493810398e-17,-0.0966770182410475,-1.233182033017735e-17,0.7311787732464993,-9.35446952615426e-18,-0.731178773246499,0.4294997628567527,0.7943927916415066,0.4294997628567528,700.0,135.00000000000023,[1.61060346]
-6.290172545428842e-18,0.8675314156301845,1.1425305238664668e-17,0.8675314156301845,-3.190667233188543e-18,-0.058740280196464954,1.1425305238664668e-17,-0.058740280196464954,-9.8726189865021e-18,0.869517784535125,-8.272762275041245e-18,-0.8695177845351252,0.46508027197289115,0.7532600356073877,0.46508027197289115,700.0,135.00000000000023,[1.65628831]
-6.318389330484251e-18,0.9035374480699013,1.1394036157148938e-17,0.9035374480699013,-2.1987387123945535e-18,-0.04116876164897455,1.1394036157148938e-17,-0.04116876164897455,-9.295260153829887e-18,0.904474868086659,-8.230210296923061e-18,-0.9044748680866592,0.4767234098196661,0.7385591249587408,0.47672340981966616,700.0,135.00000000000023,[1.65407693]
-6.637456053803105e-18,0.9186864046007795,1.1118261171958966e-17,0.9186864046007795,-1.6951776252518721e-18,-0.03315753145996377,1.1118261171958966e-17,-0.03315753145996377,-9.094486875551016e-18,0.9192845761192914,-8.293660520479295e-18,-0.9192845761192912,0.4816402320590593,0.7321511959453394,0.48164023205905926,700.0,135.00000000000023,[1.65407693]
-7.069389917343594e-18,0.9264631414423115,1.0752070382733272e-17,0.9264631414423115,-1.3891340334970526e-18,-0.028850130442675686,1.0752070382733272e-17,-0.028850130442675686,-9.03479752254919e-18,0.9269122301910339,-8.365168690576486e-18,-0.9269122301910337,0.4841952569849274,0.7287728769833578,0.4841952569849274,700.0,135.00000000000023,[1.65407693]
-7.555586829067562e-18,0.9306755063707564,1.0345860595472262e-17,0.9306755063707564,-1.1330124460710335e-18,-0.02637581207346167,1.0345860595472262e-17,-0.02637581207346167,-9.039138566403868e-18,0.9310491832449018,-8.456021500591874e-18,-0.9310491832449016,0.48563476053199695,0.7268547026236124,0.48563476053199695,700.0,135.00000000000023,[1.65407693]
-8.083023657410975e-18,0.9327603434619054,9.912366669296497e-18,0.9327603434619054,-9.420065164651888e-19,-0.024994847297676856,9.912366669296497e-18,-0.024994847297676856,-9.076037439168633e-18,0.9330951723841497,-8.543373922520334e-18,-0.9330951723841497,0.4864270671580061,0.7257943349683306,0.4864270671580061,700.0,135.00000000000023,[1.65407693]
-8.634336226955117e-18,0.9333225096470277,9.452979094815679e-18,0.9333225096470277,-7.727058061327355e-19,-0.024384106299006718,9.452979094815679e-18,-0.024384106299006718,-9.141153096988808e-18,0.9336409864898969,-8.645347604690659e-18,-0.9336409864898969,0.48677083402543003,0.7253332408516615,0.48677083402543003,700.0,135.00000000000023,[1.65407693]
-9.176966708789903e-18,0.9325794834739576,8.980958404429644e-18,0.9325794834739576,-6.424744904923868e-19,-0.024416782736823794,8.980958404429644e-18,-0.024416782736823794,-9.232315017937052e-18,0.9328990686434255,-8.761459689542446e-18,-0.9328990686434255,0.48674220570170645,0.7253716636161598,0.4867422057017064,700.0,135.00000000000023,[1.65407693]
-9.760837107244133e-18,0.9304932858033007,8.502171790223232e-18,0.9304932858033007,-5.165842187067164e-19,-0.02509284223086117,8.502171790223232e-18,-0.02509284223086117,-9.33650007044933e-18,0.9308315667489183,-8.878652049220496e-18,-0.930831566748918,0.4863395677129334,0.7259115991314603,0.4863395677129333,700.0,135.00000000000023,[1.65407693]
-1.0375094812681111e-17,0.9267583581634751,7.995694064240689e-18,0.9267583581634751,-4.341043854678289e-19,-0.02653902351245741,7.995694064240689e-18,-0.02653902351245741,-9.46347560319867e-18,0.9271382713462184,-9.011265188647047e-18,-0.9271382713462186,0.4854827820578957,0.7270577258035646,0.48548278205789586,700.0,135.00000000000023,[1.65407693]
-1.1026251390882855e-17,0.9206359680745664,7.464696223360236e-18,0.9206359680745664,-3.9937603463040266e-19,-0.029078392908656134,7.464696223360236e-18,-0.029078392908656134,-9.624094225821767e-18,0.9210950757911714,-9.151870031741335e-18,-0.9210950757911718,0.48396609568242066,0.7290772499946955,0.4839660956824208,700.0,135.00000000000023,[1.65407693]
-1.172190366859505e-17,0.910433008756305,6.896901252930362e-18,0.910433008756305,-4.384454293225072e-19,-0.03345062610985275,6.896901252930362e-18,-0.03345062610985275,-9.840061157592012e-18,0.911047313711093,-9.325262967938008e-18,-0.911047313711093,0.4813045214271713,0.7325925984525936,0.4813045214271713,700.0,135.00000000000023,[1.65407693]
-1.2573833525075666e-17,0.8917232643760284,6.2295335890838045e-18,0.8917232643760284,-6.489860562744042e-19,-0.041526443861315224,6.2295335890838045e-18,-0.041526443861315224,-1.0155872098019858e-17,0.8926896581506968,-9.591139550967348e-18,-0.8926896581506969,0.4761995463664225,0.7392347286760999,0.4761995463664225,700.0,135.00000000000023,[1.65407693]
-1.3799093153058613e-17,0.8489921800631501,5.3205597032003076e-18,0.8489921800631501,-1.3587467265143045e-18,-0.059162380277518925,5.3205597032003076e-18,-0.059162380277518925,-1.0782067674057201e-17,0.8510510613638185,-1.008506285322367e-17,-0.8510510613638188,0.4640319691981369,0.7545519618450398,0.4640319691981369,700.0,135.00000000000023,[1.65628831]
-1.690185424818992e-17,0.6873354135398596,3.510140929368773e-18,0.6873354135398596,-5.879943901161743e-18,-0.09716387109856081,3.510140929368773e-18,-0.09716387109856081,-1.290755127140406e-17,0.6941691354078394,-1.2218136383636744e-17,-0.6941691354078396,0.425092036175422,0.7991204674893939,0.425092036175422,700.0,135.00000000000023,[1.59026854]
-1.707983704623173e-17,0.6805620305457039,2.9911827023040293e-18,0.6805620305457039,-5.884284945016421e-18,-0.09563808362856782,2.9911827023040293e-18,-0.09563808362856782,-1.2441974317989813e-17,0.687249096369458,-1.1666665839448185e-17,-0.6872490963694579,0.540545968427663,0.6446860569557867,0.540545968427663,700.0,147.8571428571427,[1.57500472]
-1.3694908100546335e-17,0.8407383854814876,3.6265351677223346e-18,0.8407383854814876,-1.3842503591605395e-18,-0.05734388174584826,3.6265351677223346e-18,-0.05734388174584826,-9.999051888769604e-18,0.8426917310592884,-9.515451625469834e-18,-0.8426917310592885,0.5717365184083768,0.5884171199383444,0.5717365184083768,700.0,147.8571428571427,[1.46051562]
-1.2239573148265437e-17,0.8847104778949049,3.3685822024201235e-18,0.8847104778949049,-6.717765365114653e-19,-0.04003602756571714,3.3685822024201235e-18,-0.04003602756571714,-9.017433347130476e-18,0.8856158948439635,-8.71939578109593e-18,-0.8856158948439634,0.5811052852557741,0.5697660001225161,0.5811052852557741,700.0,147.8571428571427,[1.45157587]
-1.1177102664832925e-17,0.903520818929058,2.8726518564282432e-18,0.903520818929058,-4.758869325691075e-19,-0.03202809947871638,2.8726518564282432e-18,-0.03202809947871638,-8.31038582929975e-18,0.9040883084049118,-8.113337557537623e-18,-0.9040883084049116,0.5850212787330578,0.5616940509379426,0.5850212787330576,700.0,147.8571428571427,[1.45157587]
-1.027525080402351e-17,0.9132957303130765,2.286407449615986e-18,0.9132957303130765,-4.422438426953507e-19,-0.027603305193273878,2.286407449615986e-18,-0.027603305193273878,-7.702097059162955e-18,0.9137127740519386,-7.5629830647202e-18,-0.913712774051939,0.587086023892989,0.557368819632962,0.5870860238929893,700.0,147.8571428571427,[1.45209063]
-9.454793515489314e-18,0.9186853031505405,1.6580752660564186e-18,0.9186853031505405,-4.916232165423163e-19,-0.024942052411585938,1.6580752660564186e-18,-0.024942052411585938,-7.138846619018447e-18,0.9190238256994772,-7.049846980365054e-18,-0.9190238256994772,0.5882938242177445,0.5548159629773853,0.5882938242177443,700.0,147.8571428571427,[1.45209063]
-8.671235099719883e-18,0.9214599632375533,1.0053586252194e-18,0.9214599632375533,-5.930951166454213e-19,-0.023322321889403055,1.0053586252194e-18,-0.023322321889403055,-6.594045615256322e-18,0.9217550621222896,-6.542758613473276e-18,-0.9217550621222895,0.5890140106760964,0.5532856318887368,0.5890140106760965,700.0,147.8571428571427,[1.45209063]
-7.894188249732469e-18,0.9223713325785308,3.3622741230687937e-19,0.9223713325785308,-7.162722360219177e-19,-0.022423990381246428,3.3622741230687937e-19,-0.022423990381246428,-6.074205613658596e-18,0.922643869815062,-6.0568598139310455e-18,-0.9226438698150623,0.58940429598397,0.5524537553056195,0.58940429598397,700.0,147.8571428571427,[1.45209063]
-7.18225705756523e-18,0.9216962052436309,-3.4646956265151096e-19,0.9216962052436309,-8.589840527444666e-19,-0.022113751821175816,-3.4646956265151096e-19,-0.022113751821175816,-5.561962438806558e-18,0.9219614486409495,-5.58052407524301e-18,-0.9219614486409496,0.5895287258899398,0.5521881587839135,0.5895287258899399,700.0,147.8571428571427,[1.45209063]
-6.470325865397991e-18,0.9194003132554038,-1.0453776232547155e-18,0.9194003132554038,-1.0407652641591198e-18,-0.022375147544149935,-1.0453776232547155e-18,-0.022375147544149935,-5.070339222264242e-18,0.919672541311176,-5.118459158644604e-18,-0.9196725413111762,0.5893943650585022,0.5524749450197448,0.5893943650585022,700.0,147.8571428571427,[1.45209063]
-5.7942082850318466e-18,0.915127405427799,-1.759682823779982e-18,0.915127405427799,-1.2589027178567039e-18,-0.02330330730590357,-1.759682823779982e-18,-0.02330330730590357,-4.589568615358621e-18,0.9154240614580811,-4.679948781366976e-18,-0.9154240614580811,0.5889536500431964,0.5534141272154088,0.5889536500431964,700.0,147.8571428571427,[1.45209063]
-5.165842187067164e-18,0.908005142205838,-2.4925731183080902e-18,0.908005142205838,-1.5128537833553838e-18,-0.025160309581181952,-2.4925731183080902e-18,-0.025160309581181952,-4.131045858208227e-18,0.9083536643017764,-4.270469632291025e-18,-0.9083536643017767,0.5880743147218397,0.5552811906852936,0.5880743147218397,700.0,147.8571428571427,[1.45209063]
-4.6242969661960476e-18,0.8960321121333312,-3.26538066765617e-18,0.8960321121333312,-1.8335483981197424e-18,-0.028557031099502608,-3.26538066765617e-18,-0.028557031099502608,-3.706708821413424e-18,0.8964870606982214,-3.911019999519584e-18,-0.8964870606982216,0.586436857483018,0.5587339477523136,0.5864368574830181,700.0,147.8571428571427,[1.45209063]
-4.26290506529408e-18,0.8740009867425603,-4.111409417646831e-18,0.8740009867425603,-2.3387373767079283e-18,-0.0350448219509812,-4.111409417646831e-18,-0.0350448219509812,-3.3518284862934745e-18,0.8747033007669203,-3.67860247703338e-18,-0.8747033007669203,0.5831711756531559,0.5655287435441562,0.583171175653156,700.0,147.8571428571427,[1.45157587]
-4.400733207680116e-18,0.8239566123565262,-5.16363775073471e-18,0.8239566123565262,-3.3469448119569614e-18,-0.049459924637909165,-5.16363775073471e-18,-0.049459924637909165,-3.190667233188543e-18,0.8254397513999615,-3.806219008533493e-18,-0.8254397513999617,0.5751067238304697,0.5818114062219543,0.5751067238304698,700.0,147.8571428571427,[1.45157587]
-6.769857891370793e-18,0.6467517415943078,-6.947060658094964e-18,0.6467517415943078,-8.143255640894636e-18,-0.07958616086967919,-6.947060658094964e-18,-0.07958616086967919,-4.169572622418497e-18,0.6516300885143695,-6.1316235821022016e-18,-0.6516300885143694,0.5482949272113387,0.6314628616067819,0.5482949272113387,700.0,147.8571428571427,[1.49346037]
-6.5831930056196264e-18,0.6413115137569778,-6.3716010321091745e-18,0.6413115137569778,-8.139457227521792e-18,-0.07526009020991266,-6.3716010321091745e-18,-0.07526009020991266,-4.117480096162357e-18,0.6457124273666031,-5.6008837186861955e-18,-0.6457124273666031,0.6356571767328757,0.4380409881917212,0.6356571767328755,700.0,160.7142857142859,[1.27416799]
-3.383843684721727e-18,0.8173109655338695,-3.832802579629783e-18,0.8173109655338695,-3.327952745092744e-18,-0.044200109243671876,-3.832802579629783e-18,-0.044200109243671876,-3.521671827107762e-18,0.8185052620716977,-3.903847336024665e-18,-0.8185052620716976,0.6538409152443291,0.38076779683281586,0.6538409152443291,700.0,160.7142857142859,[0.93900009]
-2.4602866046389204e-18,0.868332450712347,-2.0054944320511403e-18,0.868332450712347,-2.306179547797841e-18,-0.030591565727083617,-2.0054944320511403e-18,-0.030591565727083617,-4.02251976184127e-18,0.8688711577982928,-4.160779174554963e-18,-0.8688711577982926,0.6587898331652439,0.36330691080162647,0.6587898331652436,700.0,160.7142857142859,[0.93900009]
-2.0543990042265004e-18,0.8904260503156572,-3.6040838315364203e-19,0.8904260503156572,-1.798820047282316e-18,-0.024181146938142835,-3.6040838315364203e-19,-0.024181146938142835,-4.70731942991677e-18,0.8907543314225228,-4.721643602046271e-18,-0.890754331422523,0.6608403905319602,0.3557807702548484,0.66084039053196,700.0,160.7142857142859,[0.93351106]
-1.8254089408922206e-18,0.9020374055190166,1.2193246070878792e-18,0.9020374055190166,-1.4618465180629139e-18,-0.020523969542209006,1.2193246070878792e-18,-0.020523969542209006,-5.449637929066757e-18,0.9022708652512549,-5.394815626620189e-18,-0.9022708652512549,0.6619412126851542,0.3516641322310474,0.661941212685154,700.0,160.7142857142859,[0.93410527]
-1.7071154958522374e-18,0.9085532938661103,2.76633019639374e-18,0.9085532938661103,-1.1943296905183643e-18,-0.0182119467040122,2.76633019639374e-18,-0.0182119467040122,-6.2223437351994936e-18,0.9087358047296853,-6.1107684804732635e-18,-0.9087358047296855,0.6626118378929327,0.349129065774106,0.6626118378929328,700.0,160.7142857142859,[0.93487165]
-1.6213798797223412e-18,0.912037056253329,4.291935796072241e-18,0.912037056253329,-9.778201282662847e-19,-0.016683729168799143,4.291935796072241e-18,-0.016683729168799143,-7.001018476632411e-18,0.9121896397121687,-6.841317318652488e-18,-0.9121896397121688,0.6630432246702846,0.34748721478302014,0.6630432246702848,700.0,160.7142857142859,[0.93487165]
-1.5790547021392279e-18,0.9133712991481878,5.81099591556361e-18,0.9133712991481878,-7.851863072149357e-19,-0.015685556737661435,5.81099591556361e-18,-0.015685556737661435,-7.805739481193399e-18,0.9135059752392534,-7.604817570835834e-18,-0.9135059752392534,0.6633178120367023,0.34643752751352497,0.6633178120367021,700.0,160.7142857142859,[0.93487165]
-1.5703726144298713e-18,0.9128891420741344,7.313404062143674e-18,0.9128891420741344,-6.272808370010128e-19,-0.015103975544354201,7.313404062143674e-18,-0.015103975544354201,-8.610460485754387e-18,0.9130140830206801,-8.366607975117265e-18,-0.9130140830206801,0.6634714794580832,0.3458485100320725,0.6634714794580832,700.0,160.7142857142859,[0.94368525]
-1.57362839732088e-18,0.9105668562698488,8.808181467572937e-18,0.9105668562698488,-4.889100641331423e-19,-0.014909308621044703,8.808181467572937e-18,-0.014909308621044703,-9.421421740856475e-18,0.9106889080365,-9.131311681367884e-18,-0.9106889080365004,0.6635134209694379,0.34568754734133433,0.6635134209694379,700.0,160.7142857142859,[0.94368525]
-1.659906643932611e-18,0.9060163071446444,1.0293835898026352e-17,0.9060163071446444,-3.849963268617808e-19,-0.01514617868307523,1.0293835898026352e-17,-0.01514617868307523,-1.0242150344631589e-17,0.9061429001767429,-9.895714065804444e-18,-0.9061429001767428,0.6634293964778333,0.3460099301726993,0.663429396477833,700.0,160.7142857142859,[0.94368525]
-1.7602932830720463e-18,0.8982713203096536,1.1764941048685572e-17,0.8982713203096536,-3.2259382145078037e-19,-0.015963709810224585,1.1764941048685572e-17,-0.015963709810224585,-1.1079971808584498e-17,0.8984131593658646,-1.0658758362092463e-17,-0.8984131593658642,0.6631711645425521,0.34699857786243354,0.6631711645425519,700.0,160.7142857142859,[0.93487165]
-1.9697486490602737e-18,0.885108678889152,1.3212611345410554e-17,0.885108678889152,-3.4999666078343707e-19,-0.0177229276526866,1.3212611345410554e-17,-0.0177229276526866,-1.193434350223337e-17,0.8852860981679781,-1.1402090966172014e-17,-0.8852860981679779,0.6626171550609192,0.34910888221004643,0.6626171550609192,700.0,160.7142857142859,[0.93487165]
-2.3767215104363634e-18,0.8607559535961191,1.4615412884168818e-17,0.8607559535961191,-5.415452208711166e-19,-0.021348486038948327,1.4615412884168818e-17,-0.021348486038948327,-1.2834567471597281e-17,0.8610206556798274,-1.210561721700534e-17,-0.8610206556798274,0.661430571265196,0.3535805407422658,0.661430571265196,700.0,160.7142857142859,[0.93351106]
-3.35020059484797e-18,0.8055018660670703,1.5894732073904556e-17,0.8055018660670703,-1.2192906926827645e-18,-0.029698397082214115,1.5894732073904556e-17,-0.029698397082214115,-1.3855798038410349e-17,0.8060491616686821,-1.2672772258825193e-17,-0.8060491616686822,0.6583683953321292,0.36483162151271165,0.6583683953321292,700.0,160.7142857142859,[0.93900009]
-6.834973549190967e-18,0.6176875663047898,1.6765162238375225e-17,0.6176875663047898,-5.723666322393324e-18,-0.045993129678885615,1.6765162238375225e-17,-0.045993129678885615,-1.5751206311459255e-17,0.6193975278810794,-1.3195952108278237e-17,-0.6193975278810795,0.6482421346220418,0.3994549659239664,0.6482421346220418,700.0,160.7142857142859,[0.8733114]
-7.138846619018447e-18,0.6146464644339472,1.7346946900914902e-17,0.6146464644339472,-5.743201019739377e-18,-0.03973127211033358,1.7346946900914902e-17,-0.03973127211033358,-1.5685819338398163e-17,0.6159292574838906,-1.3372835795506131e-17,-0.6159292574838907,0.696090201908414,0.17583191295725173,0.6960902019084141,700.0,173.57142857142813,[0.34331334]
-3.960117256430269e-18,0.8017472866329536,1.7092385376124158e-17,0.8017472866329536,-1.2963442211033041e-18,-0.022061968869392486,1.7092385376124158e-17,-0.022061968869392486,-1.3937192610685565e-17,0.802050772765476,-1.2990249453608098e-17,-0.8020507727654762,0.7002170158475892,0.13925610017157006,0.7002170158475891,700.0,173.57142857142813,[0.39024788]
-3.31275909160137e-18,0.8574993761851981,1.6453437983763698e-17,0.8574993761851981,-6.696060145841261e-19,-0.014852449582729224,1.6453437983763698e-17,-0.014852449582729224,-1.3042123630899087e-17,0.8576279936059757,-1.2469466789841562e-17,-0.8576279936059759,0.7011841799641937,0.1291568485829643,0.7011841799641937,700.0,173.57142857142813,[0.39024788]
-3.2449302813720216e-18,0.8818427479649855,1.5722989526403846e-17,0.8818427479649855,-5.256732792774491e-19,-0.011313265784058796,1.5722989526403846e-17,-0.011313265784058796,-1.2265619411393506e-17,0.8819153145972339,-1.1861014893989321e-17,-0.881915314597234,0.701587216564052,0.12470266680312894,0.7015872165640519,700.0,173.57142857142813,[0.39024788]
-3.3795026408670486e-18,0.8947608881399474,1.495333601673143e-17,0.8947608881399474,-5.510412543032253e-19,-0.009151774075192055,1.495333601673143e-17,-0.009151774075192055,-1.1515161455015997e-17,0.8948076899053288,-1.1208474442686367e-17,-0.8948076899053289,0.7018141592700469,0.12212195419396972,0.701814159270047,700.0,173.57142857142813,[0.39024788]
-3.616089530947015e-18,0.90212582980603,1.4171965080091897e-17,0.90212582980603,-6.652649707294478e-19,-0.007650252182140381,1.4171965080091897e-17,-0.007650252182140381,-1.0791292392248392e-17,0.9021582672467559,-1.0550376732353444e-17,-0.9021582672467557,0.7019640133904151,0.12038707492767584,0.701964013390415,700.0,173.57142857142813,[0.39024788]
-3.9036836863194516e-18,0.9061951766537505,1.3381403339666287e-17,0.9061951766537505,-8.104186246202532e-19,-0.006519175564824154,1.3381403339666287e-17,-0.006519175564824154,-1.0069593851408127e-17,0.9062186258517132,-9.876756744272237e-18,-0.9062186258517131,0.7020729192664267,0.11911016776679637,0.7020729192664268,700.0,173.57142857142813,[0.39024788]
-4.2363161716841755e-18,0.9079408191502919,1.2585703566865802e-17,0.9079408191502919,-1.00223849994885e-18,-0.005621382491422983,1.2585703566865802e-17,-0.005621382491422983,-9.357933974481805e-18,0.9079582209663709,-9.201920263744096e-18,-0.9079582209663709,0.7021570097976819,0.1181146357737069,0.7021570097976818,700.0,173.57142857142813,[0.39024788]
-4.592281767767795e-18,0.9077380725382841,1.1785052290918574e-17,0.9077380725382841,-1.209252028768821e-18,-0.004885720018052332,1.1785052290918574e-17,-0.004885720018052332,-8.646816728037317e-18,0.9077512206522307,-8.519876934237402e-18,-0.9077512206522309,0.7022243494738194,0.1173112356602815,0.7022243494738195,700.0,173.57142857142813,[0.39024788]
-5.0052235644440675e-18,0.9055784968732032,1.0979720827065522e-17,0.9055784968732032,-1.4466528645715399e-18,-0.004275151482254278,1.0979720827065522e-17,-0.004275151482254278,-7.942211047374848e-18,0.9055885881123539,-7.83849598022057e-18,-0.905588588112354,0.7022790582339921,0.11665439868240697,0.7022790582339923,700.0,173.57142857142813,[0.39024788]
-5.452351081475931e-18,0.9010671996686647,1.0173846732730635e-17,0.9010671996686647,-1.7312625522938854e-18,-0.0037749383694226204,1.0173846732730635e-17,-0.0037749383694226204,-7.250764155896871e-18,0.9010751070129626,-7.165505783347518e-18,-0.9010751070129627,0.7023227999346271,0.11612652317180172,0.7023227999346272,700.0,173.57142857142813,[0.39024788]
-5.958625321027787e-18,0.8932025224878368,9.366836505824407e-18,0.8932025224878368,-2.0337790459167785e-18,-0.003391701795160438,9.366836505824407e-18,-0.003391701795160438,-6.55891029155752e-18,0.8932089620126427,-6.4877672973362616e-18,-0.8932089620126427,0.7023549480946545,0.11573700261329915,0.7023549480946545,700.0,173.57142857142813,[0.39024788]
-6.579937222728618e-18,0.8796698589183186,8.54949934256076e-18,0.8796698589183186,-2.4209458947058984e-18,-0.0031651017000438758,8.54949934256076e-18,-0.0031651017000438758,-5.8894399345938515e-18,0.8796755530069859,-5.82793813310261e-18,-0.8796755530069857,0.7023712345830846,0.11553916072253115,0.7023712345830845,700.0,173.57142857142813,[0.39024788]
-7.391712423553457e-18,0.8544595929799834,7.735926678264842e-18,0.8544595929799834,-2.9818901553026086e-18,-0.0032099515415552767,7.735926678264842e-18,-0.0032099515415552767,-5.2426244002467864e-18,0.8544656223771782,-5.184526007543572e-18,-0.8544656223771783,0.7023582646607405,0.11569674206954578,0.7023582646607405,700.0,173.57142857142813,[0.39024788]
-8.810691133551423e-18,0.7971365867912844,6.895019003446498e-18,0.7971365867912844,-4.0543993026490635e-18,-0.003839968548249379,6.895019003446498e-18,-0.003839968548249379,-4.694296298352735e-18,0.7971458356911301,-4.6279505238026466e-18,-0.7971458356911302,0.7022711119661313,0.11675003467111411,0.7022711119661313,700.0,173.57142857142813,[0.39024788]
-1.2840536406897464e-17,0.6057591048712065,6.0441404935244376e-18,0.6057591048712065,-8.922608670429847e-18,-0.0030744239934327434,6.0441404935244376e-18,-0.0030744239934327434,-4.915282562079952e-18,0.6057669066705913,-4.8541195041987545e-18,-0.6057669066705913,0.7022497799230738,0.11700638100543276,0.7022497799230738,700.0,173.57142857142813,[0.3411854]
-1.3426034696797198e-17,0.6057147051965813,6.0682875499660856e-18,0.6057147051965813,-8.97856743886906e-18,0.0038870451982943007,6.0682875499660856e-18,0.0038870451982943007,-5.23394231253743e-18,0.6057271772107928,-5.312140667945803e-18,-0.6057271772107929,0.7021381227188627,0.11833897603774995,0.7021381227188628,700.0,173.57142857142813,[0.3411854]
-1.0566914688009708e-17,0.797003661619762,6.339891063326954e-18,0.797003661619762,-4.2207155453314254e-18,0.00467258931142104,6.339891063326954e-18,0.00467258931142104,-5.6409151739135195e-18,0.7970173584848586,-5.715409294000918e-18,-0.7970173584848586,0.7021844203268459,0.11778828337531214,0.7021844203268459,700.0,173.57142857142813,[0.39024788]
-1.033466884178442e-17,0.8542385687154446,6.632436721846133e-18,0.8542385687154446,-3.2634475465646337e-18,0.004061932282953794,6.632436721846133e-18,0.004061932282953794,-6.820458183801887e-18,0.8542482259711652,-6.883610318500374e-18,-0.8542482259711652,0.7022762429271581,0.116688290930284,0.7022762429271582,700.0,173.57142857142813,[0.39024788]
-1.0691177068349874e-17,0.8793612337990157,6.937581581865414e-18,0.8793612337990157,-2.811911156867862e-18,0.00403591345621987,6.937581581865414e-18,0.00403591345621987,-8.096860734697762e-18,0.8793704953578739,-8.160587026551355e-18,-0.879370495357874,0.702289883314475,0.11652398717981766,0.702289883314475,700.0,173.57142857142813,[0.39024788]
-1.1265280118131078e-17,0.8928068645801222,7.253969067180208e-18,0.8928068645801222,-2.541816834534597e-18,0.004280832263863653,7.253969067180208e-18,0.004280832263863653,-9.399445206342166e-18,0.8928171273929841,-9.469059857192223e-18,-0.8928171273929841,0.7022729610228771,0.11672778774705563,0.7022729610228772,700.0,173.57142857142813,[0.39024788]
-1.19145374896464e-17,0.9005851447862111,7.569627392785038e-18,0.9005851447862111,-2.3263247044359576e-18,0.00468187202066762,7.569627392785038e-18,0.00468187202066762,-1.0715866755273357e-17,0.9005973145280963,-1.079463367522162e-17,-0.9005973145280962,0.7022395672449843,0.11712890501987114,0.7022395672449843,700.0,173.57142857142813,[0.39024788]
-1.2654142836387215e-17,0.905010746436701,7.890254178739167e-18,0.905010746436701,-2.1713358730618968e-18,0.005199366058886895,7.890254178739167e-18,0.005199366058886895,-1.2045921895060647e-17,0.9050256817203196,-1.2136595267876818e-17,-0.9050256817203196,0.7021942105201271,0.11767149792550018,0.7021942105201271,700.0,173.57142857142813,[0.39024788]
-1.3409484467101237e-17,0.9070853913929845,8.21690925020243e-18,0.9070853913929845,-2.040290611698796e-18,0.005826686862304474,8.21690925020243e-18,0.005826686862304474,-1.3380928537994681e-17,0.9071041051380789,-1.3486469510763628e-17,-0.9071041051380788,0.7021376006463834,0.11834517107630407,0.7021376006463835,700.0,173.57142857142813,[0.39024788]
-1.4224786766058002e-17,0.9072040333572229,8.541427714143468e-18,0.9072040333572229,-1.9462798807209192e-18,0.006578568093950489,8.541427714143468e-18,0.006578568093950489,-1.471003407443876e-17,0.9072278852073388,-1.4833875201991906e-17,-0.9072278852073389,0.7020680782342028,0.11916722304839843,0.7020680782342029,700.0,173.57142857142813,[0.39024788]
-1.507318952440669e-17,0.9053751712795999,8.869710677052234e-18,0.9053751712795999,-1.864613993204784e-18,0.00749204363210179,8.869710677052234e-18,0.00749204363210179,-1.605786036250614e-17,0.9054061693446485,-1.6204702814184715e-17,-0.9054061693446487,0.7019814635460202,0.12018340016647512,0.7019814635460202,700.0,173.57142857142813,[0.39024788]
-1.5946010654437943e-17,0.9012235467432945,9.200113290280669e-18,0.9012235467432945,-1.8298178135571283e-18,0.008638266051657987,9.200113290280669e-18,0.008638266051657987,-1.7410163352048655e-17,0.9012649448663484,-1.7586456015244606e-17,-0.9012649448663484,0.7018695455853151,0.12148366951869066,0.701869545585315,700.0,173.57142857142813,[0.39024788]
-1.687689324602552e-17,0.8937773240258675,9.546540459925786e-18,0.8937773240258675,-1.835685005641967e-18,0.010154399606730716,9.546540459925786e-18,0.010154399606730716,-1.8766536070204932e-17,0.8938350053417097,-1.8983033323134155e-17,-0.8938350053417097,0.7017158786051877,0.12324630390684835,0.7017158786051877,700.0,173.57142857142813,[0.39024788]
-1.793637926180794e-17,0.8807789523717842,9.907109936503723e-18,0.8807789523717842,-1.9119924171499837e-18,0.012329975378722172,9.907109936503723e-18,0.012329975378722172,-2.0139865990918547e-17,0.8808652514624347,-2.0417053503438197e-17,-0.8808652514624346,0.701483602333053,0.12586306573291148,0.701483602333053,700.0,173.57142857142813,[0.39024788]
-1.9188634756262167e-17,0.8563564506704885,1.0303162359432887e-17,0.8563564506704885,-2.1678766037402e-18,0.01588272983563085,1.0303162359432887e-17,0.01588272983563085,-2.155497845873344e-17,0.856503725451319,-2.1936716808891365e-17,-0.8565037254513189,0.701071701894879,0.13037230382422366,0.7010717018948791,700.0,173.57142857142813,[0.39024788]
-2.0997493467458426e-17,0.8005263874532078,1.0786442632316994e-17,0.8005263874532078,-2.926677503775919e-18,0.02310534407439255,1.0786442632316994e-17,0.02310534407439255,-2.3083432868441574e-17,0.800859759217355,-2.3701965777710923e-17,-0.800859759217355,0.7000840153569737,0.14058713626542688,0.7000840153569737,700.0,173.57142857142813,[0.39024788]
-2.535088216559846e-17,0.61334882176179,1.1655278819747273e-17,0.61334882176179,-7.472394793321267e-18,0.04078739982047962,1.1655278819747273e-17,0.04078739982047962,-2.5455745506213032e-17,0.6147034969322132,-2.7012165881212653e-17,-0.6147034969322133,0.6958589082157656,0.17765348213172075,0.6958589082157655,700.0,173.57142857142813,[0.34435996]
-2.5009024962042545e-17,0.6163153750978799,1.2151217644340432e-17,0.6163153750978799,-7.376247454821166e-18,0.047078321035615434,1.2151217644340432e-17,0.047078321035615434,-2.603873413013428e-17,0.6181108394888193,-2.7877568984505744e-17,-0.6181108394888195,0.6476998544582951,0.40121041495629994,0.6476998544582951,700.0,160.7142857142859,[0.8733114]
-2.0228586074698534e-17,0.8040587751428928,1.1699104709756711e-17,0.8040587751428928,-2.597606030948236e-18,0.03083387356692682,1.1699104709756711e-17,0.03083387356692682,-2.4540700941814007e-17,0.8046497633401942,-2.5422945871128915e-17,-0.8046497633401944,0.6579868388920104,0.3662057341028384,0.6579868388920105,700.0,160.7142857142859,[0.93900009]
-1.795903408442454e-17,0.8592435001514132,1.1664677349264677e-17,0.8592435001514132,-1.63138462923117e-18,0.022533106368407742,1.1664677349264677e-17,0.022533106368407742,-2.3901957035884234e-17,0.8595389074585634,-2.45095568362307e-17,-0.8595389074585635,0.6610745234978556,0.3549097755263536,0.6610745234978556,700.0,160.7142857142859,[0.93351106]
-1.6249612409024506e-17,0.8835284908629258,1.174909878219638e-17,0.8835284908629258,-1.1687412718593427e-18,0.018955909455738055,1.174909878219638e-17,0.018955909455738055,-2.340134650198653e-17,0.8837318149019038,-2.3899064186863777e-17,-0.8837318149019038,0.6622632942808372,0.350449223278617,0.6622632942808372,700.0,160.7142857142859,[0.93410527]
-1.474951044199224e-17,0.8966250494077085,1.188148790186215e-17,0.8966250494077085,-8.863021060643365e-19,0.017244355620840864,1.188148790186215e-17,0.017244355620840864,-2.2932310279250586e-17,0.8967908602490069,-2.3386706364722973e-17,-0.8967908602490067,0.6628121200550788,0.34836789033460464,0.6628121200550788,700.0,160.7142857142859,[0.93487165]
-1.334043473828776e-17,0.9043056107737066,1.20361630249889e-17,0.9043056107737066,-6.7206480895494e-19,0.016473814658412387,1.20361630249889e-17,0.016473814658412387,-2.2494780538866175e-17,0.9044556507901353,-2.2930803688672493e-17,-0.9044556507901352,0.6630618246427882,0.34741622501367647,0.663061824642788,700.0,160.7142857142859,[0.93487165]
-1.1992811936651068e-17,0.9087933905438171,1.220306429115949e-17,0.9087933905438171,-4.990843856675446e-19,0.016283270142614045,1.220306429115949e-17,0.016283270142614045,-2.2067798178472427e-17,0.9089392562667012,-2.2500832052882544e-17,-0.9089392562667014,0.6631353772911643,0.34713533782922557,0.6631353772911643,700.0,160.7142857142859,[0.93487165]
-1.0685750763531526e-17,0.9110545576799339,1.2377693802395588e-17,0.9110545576799339,-3.7075227671361764e-19,0.01652360360415542,1.2377693802395588e-17,0.01652360360415542,-2.1645055118718014e-17,0.9112043879094567,-2.2091057074195134e-17,-0.911204387909457,0.6630815423921839,0.34734095105185187,0.6630815423921838,700.0,160.7142857142859,[0.93487165]
-9.398224287758038e-18,0.9114772383848864,1.2570475998969314e-17,0.9114772383848864,-2.568337899334272e-19,0.017150197657513293,1.2570475998969314e-17,0.017150197657513293,-2.1232554209308233e-17,0.9116385716792759,-2.170079904725923e-17,-0.9116385716792759,0.6629146698945926,0.34797741432036383,0.6629146698945927,700.0,160.7142857142859,[0.93487165]
-8.161433762036101e-18,0.9100851508319587,1.276350831428076e-17,0.9100851508319587,-1.7075902975238427e-19,0.01819273566112995,1.276350831428076e-17,0.01819273566112995,-2.0824936974234964e-17,0.9102669703969627,-2.1329337345286127e-17,-0.9102669703969627,0.6626253720888653,0.3490776883849578,0.6626253720888653,700.0,160.7142857142859,[0.93487165]
-6.970020710357599e-18,0.9065451634243387,1.2971577428959925e-17,0.9065451634243387,-1.1500374774386e-19,0.019764679810981733,1.2971577428959925e-17,0.019764679810981733,-2.0435430031492932e-17,0.906760594587178,-2.09944811731766e-17,-0.9067605945871778,0.6621772019714591,0.35077443803461394,0.6621772019714591,700.0,160.7142857142859,[0.93410527]
-5.8094019385232206e-18,0.8999746571097746,1.3205268876703227e-17,0.8999746571097746,-9.769044393281886e-20,0.02211980182683125,1.3205268876703227e-17,0.02211980182683125,-2.0053519915496586e-17,0.9002464490753159,-2.0695517091511158e-17,-0.900246449075316,0.6614864674185863,0.3533713441185627,0.6614864674185863,700.0,160.7142857142859,[0.93351106]
-4.735943187833555e-18,0.888310279761232,1.3468075841237476e-17,0.888310279761232,-1.8191686903511206e-19,0.025819468737362256,1.3468075841237476e-17,0.025819468737362256,-1.970969567644402e-17,0.888685432588696,-2.0478363285146508e-17,-0.8886854325886961,0.6603593126775131,0.3575628005262356,0.6603593126775132,700.0,160.7142857142859,[0.93351106]
-3.86848053381042e-18,0.8661652491418717,1.3797092203156848e-17,0.8661652491418717,-4.0433601637842375e-19,0.0322718013331007,1.3797092203156848e-17,0.0322718013331007,-1.941786222043225e-17,0.8667662360649978,-2.041950439711946e-17,-0.8667662360649978,0.658268178295638,0.36519311451160263,0.658268178295638,700.0,160.7142857142859,[0.93900009]
-3.488707025336299e-18,0.8150939471579083,1.4308553227040927e-17,0.8150939471579083,-1.1646969790494178e-18,0.045921776357222034,1.4308553227040927e-17,0.045921776357222034,-1.929922963134112e-17,0.816386521347126,-2.0839959665355514e-17,-0.816386521347126,0.6532327969759484,0.3828496126548368,0.6532327969759485,700.0,160.7142857142859,[0.93900009]
-5.4044639414540114e-18,0.6390464386674057,1.552894189858928e-17,0.6390464386674057,-5.6972639580115505e-18,0.07702305591513121,1.552894189858928e-17,0.07702305591513121,-2.0291446424578583e-17,0.6436714238771205,-2.3798782837208467e-17,-0.6436714238771206,0.6346844448593049,0.44085293569088535,0.634684444859305,700.0,160.7142857142859,[1.27416799]
-4.966968115474715e-18,0.6444421982061174,1.5467792106517202e-17,0.6444421982061174,-5.700629962719182e-18,0.08140229501444067,1.5467792106517202e-17,0.08140229501444067,-2.0525896707136325e-17,0.6495629919125248,-2.430936947730021e-17,-0.6495629919125251,0.5468591350474273,0.6339480837027265,0.5468591350474276,700.0,147.85714285714295,[1.49346037]
-2.7275321169425526e-18,0.8216103180864962,1.3735641420739378e-17,0.8216103180864962,-1.1530982525001992e-18,0.05135020141820046,1.3735641420739378e-17,0.05135020141820046,-1.951534917793438e-17,0.8232134340326834,-2.1139965221081246e-17,-0.8232134340326835,0.5740917472989142,0.5838127536861109,0.5740917472989143,700.0,147.85714285714295,[1.45796652]
-2.7378420960974135e-18,0.8716187926859892,1.2734810368602787e-17,0.8716187926859892,-4.021909302549206e-19,0.03700802015233214,1.2734810368602787e-17,0.03700802015233214,-1.9639051970590154e-17,0.872404099783453,-2.069556843338151e-17,-0.8724040997834532,0.582226645434948,0.5674718201735965,0.5822266454349482,700.0,147.85714285714295,[1.45157587]
-3.2369264817649585e-18,0.8936151035512214,1.1937315251981543e-17,0.8936151035512214,-1.6907178809792923e-19,0.03059247587717609,1.1937315251981543e-17,0.03059247587717609,-1.9970938339042355e-17,0.894138609430974,-2.0756677244769617e-17,-0.8941386094309738,0.5855022763048862,0.5606907961466766,0.5855022763048862,700.0,147.85714285714295,[1.45157587]
-3.88930397855083e-18,0.9055544421463233,1.1217948326492911e-17,0.9055544421463233,-8.245439743505149e-20,0.027267459617764913,1.1217948326492911e-17,0.027267459617764913,-2.0357291242108723e-17,0.9059648790350234,-2.1014233337469618e-17,-0.9059648790350235,0.5871303179553862,0.5572754969269819,0.5871303179553861,700.0,147.85714285714295,[1.45209063]
-4.653463354594667e-18,0.9126441312825975,1.0533695528199885e-17,0.9126441312825975,-8.462915866302997e-20,0.025481658654779,1.0533695528199885e-17,0.025481658654779,-2.078471448976896e-17,0.9129997947931674,-2.135737676674382e-17,-0.9129997947931675,0.5879914159201461,0.5554567396372497,0.5879914159201461,700.0,147.85714285714295,[1.45209063]
-5.455708607582284e-18,0.9168855673451127,9.867741671116545e-18,0.9168855673451127,-1.2925203719266246e-19,0.02462420731724576,9.867741671116545e-18,0.02462420731724576,-2.1242355472386374e-17,0.9172161660109206,-2.176119829213745e-17,-0.9172161660109204,0.5884088065814248,0.5545720446207569,0.5884088065814248,700.0,147.85714285714295,[1.45209063]
-6.272503140364097e-18,0.9191510735303767,9.231471397109824e-18,0.9191510735303767,-2.1291887461056358e-19,0.024433028024007694,9.231471397109824e-18,0.024433028024007694,-2.1701743046867192e-17,0.9194757576089033,-2.2180475246704426e-17,-0.9194757576089032,0.5885162293215528,0.554344022832648,0.5885162293215528,700.0,147.85714285714295,[1.45209063]
-7.133996859087048e-18,0.9197968861600855,8.593289198514763e-18,0.9197968861600855,-3.1726078124649786e-19,0.02481298683430032,8.593289198514763e-18,0.02481298683430032,-2.217298370593559e-17,0.9201315102230923,-2.2621189835999802e-17,-0.920131510223092,0.5883616871824032,0.5546720203072728,0.5883616871824033,700.0,147.85714285714295,[1.45209063]
-8.01733145470385e-18,0.9188572612003805,7.970164995790618e-18,0.9188572612003805,-4.605533821566354e-19,0.025780535299454243,7.970164995790618e-18,0.025780535299454243,-2.2665776969454362e-17,0.9192188544960282,-2.310121597668442e-17,-0.9192188544960281,0.5879378492083674,0.5555701314293979,0.5879378492083673,700.0,147.85714285714295,[1.45209063]
-8.930069839555076e-18,0.9160553965359084,7.372188324459003e-18,0.9160553965359084,-6.136599640468318e-19,0.02746897090983055,7.372188324459003e-18,0.02746897090983055,-2.317801166570512e-17,0.9164671482848716,-2.3607593591548276e-17,-0.9164671482848719,0.5871796027808992,0.5571716325838303,0.5871796027808994,700.0,147.85714285714295,[1.45209063]
-9.890661450023106e-18,0.9106396676738929,6.790119628776491e-18,0.9106396676738929,-8.178374007390882e-19,0.030198408870735678,6.790119628776491e-18,0.030198408870735678,-2.3707746194995052e-17,0.9111402461967872,-2.4144620322360114e-17,-0.9111402461967875,0.5859267715342844,0.5598032125656491,0.5859267715342844,700.0,147.85714285714295,[1.45209063]
-1.0924406432323488e-17,0.9008396555351598,6.2591567621263125e-18,0.9008396555351598,-1.1098531466783504e-18,0.03469086545977833,6.2591567621263125e-18,0.03469086545977833,-2.428647856107441e-17,0.9015073716454316,-2.4761862885358594e-17,-0.9015073716454316,0.5838042981846155,0.564220774912035,0.5838042981846155,700.0,147.85714285714295,[1.45157587]
-1.2101914577904974e-17,0.8820052962285624,5.8175583529533e-18,0.8820052962285624,-1.56140225427704e-18,0.042765949236463895,5.8175583529533e-18,0.042765949236463895,-2.4959213179530367e-17,0.8830414876942814,-2.5483425280871392e-17,-0.8830414876942815,0.5798022176140262,0.572414864324569,0.5798022176140262,700.0,147.85714285714295,[1.45157587]
-1.3693483695531518e-17,0.8380103641427787,5.604131822091176e-18,0.8380103641427787,-2.5295313412818063e-18,0.060140548767365846,5.604131822091176e-18,0.060140548767365846,-2.5905755747679644e-17,0.8401656122555556,-2.6634839672252812e-17,-0.8401656122555556,0.5702592209500174,0.5912772969114904,0.5702592209500174,700.0,147.85714285714295,[1.45908105]
-1.7192076769958743e-17,0.6778127324154131,6.285331264098722e-18,0.6778127324154131,-7.274362222905725e-18,0.0985015369627656,6.285331264098722e-18,0.0985015369627656,-2.832375956774184e-17,0.6849325901199877,-2.986729796405365e-17,-0.6849325901199879,0.5383981147857562,0.6482707304747665,0.5383981147857563,700.0,147.85714285714295,[1.57500472]
-1.624437263343429e-17,0.6845672399510191,6.099174034599115e-18,0.6845672399510191,-7.306222686860642e-18,0.10010301517988017,6.099174034599115e-18,0.10010301517988017,-2.792238258320967e-17,0.6918474684945082,-2.963060076115474e-17,-0.6918474684945078,0.42239384502118243,0.8019768571326997,0.4223938450211825,700.0,134.9999999999996,[1.58595498]
-1.1448095718901729e-17,0.8462164270836229,4.9016436720980535e-18,0.8462164270836229,-2.6423242937422535e-18,0.062197565874821774,4.9016436720980535e-18,0.062197565874821774,-2.4109339383859827e-17,0.8484991329794777,-2.4696934141653188e-17,-0.8484991329794777,0.4620033366773973,0.7570375379054217,0.46200333667739735,700.0,134.9999999999996,[1.65628831]
-8.528438496984547e-18,0.888940209786621,4.5972285017013184e-18,0.888940209786621,-1.749711988676268e-18,0.04465640078200057,4.5972285017013184e-18,0.04465640078200057,-2.1796805124403624e-17,0.8900611724518066,-2.2249451036812067e-17,-0.8900611724518067,0.47428414761589244,0.7416933966542595,0.47428414761589255,700.0,134.9999999999996,[1.65381887]
-5.980008353452589e-18,0.9076434492368817,4.54175566309789e-18,0.9076434492368817,-1.360648052851046e-18,0.03667465529492798,4.54175566309789e-18,0.03667465529492798,-1.9796715800667635e-17,0.9083840934778777,-2.0137401744247074e-17,-0.908384093477878,0.4794055731465525,0.7350786304008918,0.4794055731465525,700.0,134.9999999999996,[1.65407693]
-3.58071680641241e-18,0.9178408441753091,4.573877903867285e-18,0.9178408441753091,-1.1573015190840992e-18,0.03239588792863062,4.573877903867285e-18,0.03239588792863062,-1.7896593425307787e-17,0.918412384929084,-1.820344570654708e-17,-0.9184123849290843,0.4820519468033097,0.7316090767385803,0.4820519468033097,700.0,134.9999999999996,[1.65407693]
-1.241148526779172e-18,0.9239586705325481,4.654161249462418e-18,0.9239586705325481,-1.0166288059690702e-18,0.029949357807999705,4.654161249462418e-18,0.029949357807999705,-1.6050632354916074e-17,0.9244439349605713,-1.6340168586242187e-17,-0.9244439349605712,0.48353895726660373,0.7296438539527699,0.48353895726660373,700.0,134.9999999999996,[1.65407693]
1.0664215116283708e-18,0.927690075585702,4.758975308207058e-18,0.927690075585702,-9.326556790799772e-19,0.028595337407976897,4.758975308207058e-18,0.028595337407976897,-1.423300676999767e-17,0.9281306856589119,-1.4507499975186153e-17,-0.9281306856589117,0.4843578345539885,0.7285567762448867,0.4843578345539885,700.0,134.9999999999996,[1.65407693]
3.3290040916512988e-18,0.9297738274935653,4.882487332334062e-18,0.9297738274935653,-8.724279348969553e-19,0.028010695967989652,4.882487332334062e-18,0.028010695967989652,-1.2438197101120166e-17,0.930195661880147,-1.2717328506671095e-17,-0.9301956618801474,0.48471690875384793,0.7280790044605242,0.48471690875384793,700.0,134.9999999999996,[1.65407693]
5.5698305807931625e-18,0.9305155201728174,5.021583555523838e-18,0.9305155201728174,-8.424507802510629e-19,0.028068624057323112,5.021583555523838e-18,0.028068624057323112,-1.0665779418219623e-17,0.9309387632594099,-1.094878853287567e-17,-0.9309387632594097,0.4846972388150608,0.7281051938903553,0.4846972388150609,700.0,134.9999999999996,[1.65407693]
7.814489397712985e-18,0.9299531698975498,5.173688072725412e-18,0.9299531698975498,-8.4069253031089905e-19,0.028769082001731044,5.173688072725412e-18,0.028769082001731044,-8.913434823846328e-18,0.9303980644228166,-9.221446872926869e-18,-0.9303980644228166,0.48430028089905386,0.7286332931195193,0.48430028089905375,700.0,134.9999999999996,[1.65407693]
1.001193936271318e-17,0.9278693383614997,5.347908491449813e-18,0.9278693383614997,-8.5263675986222335e-19,0.030238800802838837,5.347908491449813e-18,0.030238800802838837,-7.183486454750636e-18,0.9283619413490628,-7.506578405002655e-18,-0.9283619413490629,0.4834485870102822,0.7297636106545209,0.4834485870102823,700.0,134.9999999999996,[1.65407693]
1.2200724197206577e-17,0.9236592142296632,5.542961893341062e-18,0.9236592142296632,-9.363491697619972e-19,0.0328008362236168,5.542961893341062e-18,0.0328008362236168,-5.494922138496126e-18,0.9242414397160124,-5.855423331546565e-18,-0.9242414397160124,0.48194029164055313,0.7317561824725753,0.48194029164055313,700.0,134.9999999999996,[1.65407693]
1.4325444720438354e-17,0.9158860100535519,5.786049221038868e-18,0.9158860100535519,-1.0760902965615325e-18,0.037194849776409536,5.786049221038868e-18,0.037194849776409536,-3.87242732270564e-18,0.9166409549336665,-4.307955359314845e-18,-0.9166409549336663,0.47929953137470405,0.7352169193156385,0.479299531374704,700.0,134.9999999999996,[1.65407693]
1.6344386214117463e-17,0.9007419641794592,6.127193427218505e-18,0.9007419641794592,-1.3869046912733426e-18,0.04529154233746125,6.127193427218505e-18,0.04529154233746125,-2.3845133450114597e-18,0.9018799309448994,-2.944326559533539e-18,-0.9018799309448992,0.47425959514684846,0.7417247958793711,0.47425959514684846,700.0,134.9999999999996,[1.65381887]
1.806538118026288e-17,0.8647424164230031,6.697187534855035e-18,0.8647424164230031,-2.2263800123881728e-18,0.0629474141143004,6.697187534855035e-18,0.0629474141143004,-1.276171509011032e-18,0.8670304629623875,-2.2381581550490373e-18,-0.8670304629623871,0.46237994889429795,0.7565775345072131,0.4623799488942979,700.0,134.9999999999996,[1.65628831]
1.8275175690302255e-17,0.7219789682669729,8.184729513918113e-18,0.7219789682669729,-6.858037994231845e-18,0.10096781574103443,8.184729513918113e-18,0.10096781574103443,-2.0480548908197367e-18,0.7290048905428264,-3.796399439933637e-18,-0.7290048905428268,0.4259307177373803,0.7982268144928735,0.4259307177373803,700.0,134.9999999999996,[1.60409797]
1.873567396155058e-17,0.7287556115397437,7.688872295862261e-18,0.7287556115397437,-7.034461259550959e-18,0.09947341417003394,7.688872295862261e-18,0.09947341417003394,-1.7108291232122943e-18,0.7355132231831794,-3.34766776488565e-18,-0.7355132231831794,0.29177346442980684,0.9108987270324054,0.29177346442980684,700.0,122.14285714285755,[1.63737808]
1.8828277244716197e-17,0.87301741994093,5.357789241414941e-18,0.87301741994093,-2.7731469918217893e-18,0.061222874216438274,5.357789241414941e-18,0.061222874216438274,3.417639389418499e-19,0.8751615027225773,-3.4064383146986904e-19,-0.8751615027225773,0.3333973997787026,0.8818686680235329,0.33339739977870253,700.0,122.14285714285755,[1.65830582]
1.747801759808184e-17,0.9077922235160635,3.921731978878837e-18,0.9077922235160635,-2.313503999477451e-18,0.043957326378591524,3.921731978878837e-18,0.043957326378591524,4.784644273578227e-19,0.9088558563482949,1.4415606244060116e-19,-0.9088558563482947,0.3468055740620115,0.8714653106114078,0.34680557406201157,700.0,122.14285714285755,[1.65430404]
1.5839103970915212e-17,0.9228513950434888,2.7192850874613077e-18,0.9228513950434888,-2.3621711708170083e-18,0.03599035687813064,2.7192850874613077e-18,0.03599035687813064,2.0479425493527945e-19,0.9235529238337828,9.111904714869599e-21,-0.9235529238337828,0.35258575950178533,0.8668140310315116,0.35258575950178533,700.0,122.14285714285755,[1.65079761]
1.410305100889888e-17,0.9310681177504648,1.607448477996329e-18,0.9310681177504648,-2.5850269661261714e-18,0.031605131667142204,1.607448477996329e-18,0.031605131667142204,-2.221711482559106e-19,0.9316043818269057,-3.0940831650617334e-19,-0.9316043818269056,0.3556749160262188,0.8642862420630588,0.3556749160262188,700.0,122.14285714285755,[1.64162072]
1.2317067563952467e-17,0.9360263712680302,5.440156733186886e-19,0.9360263712680302,-2.874494362468614e-18,0.028982004197471295,5.440156733186886e-19,0.028982004197471295,-7.171073782478666e-19,0.9364749458883022,-7.319429039939057e-19,-0.936474945888302,0.3574939772814834,0.8627839314770137,0.3574939772814834,700.0,122.14285714285755,[1.64162072]
1.052023150936936e-17,0.9390856654176915,-5.036633602706055e-19,0.9390856654176915,-3.223518898624194e-18,0.027398896752808318,-5.036633602706055e-19,0.027398896752808318,-1.2554540467866055e-18,0.939485277445187,-1.2164695765560291e-18,-0.9394852774451868,0.35858243161720366,0.8618800841596164,0.35858243161720355,700.0,122.14285714285755,[1.64162072]
8.687586082285795e-18,0.9408379450199744,-1.530485299670665e-18,0.9408379450199744,-3.5869268519364546e-18,0.02653562540356187,-1.530485299670665e-18,0.02653562540356187,-1.823107000645062e-18,0.941212079291892,-1.7299443990192523e-18,-0.9412120792918921,0.35917408842649134,0.8613872232660513,0.35917408842649134,700.0,122.14285714285755,[1.64162072]
6.867955308164988e-18,0.941529427956237,-2.5422403671640955e-18,0.941529427956237,-3.985610820737486e-18,0.026258821905243205,-2.5422403671640955e-18,0.026258821905243205,-2.422777272582091e-18,0.9418955300007801,-2.274364466562764e-18,-0.9418955300007802,0.3593656059749065,0.861227451074672,0.3593656059749065,700.0,122.14285714285755,[1.64162072]
5.004354507813004e-18,0.9411943569086738,-3.5449314124561945e-18,0.9411943569086738,-4.406276623178625e-18,0.026551964268664976,-3.5449314124561945e-18,0.026551964268664976,-3.045782774888335e-18,0.9415688101691012,-2.8401750824027974e-18,-0.9415688101691011,0.3591700233288731,0.8613906133014648,0.35917002332887304,700.0,122.14285714285755,[1.64162072]
3.1526915780613866e-18,0.9396659222590409,-4.5289006462998335e-18,0.9396659222590409,-4.86479752563499e-18,0.027510117977333857,-4.5289006462998335e-18,0.027510117977333857,-3.700807714923471e-18,0.940068535823884,-3.4263316615554867e-18,-0.9400685358238839,0.3585213271118455,0.8619309229932073,0.3585213271118454,700.0,122.14285714285755,[1.64162072]
1.2668386886535376e-18,0.9364728545339104,-5.482625119644722e-18,0.9364728545339104,-5.365106539274722e-18,0.029395296328449567,-5.482625119644722e-18,0.029395296328449567,-4.411178844455435e-18,0.9369340909184212,-4.063872610261288e-18,-0.9369340909184213,0.3572339578035373,0.8629993040460933,0.3572339578035374,700.0,122.14285714285755,[1.64162072]
-6.526784871312644e-19,0.9304866049801118,-6.408131483152753e-18,0.9304866049801118,-5.9396271601689e-18,0.032818309646108296,-6.408131483152753e-18,0.032818309646108296,-5.191282230203809e-18,0.9310651768246103,-4.733460555501764e-18,-0.9310651768246105,0.3548657946633471,0.8649511752439569,0.3548657946633472,700.0,122.14285714285755,[1.64162072]
-2.6307997549542233e-18,0.9186804582710114,-7.259473534104094e-18,0.9186804582710114,-6.678571573444413e-18,0.03933043877258172,-7.259473534104094e-18,0.03933043877258172,-6.1613094640698376e-18,0.9195219778901856,-5.530132213900452e-18,-0.9195219778901855,0.3502501378564741,0.8687057510245006,0.3502501378564741,700.0,122.14285714285755,[1.65554355]
-4.815667475656875e-18,0.8900102868878641,-7.903774235825019e-18,0.8900102868878641,-7.939127353594167e-18,0.05376784624264042,-7.903774235825019e-18,0.05376784624264042,-7.602882586650295e-18,0.8916329357172661,-6.5930166408622426e-18,-0.891632935717266,0.33941416969834165,0.8772662325747929,0.3394141696983415,700.0,122.14285714285755,[1.65830582]
-8.138995143752105e-18,0.7628105319358027,-7.81365571274663e-18,0.7628105319358027,-1.2986166319719469e-17,0.08391422638470424,-7.81365571274663e-18,0.08391422638470424,-1.1305056416204792e-17,0.7674122132347947,-9.750689320604918e-18,-0.7674122132347947,0.30847891496132623,0.899823048187012,0.30847891496132623,700.0,122.14285714285755,[1.65940736]
-9.306117002767222e-18,0.7682673192011553,-8.152789298119919e-18,0.7682673192011553,-1.3004416111537368e-17,0.079618504577714,-8.152789298119919e-18,0.079618504577714,-1.1581127092614358e-17,0.7723818874259812,-9.651702400230366e-18,-0.7723818874259811,0.16349896044906723,0.972900909581314,0.16349896044906725,700.0,109.28571428571402,[1.65536204]
-8.797812138209125e-18,0.8967169797654163,-8.52479084374069e-18,0.8967169797654163,-7.977321730138684e-18,0.04859906177737052,-8.52479084374069e-18,0.04859906177737052,-7.961987384857342e-18,0.898032967437861,-7.057359123616352e-18,-0.8980329674378612,0.19708106188737437,0.9603739428424167,0.19708106188737434,700.0,109.28571428571402,[1.64814786]
-9.412773567552233e-18,0.9244526689828862,-8.191927846403702e-18,0.9244526689828862,-6.754069543486607e-18,0.035028763708395805,-8.191927846403702e-18,0.035028763708395805,-6.615112819783494e-18,0.9251160745963294,-5.992389795328523e-18,-0.9251160745963296,0.2081035385524707,0.9557122132126807,0.2081035385524707,700.0,109.28571428571402,[1.66147238]
-1.018833242301524e-17,0.9362381447618519,-7.672666906777681e-18,0.9362381447618519,-6.032753069616461e-18,0.02865429268762693,-7.672666906777681e-18,0.02865429268762693,-5.781569340088251e-18,0.9366765355214913,-5.315005712375775e-18,-0.9366765355214914,0.21301572207145075,0.9535452817253917,0.21301572207145075,700.0,109.28571428571402,[1.66002867]
-1.102252080632024e-17,0.9426272284161782,-7.088429146427424e-18,0.9426272284161782,-5.472600498414146e-18,0.025030714546959022,-7.088429146427424e-18,0.025030714546959022,-5.127636019967744e-18,0.9429595051868862,-4.749834907026581e-18,-0.9429595051868859,0.21574354125189127,0.9523179347340817,0.2157435412518912,700.0,109.28571428571402,[1.65946581]
-1.1900106910270106e-17,0.9464671735474188,-6.4692039742272346e-18,0.9464671735474188,-5.008767884734841e-18,0.02274988303564755,-6.4692039742272346e-18,0.02274988303564755,-4.559439905714873e-18,0.9467405493486455,-4.2533573225860444e-18,-0.9467405493486455,0.21743707991104677,0.9515472834071431,0.21743707991104677,700.0,109.28571428571402,[1.65946581]
-1.279235251583079e-17,0.9488245385374183,-5.83167674758095e-18,0.9488245385374183,-4.582922716737595e-18,0.021250389355268292,-5.83167674758095e-18,0.021250389355268292,-4.047403926681582e-18,0.9490624763304553,-3.790711031935774e-18,-0.9490624763304553,0.2185397191920354,0.9510419455896425,0.21853971919203538,700.0,109.28571428571402,[1.65946581]
-1.3676465023114911e-17,0.9501602509907623,-5.1740581504234115e-18,0.9501602509907623,-4.190724083045875e-18,0.020278415802099048,-5.1740581504234115e-18,0.020278415802099048,-3.580409457116058e-18,0.9503766183520462,-3.3651623145391458e-18,-0.9503766183520463,0.21924835846825916,0.9507156854801266,0.21924835846825913,700.0,109.28571428571402,[1.65946581]
-1.458012070634636e-17,0.9506641745065326,-4.524335913097358e-18,0.9506641745065326,-3.79852902626407e-18,0.019720453892370437,-4.524335913097358e-18,0.019720453892370437,-3.1345775763420912e-18,0.9508686917718492,-2.9505974271316213e-18,-0.9508686917718492,0.2196503064541481,0.9505301077552447,0.21965030645414815,700.0,109.28571428571402,[1.65946581]
-1.5494086368732673e-17,0.9503599879361819,-3.849231724301233e-18,0.9503599879361819,-3.4589731005645886e-18,0.01954677538252171,-3.849231724301233e-18,0.01954677538252171,-2.7280879952388853e-18,0.9505609833660933,-2.5748403263922165e-18,-0.9505609833660932,0.21976862115643953,0.9504754106814097,0.2197686211564395,700.0,109.28571428571402,[1.65946581]
-1.641457843445324e-17,0.9491127449820356,-3.16788973580969e-18,0.9491127449820356,-3.1590331081443232e-18,0.019801955323857298,-3.16788973580969e-18,0.019801955323857298,-2.3508994003295984e-18,0.9493192930315812,-2.2267362370006187e-18,-0.9493192930315815,0.21956983287564336,0.9505672921902601,0.21956983287564336,700.0,109.28571428571402,[1.65946581]
-1.7352975186424036e-17,0.9465449956887265,-2.4824715272752815e-18,0.9465449956887265,-2.8905700554492594e-18,0.02063507382729096,-2.4824715272752815e-18,0.02063507382729096,-2.0442527680588337e-18,0.9467698955581709,-1.9417463991389982e-18,-0.9467698955581709,0.21894037350707443,0.9508576264074265,0.21894037350707443,700.0,109.28571428571402,[1.65946581]
-1.8298432493609643e-17,0.9417499863948005,-1.7631585203916563e-18,0.9417499863948005,-2.6983506922744777e-18,0.02240711595279173,-1.7631585203916563e-18,0.02240711595279173,-1.83012569276606e-18,0.9420165156301289,-1.7587053384035273e-18,-0.9420165156301291,0.21760086459775826,0.951472399732444,0.21760086459775826,700.0,109.28571428571402,[1.65946581]
-1.9295995044953307e-17,0.932266097454856,-9.992155473976422e-19,0.932266097454856,-2.672994971477112e-18,0.026042696670699906,-9.992155473976422e-19,0.026042696670699906,-1.8183997871976613e-18,0.9326297756953661,-1.780572194355691e-18,-0.9326297756953663,0.21481432348007098,0.9527379560275735,0.21481432348007098,700.0,109.28571428571402,[1.65946581]
-2.0422161020491816e-17,0.9088053262210786,-1.1614180124830377e-19,0.9088053262210786,-3.1563597654177156e-18,0.0343997830203398,-1.1614180124830377e-19,0.0343997830203398,-2.3644990767805827e-18,0.9094561375017753,-2.3855907215054225e-18,-0.9094561375017752,0.20813033041517806,0.9557005446909286,0.20813033041517803,700.0,109.28571428571402,[1.66147238]
-2.2410036919085883e-17,0.7922137220276553,1.1826959897388713e-18,0.7922137220276553,-7.44763899980344e-18,0.05069875580589121,1.1826959897388713e-18,0.05069875580589121,-5.4205361900028874e-18,0.7938343310850041,-5.6396773988175744e-18,-0.7938343310850043,0.1904401650184342,0.9630498881654589,0.1904401650184342,700.0,109.28571428571402,[1.66038046]
-2.1776028311970246e-17,0.7952675767370498,1.4910980236696828e-18,0.7952675767370498,-7.280126678189133e-18,0.0444515641878104,1.4910980236696828e-18,0.0444515641878104,-5.256892296461046e-18,0.7965089203316954,-5.481946806641479e-18,-0.7965089203316953,0.039833373952337485,0.9984120415134957,0.03983337395233749,700.0,96.42857142857196,[1.64530811]
-1.877897205863042e-17,0.9126096187496593,1.3717897298000863e-18,0.9126096187496593,-2.6644012466904566e-18,0.026807587809305596,1.3717897298000863e-18,0.026807587809305596,-1.6006237338795807e-18,0.9130032656012528,-1.6973949361495221e-18,-0.9130032656012529,0.05850519437781708,0.9965712641159326,0.05850519437781708,700.0,96.42857142857196,[1.64153805]
-1.6634939401336155e-17,0.9356076292972385,1.635543118202067e-18,0.9356076292972385,-1.8625548853973723e-18,0.019620725562268012,1.635543118202067e-18,0.019620725562268012,-4.683997977274632e-19,0.9358133408275332,-5.451573435213585e-19,-0.935813340827533,0.06442110616878234,0.9958412735772612,0.06442110616878235,700.0,96.42857142857196,[1.63878586]
-1.4617337526659076e-17,0.9451354531280787,2.0070240909521426e-18,0.9451354531280787,-1.5539606256781961e-18,0.01610155806289612,2.0070240909521426e-18,0.01610155806289612,8.890661300811824e-20,0.945272598212638,1.6337937620633825e-20,-0.9452725982126382,0.06719039250440398,0.9954752143123448,0.06719039250440399,700.0,96.42857142857196,[1.63949377]
-1.262361139318273e-17,0.9502090907228947,2.399132573266204e-18,0.9502090907228947,-1.4257917297988834e-18,0.013957426986412447,2.399132573266204e-18,0.013957426986412447,4.340445053462983e-19,0.950311594089282,3.6124103950313367e-19,-0.9503115940892823,0.0688421755299409,0.9952494711059182,0.0688421755299409,700.0,96.42857142857196,[1.63949377]
-1.0657016783798119e-17,0.9531905676813286,2.80210081903679e-18,0.9531905676813286,-1.3638249450067196e-18,0.012470588256635254,2.80210081903679e-18,0.012470588256635254,6.847641639326457e-19,0.9532721405181842,6.0986291047516345e-19,-0.9532721405181838,0.06997194591775306,0.9950918819732008,0.06997194591775306,700.0,96.42857142857196,[1.63949377]
-8.710505861192356e-18,0.954952210401854,3.2215757754327116e-18,0.954952210401854,-1.3585641053914507e-18,0.011351496936376585,3.2215757754327116e-18,0.011351496936376585,8.768818501311558e-19,0.955019675521967,7.989820008136741e-19,-0.9550196755219673,0.07081332516475099,0.9949728367941623,0.07081332516475099,700.0,96.42857142857196,[1.63949377]
-6.7444517626392626e-18,0.9558656964197679,3.641626084412277e-18,0.9558656964197679,-1.3725679726627666e-18,0.010462974280302456,3.641626084412277e-18,0.010462974280302456,1.023144611051727e-18,0.9559229589369838,9.428698167146668e-19,-0.9559229589369838,0.07147518483413129,0.9948781814402473,0.07147518483413129,700.0,96.42857142857196,[1.63949377]
-4.795238285875923e-18,0.9560787304792269,4.074562741271187e-18,0.9560787304792269,-1.4242859832030498e-18,0.009733854360664703,4.074562741271187e-18,0.009733854360664703,1.1368516627125306e-18,0.9561282794664557,1.0532349485835486e-18,-0.956128279466456,0.07201330785036561,0.9948005664377645,0.07201330785036561,700.0,96.42857142857196,[1.63949377]
-2.8373342428019495e-18,0.9555997422221387,4.501123191892712e-18,0.9555997422221387,-1.4825169505458728e-18,0.009127091799287937,4.501123191892712e-18,0.009127091799287937,1.2177290403097497e-18,0.9556433284127144,1.1314927605543724e-18,-0.9556433284127142,0.07245630701663047,0.9947362299358679,0.07245630701663044,700.0,96.42857142857196,[1.63949377]
-9.271838017797565e-19,0.9543005853623727,4.93595749881984e-18,0.9543005853623727,-1.58063278180222e-18,0.008627943677206524,4.93595749881984e-18,0.008627943677206524,1.2486844135781685e-18,0.9543395876914387,1.159315966445992e-18,-0.9543395876914385,0.07281502695459315,0.9946838410767532,0.07281502695459315,700.0,96.42857142857196,[1.63949377]
1.0176886311289038e-18,0.9518393383667576,5.371859579595501e-18,0.9518393383667576,-1.7324705542588782e-18,0.00824303086395446,5.371859579595501e-18,0.00824303086395446,1.222935961320012e-18,0.951875030463711,1.1298390872946138e-18,-0.9518750304637109,0.07308298323509382,0.994644537069861,0.07308298323509384,700.0,96.42857142857196,[1.63761543]
2.9446521384866964e-18,0.9474006834720833,5.808015422257868e-18,0.9474006834720833,-1.954852011569943e-18,0.008012016651047466,5.808015422257868e-18,0.008012016651047466,1.0949000734982586e-18,0.9474345610405959,9.969366011725433e-19,-0.9474345610405962,0.07322593274879222,0.9946235094477403,0.07322593274879224,700.0,96.42857142857196,[1.63761543]
4.8233194133108734e-18,0.9387602357761,6.259127053902301e-18,0.9387602357761,-2.348706357117613e-18,0.008049719547120547,6.259127053902301e-18,0.008049719547120547,7.565954038781054e-19,0.9387947476734124,6.495852637941424e-19,-0.9387947476734126,0.07314294820560949,0.9946357213852636,0.0731429482056095,700.0,96.42857142857196,[1.63761543]
6.603768451272635e-18,0.9173539015814158,6.726940867674985e-18,0.9173539015814158,-3.2561623746550102e-18,0.008669855331040583,6.726940867674985e-18,0.008669855331040583,-1.7561726828506134e-19,0.9173948698014979,-3.02060656097086e-19,-0.9173948698014979,0.0725267987872858,0.9947259556859552,0.07252679878728581,700.0,96.42857142857196,[1.63949377]
7.626703216942714e-18,0.8043106661976198,7.200248517000419e-18,0.8043106661976198,-7.948467658966854e-18,0.007891650266722991,7.200248517000419e-18,0.007891650266722991,-3.719782294672551e-18,0.8043493804953118,-3.860080361199237e-18,-0.8043493804953119,0.07227307022841246,0.9947628896573888,0.07227307022841248,700.0,96.42857142857196,[1.63949377]
8.289144813446366e-18,0.8043516691380315,6.768615345729497e-18,0.8043516691380315,-7.880525248728185e-18,0.000930198444349485,6.768615345729497e-18,0.000930198444349485,-3.840830755215522e-18,0.8043522070052913,-3.856469310716228e-18,-0.8043522070052912,0.0799833839231727,0.993582063340717,0.07998338392317267,700.0,83.57142857142804,[1.61671221]
8.565059695557436e-18,0.917488250285753,6.049367749929954e-18,0.917488250285753,-3.0341551018644385e-18,0.00015759491080468842,6.049367749929954e-18,0.00015759491080468842,-5.173298057066593e-19,0.9174882638206162,-5.194077108371357e-19,-0.9174882638206161,0.07929153358655025,0.9936929633458143,0.07929153358655026,700.0,83.57142857142804,[1.61671221]
8.100824480795539e-18,0.9389860681092915,5.310669481047813e-18,0.9389860681092915,-1.984841287966101e-18,0.0007787454958437103,5.310669481047813e-18,0.0007787454958437103,1.8364014474500144e-19,0.9389863910344464,1.7483674131654497e-19,-0.9389863910344464,0.07975356253488071,0.9936190107510974,0.07975356253488071,700.0,83.57142857142804,[1.61671221]
7.529148430630354e-18,0.9477172088552563,4.5550810104301584e-18,0.9477172088552563,-1.4461427574742975e-18,0.0008128611387582317,4.5550810104301584e-18,0.0008128611387582317,2.9476970161708983e-19,0.9477175574524448,2.8696137083715893e-19,-0.9477175574524447,0.07977348602597319,0.9936158119990482,0.07977348602597317,700.0,83.57142857142804,[1.61671221]
6.922744029627744e-18,0.9522459851707825,3.797270715723522e-18,0.9522459851707825,-1.0823063698411738e-18,0.000573648060857952,3.797270715723522e-18,0.000573648060857952,1.9373021017919693e-19,0.9522461579581046,1.8915758590648686e-19,-0.9522461579581049,0.07959411976000579,0.9936445804206149,0.07959411976000581,700.0,83.57142857142804,[1.61671221]
6.303861247193252e-18,0.9547968053146814,3.0360853415563216e-18,0.9547968053146814,-7.841283367491318e-19,0.00017592100771411388,3.0360853415563216e-18,0.00017592100771411388,-4.98011842605793e-21,0.9547968215213765,-6.098698385012255e-21,-0.9547968215213763,0.07930030395845676,0.9936915636072358,0.07930030395845676,700.0,83.57142857142804,[1.61671221]
5.6762942573990836e-18,0.9561849600653305,2.26511476728606e-18,0.9561849600653305,-5.362788834128311e-19,-0.00034065469974058944,2.26511476728606e-18,-0.00034065469974058944,-2.7233479272115297e-19,0.9561850207469064,-2.7072006757404315e-19,-0.9561850207469063,0.07892050229569893,0.9937520357890035,0.07892050229569891,700.0,83.57142857142804,[1.61671221]
5.041670951690744e-18,0.9567523275215412,1.504741782223409e-18,0.9567523275215412,-3.2695606180865533e-19,-0.0009694504114639171,1.504741782223409e-18,-0.0009694504114639171,-5.6600439582233555e-19,0.9567528186799278,-5.629495156473654e-19,-0.9567528186799278,0.07845881362358682,0.9938251501796271,0.07845881362358681,700.0,83.57142857142804,[1.61821776]
4.409767157342537e-18,0.9566270050187127,7.276823799317584e-19,0.9566270050187127,-1.3486169176366153e-19,-0.0017251956161703891,7.276823799317584e-19,-0.0017251956161703891,-9.15024957633566e-19,0.9566285606393873,-9.123834180300173e-19,-0.9566285606393872,0.07790352478722808,0.9939125120710832,0.07790352478722808,700.0,83.57142857142804,[1.61853097]
3.752898121529291e-18,0.9558005132807781,-5.4566290657336e-20,0.9558005132807781,3.1186415153262534e-20,-0.0026449168188863695,-5.4566290657336e-20,-0.0026449168188863695,-1.2880553285282458e-18,0.955804172816157,-1.2883150381712217e-18,-0.9558041728161568,0.07722612324672233,0.9940182351328191,0.07722612324672233,700.0,83.57142857142804,[1.61853097]
3.110680108725584e-18,0.9541251007135017,-8.31152083580686e-19,0.9541251007135017,1.6915326215709144e-19,-0.003799756053039109,-8.31152083580686e-19,-0.003799756053039109,-1.7124999375767719e-18,0.9541326668538355,-1.7190425771564226e-18,-0.9541326668538355,0.07637192340477886,0.99415021934862,0.07637192340477887,700.0,83.57142857142804,[1.61853097]
2.4543515837438525e-18,0.9512290504632342,-1.6248309353990493e-18,0.9512290504632342,2.561129763465954e-19,-0.005326864083911136,-1.6248309353990493e-18,-0.005326864083911136,-2.183610768063089e-18,0.951243965513661,-2.201677047818005e-18,-0.9512439655136609,0.07523477478336466,0.9943236180070312,0.07523477478336464,700.0,83.57142857142804,[1.61853097]
1.771438404452856e-18,0.9462400150145357,-2.4302278103361846e-18,0.9462400150145357,2.570656266871408e-19,-0.007515756177176965,-2.4302278103361846e-18,-0.007515756177176965,-2.7650096542445872e-18,0.9462698624629358,-2.803329215680915e-18,-0.9462698624629357,0.073587455142606,0.9945701447817896,0.073587455142606,700.0,83.57142857142804,[1.61853097]
1.0657347449247987e-18,0.9367959988875513,-3.2695395209419657e-18,0.9367959988875513,9.631412848462998e-20,-0.011084152606955994,-3.2695395209419657e-18,-0.011084152606955994,-3.553287471450757e-18,0.9368615703350949,-3.63001746895303e-18,-0.9368615703350947,0.070852013508872,0.9949673282894654,0.070852013508872,700.0,83.57142857142804,[1.62355178]
2.4770021670598154e-19,0.9138812245505328,-4.2083396357446864e-18,0.9138812245505328,-5.70847266890195e-19,-0.01832472614273467,-4.2083396357446864e-18,-0.01832472614273467,-4.9057642723194864e-18,0.9140649255792435,-5.073866155143552e-18,-0.9140649255792436,0.06506833265667648,0.9957571110318821,0.06506833265667647,700.0,83.57142857142804,[1.62355178]
-1.442341495821337e-18,0.7966229035466317,-5.518401240130789e-18,0.7966229035466317,-5.02896126341773e-18,-0.03602709514183645,-5.518401240130789e-18,-0.03602709514183645,-8.786222420173765e-18,0.797437146137189,-9.276281790393632e-18,-0.797437146137189,0.04734477576691853,0.9977559543371118,0.04734477576691853,700.0,83.57142857142804,[1.62581847]
-2.492325119220689e-18,0.7936372246234261,-5.287204554574663e-18,0.7936372246234261,-4.967053431400082e-18,-0.04232375319339818,-5.287204554574663e-18,-0.04232375319339818,-9.81154497192895e-18,0.7947649617291581,-1.0349841977837134e-17,-0.7947649617291582,0.19766861154712365,0.9601324075449514,0.19766861154712367,700.0,70.71428571428592,[1.57878733]
-2.628769129947982e-18,0.9103030010984567,-2.9560946733029845e-18,0.9103030010984567,-3.673515627320017e-19,-0.026070340946454718,-2.9560946733029845e-18,-0.026070340946454718,-8.256712043905139e-18,0.9106762413096776,-8.419412732689285e-18,-0.9106762413096776,0.2143401322085697,0.9529515283841179,0.2143401322085697,700.0,70.71428571428592,[1.59010528]
-3.65566764171584e-18,0.9338348895012158,-1.0288377930931354e-18,0.9338348895012158,4.232202460326282e-19,-0.017762780215121905,-1.0288377930931354e-18,-0.017762780215121905,-9.210324705695665e-18,0.9340038100622069,-9.248017672622041e-18,-0.9340038100622069,0.2208072877780432,0.9499938333106216,0.2208072877780432,700.0,70.71428571428592,[1.59010528]
-4.816595882496889e-18,0.9433878453657876,7.726469858363647e-19,0.9433878453657876,7.163363554440877e-19,-0.01418090557837761,7.726469858363647e-19,-0.01418090557837761,-1.0720403336870025e-17,0.9434944222765316,-1.0696418613998681e-17,-0.9434944222765317,0.22348463568444094,0.9487408683228448,0.22348463568444096,700.0,70.71428571428592,[1.5914457]
-5.9981483208883e-18,0.9482500888718632,2.5240903313893658e-18,0.9482500888718632,8.309275662444825e-19,-0.012466779567793811,2.5240903313893658e-18,-0.012466779567793811,-1.24308503931122e-17,0.948332036598094,-1.2363574895536223e-17,-0.948332036598094,0.22474839255821125,0.9481436178580757,0.22474839255821122,700.0,70.71428571428592,[1.5914457]
-7.208447456915037e-18,0.9508832782261321,4.260746598877934e-18,0.9508832782261321,8.756556324212284e-19,-0.01169576987662492,4.260746598877934e-18,-0.01169576987662492,-1.4240190264931023e-17,0.9509552039097755,-1.4134237330602717e-17,-0.9509552039097754,0.2253162440232878,0.9478740319042804,0.22531624402328776,700.0,70.71428571428592,[1.5914457]
-8.437200268624795e-18,0.9521941611273205,5.98205626685675e-18,0.9521941611273205,8.760241866205605e-19,-0.011506857966305397,5.98205626685675e-18,-0.011506857966305397,-1.610243554890358e-17,0.9522636863102668,-1.5956893232385903e-17,-0.9522636863102669,0.22546054165269588,0.9478054063547782,0.22546054165269588,700.0,70.71428571428592,[1.5914457]
-9.675182037826384e-18,0.952560168354957,7.683440493200897e-18,0.952560168354957,8.427504458150059e-19,-0.011750921370021688,7.683440493200897e-18,-0.011750921370021688,-1.8016638761336975e-17,0.9526326461388296,-1.782600878134109e-17,-0.9526326461388298,0.22529195415752368,0.9478855789512618,0.22529195415752368,700.0,70.71428571428592,[1.5914457]
-1.0925088959726421e-17,0.9521162238540519,9.383332022046491e-18,0.9521162238540519,7.846513604655097e-19,-0.012383336271603443,9.383332022046491e-18,-0.012383336271603443,-1.9952411535423304e-17,0.9521967500171984,-1.9706509130958906e-17,-0.9521967500171985,0.22484292260162209,0.9480987924852144,0.22484292260162203,700.0,70.71428571428592,[1.5914457]
-1.2155478141482963e-17,0.9508386276056522,1.1071709080443075e-17,0.9508386276056522,7.014572050688943e-19,-0.013433777017528884,1.1071709080443075e-17,-0.013433777017528884,-2.1924539491967404e-17,0.9509335213946121,-2.1609718621779895e-17,-0.950933521394612,0.22409057045848468,0.9484549712364746,0.22409057045848477,700.0,70.71428571428592,[1.5914457]
-1.3429803435065566e-17,0.9485374990811859,1.2749063427264808e-17,0.9485374990811859,5.832633835939352e-19,-0.015015694248858824,1.2749063427264808e-17,-0.015015694248858824,-2.3925698179289666e-17,0.9486563435918016,-2.3519099667323206e-17,-0.9486563435918015,0.2229490289917421,0.9489928666450971,0.2229490289917421,700.0,70.71428571428592,[1.5914457]
-1.4698168271949263e-17,0.9447519021149718,1.4410223181970776e-17,0.9447519021149718,4.12434405381002e-19,-0.0173828458132985,1.4410223181970776e-17,-0.0173828458132985,-2.599332698098637e-17,0.9449118053439834,-2.546033785233923e-17,-0.9449118053439837,0.22122489339923435,0.9497995015165016,0.22122489339923432,700.0,70.71428571428592,[1.59010528]
-1.6002346720634056e-17,0.9384152874330979,1.603358453730757e-17,0.9384152874330979,1.8151042608631589e-19,-0.021096583174516896,1.603358453730757e-17,-0.021096583174516896,-2.81412682734701e-17,0.9386523943983646,-2.7414512950535793e-17,-0.9386523943983649,0.21848290100913384,0.9510680543122382,0.21848290100913384,700.0,70.71428571428592,[1.59010528]
-1.7380865545330216e-17,0.9266804571382219,1.759065972417423e-17,0.9266804571382219,-2.282778608268716e-19,-0.027565011814207428,1.759065972417423e-17,-0.027565011814207428,-3.0476959712668666e-17,0.9270903405376524,-2.9421939468030855e-17,-0.9270903405376523,0.21359484370876125,0.9532861508917769,0.21359484370876122,700.0,70.71428571428592,[1.59066815]
-1.8917548437579298e-17,0.8989938164228902,1.8963307779875634e-17,0.8989938164228902,-1.1406098027293004e-18,-0.0412331016664703,1.8963307779875634e-17,-0.0412331016664703,-3.3314987081125146e-17,0.8999389149490263,-3.1549857868671707e-17,-0.8999389149490267,0.20271738626078523,0.9580246983325594,0.20271738626078523,700.0,70.71428571428592,[1.59482893]
-2.1548454175049504e-17,0.7705925668425927,1.9628992640085594e-17,0.7705925668425927,-5.858000221227389e-18,-0.0723545536163874,1.9628992640085594e-17,-0.0723545536163874,-3.844305180037004e-17,0.7739819671685395,-3.463038645075732e-17,-0.7739819671685397,0.17012648548075135,0.9706255497749559,0.17012648548075132,700.0,70.71428571428592,[1.58763481]
-2.176919879864028e-17,0.7651665119770619,2.021543973845967e-17,0.7651665119770619,-5.935132706622336e-18,-0.07673899736646311,2.021543973845967e-17,-0.07673899736646311,-3.831723041721976e-17,0.7690049835780994,-3.402764592881971e-17,-0.7690049835780995,0.31457897516772776,0.8955892678928462,0.31457897516772776,700.0,57.857142857142705,[1.57097597]
-1.90743092966206e-17,0.8923977081581,2.1123941869668894e-17,0.8923977081581,-1.3722769844173198e-18,-0.0466770783345497,2.1123941869668894e-17,-0.0466770783345497,-3.3425346675018616e-17,0.8936176023152624,-3.117320593642972e-17,-0.8936176023152627,0.34441625130423487,0.873358398182027,0.34441625130423487,700.0,57.857142857142705,[1.57434143]
-1.752164000166059e-17,0.9210957049896676,2.1303538383994696e-17,0.9210957049896676,-6.013225393612092e-19,-0.03232703063344326,2.1303538383994696e-17,-0.03232703063344326,-3.07927049439366e-17,0.9216628096326707,-2.929317000020205e-17,-0.9216628096326706,0.3549719396714447,0.8648640610476218,0.35497193967144464,700.0,57.857142857142705,[1.56165811]
-1.6170032257422923e-17,0.9329269320005845,2.127444287140364e-17,0.9329269320005845,-3.4037185859440853e-19,-0.025905521663716298,2.127444287140364e-17,-0.025905521663716298,-2.8639954164877546e-17,0.9332865350494953,-2.74515137306556e-17,-0.9332865350494952,0.359439556658424,0.8611657274987152,0.3594395566584239,700.0,57.857142857142705,[1.56165811]
-1.4868872190793335e-17,0.9389357359896039,2.11663094402584e-17,0.9389357359896039,-2.5957555762191666e-19,-0.02257643090688292,2.11663094402584e-17,-0.02257643090688292,-2.6659619982120858e-17,0.9392071185584318,-2.5633726774782332e-17,-0.9392071185584319,0.3617027944631423,0.8592683963437198,0.3617027944631423,700.0,57.857142857142705,[1.56047905]
-1.3613581357081346e-17,0.9421489044188788,2.1022193090242786e-17,0.9421489044188788,-2.505405481343355e-19,-0.020788442814276102,2.1022193090242786e-17,-0.020788442814276102,-2.4764618681933326e-17,0.9423782242031784,-2.3832235348150894e-17,-0.9423782242031785,0.3629043497528088,0.8582545460765016,0.3629043497528087,700.0,57.857142857142705,[1.56047905]
-1.2388406515111185e-17,0.943695022354315,2.086373068190737e-17,0.943695022354315,-2.73926650111223e-19,-0.019930689444089565,2.086373068190737e-17,-0.019930689444089565,-2.2919401608803813e-17,0.943905465392604,-2.2034856955652453e-17,-0.943905465392604,0.3634774689926707,0.8577693507402584,0.36347746899267075,700.0,57.857142857142705,[1.56047905]
-1.1169463445080845e-17,0.9440453855754057,2.0681036033683082e-17,0.9440453855754057,-3.3102579042241623e-19,-0.019741089640784262,2.0681036033683082e-17,-0.019741089640784262,-2.1108503794000033e-17,0.9442517676162548,-2.0239711451061777e-17,-0.9442517676162552,0.3636039742822729,0.8576621128231516,0.363603974282273,700.0,57.857142857142705,[1.56047905]
-9.957031940832523e-18,0.9433668281740231,2.0491744901185848e-17,0.9433668281740231,-4.3153324963007274e-19,-0.020124504048898033,2.0491744901185848e-17,-0.020124504048898033,-1.9323522943654824e-17,0.9435814581488612,-1.8445708861552807e-17,-0.9435814581488613,0.36334844992469684,0.8578786673385927,0.3633484499246968,700.0,57.857142857142705,[1.56047905]
-8.775267537409146e-18,0.9416251335722405,2.028139279063426e-17,0.9416251335722405,-5.406560275620162e-19,-0.021097376822485338,2.028139279063426e-17,-0.021097376822485338,-1.7561531820676724e-17,0.9418614502588637,-1.665007013597795e-17,-0.9418614502588638,0.36269787432741785,0.858429090791281,0.3626978743274178,700.0,57.857142857142705,[1.56047905]
-7.597810263435332e-18,0.9385741139496266,2.0057779485292103e-17,0.9385741139496266,-6.856570666298055e-19,-0.02279299611796498,2.0057779485292103e-17,-0.02279299611796498,-1.5834612431887837e-17,0.9388508337581423,-1.485285223367275e-17,-0.9388508337581426,0.36155704484943146,0.859391067349139,0.3615570448494314,700.0,57.857142857142705,[1.56165811]
-6.448603688922042e-18,0.9336218616476778,1.980732306077983e-17,0.9336218616476778,-8.740685442443776e-19,-0.025531466096930557,1.980732306077983e-17,-0.025531466096930557,-1.4151237019615872e-17,0.9339708969274868,-1.3063858918997915e-17,-0.9339708969274869,0.3596958863065022,0.8609516471604892,0.3596958863065022,700.0,57.857142857142705,[1.56165811]
-5.344944160477758e-18,0.9254089182506038,1.9512709550895673e-17,0.9254089182506038,-1.143808884974258e-18,-0.030034790909288695,1.9512709550895673e-17,-0.030034790909288695,-1.2542134154545044e-17,0.9258961899925487,-1.1269478074206874e-17,-0.9258961899925484,0.35658371274368433,0.8635369775590731,0.3565837127436842,700.0,57.857142857142705,[1.56165811]
-4.334396631275813e-18,0.9103513921955898,1.9131477987957908e-17,0.9103513921955898,-1.5817975296528772e-18,-0.038122567850525986,1.9131477987957908e-17,-0.038122567850525986,-1.1075736747245804e-17,0.9111492673826646,-9.456243316984356e-18,-0.9111492673826646,0.35082337116797657,0.8682430100407791,0.3508233711679766,700.0,57.857142857142705,[1.57558094]
-3.595656101865424e-18,0.8755763215790087,1.851732189325813e-17,0.8755763215790087,-2.521205354826154e-18,-0.055511683323408355,1.851732189325813e-17,-0.055511683323408355,-1.0023309167027875e-17,0.8773342817280227,-7.662406359473046e-18,-0.8773342817280226,0.33756650430644586,0.878690907168529,0.3375665043064458,700.0,57.857142857142705,[1.57434143]
-4.338703760725377e-18,0.731313125703571,1.7005553105910124e-17,0.731313125703571,-7.273139184671278e-18,-0.093889054257204,1.7005553105910124e-17,-0.093889054257204,-1.0884323844778583e-17,0.7373154293351248,-6.4253051732131856e-18,-0.7373154293351248,0.2968999033132883,0.9075796906195731,0.29689990331328847,700.0,57.857142857142705,[1.55816969]
-4.296802513206197e-18,0.7245180198198283,1.640527634902538e-17,0.7245180198198283,-7.362437932988534e-18,-0.09549229497229143,1.640527634902538e-17,-0.09549229497229143,-9.977736685155032e-18,0.7307839211714504,-5.5343946673295075e-18,-0.7307839211714504,0.4303773705360157,0.7934422712844394,0.43037737053601566,700.0,45.00000000000011,[1.53000973]
-2.879078636197474e-18,0.8672597967648377,1.6858630073914977e-17,0.8672597967648377,-2.8032714621648986e-18,-0.05757397611252386,1.6858630073914977e-17,-0.05757397611252386,-7.912451156886721e-18,0.8691687510547033,-5.693558179489769e-18,-0.8691687510547034,0.46578171366020066,0.7523927102514576,0.4657817136602007,700.0,45.00000000000011,[1.56020545]
-2.9591844610783343e-18,0.9032344158721918,1.6411421215302096e-17,0.9032344158721918,-2.050089755126617e-18,-0.040021783122817935,1.6411421215302096e-17,-0.040021783122817935,-7.72797798956609e-18,0.9041206518713691,-6.257398511810284e-18,-0.9041206518713689,0.4773769026084491,0.7377144337153277,0.47737690260844895,700.0,45.00000000000011,[1.54679082]
-3.345113434080769e-18,0.9183509553645293,1.570934745694647e-17,0.9183509553645293,-1.7777464838041855e-18,-0.032030796156580145,1.570934745694647e-17,-0.032030796156580145,-7.92627975557223e-18,0.9189093802554027,-6.820427594115666e-18,-0.9189093802554027,0.48226744565476243,0.7313249768217012,0.4822674456547624,700.0,45.00000000000011,[1.54679082]
-3.837381024320264e-18,0.9260942827962307,1.492448943057479e-17,0.9260942827962307,-1.6844013230266844e-18,-0.02774456479057382,1.492448943057479e-17,-0.02774456479057382,-8.259111488067002e-18,0.9265097848934374,-7.362356963698313e-18,-0.9265097848934373,0.4848031465253112,0.7279641599957483,0.48480314652531115,700.0,45.00000000000011,[1.54679082]
-4.371125932015005e-18,0.9302722601440433,1.4098985784542047e-17,0.9302722601440433,-1.6844182802292418e-18,-0.0252923485083356,1.4098985784542047e-17,-0.0252923485083356,-8.653277422211663e-18,0.9306160222597576,-7.887297592247305e-18,-0.9306160222597578,0.48622626840133204,0.7260633800385691,0.48622626840133215,700.0,45.00000000000011,[1.54679082]
-4.9503839713736394e-18,0.9323217487125406,1.3240010475355151e-17,0.9323217487125406,-1.7170100235444436e-18,-0.023934421274744364,1.3240010475355151e-17,-0.023934421274744364,-9.08866207647257e-18,0.9326289185116267,-8.405829307967027e-18,-0.9326289185116268,0.48700362459673713,0.7250206474710088,0.48700362459673713,700.0,45.00000000000011,[1.54679082]
-5.544801749818533e-18,0.9328476258374402,1.2363112727846596e-17,0.9328476258374402,-1.7767544874545812e-18,-0.0233476530784912,1.2363112727846596e-17,-0.0233476530784912,-9.549558841980992e-18,0.9331397569146984,-8.927931187931597e-18,-0.9331397569146982,0.4873332027809462,0.7245776003538407,0.4873332027809462,700.0,45.00000000000011,[1.54679082]
-6.178221094145302e-18,0.9320673938162463,1.147515040566938e-17,0.9320673938162463,-1.8582041706381105e-18,-0.023405233942454192,1.147515040566938e-17,-0.023405233942454192,-1.0023012415983122e-17,0.932361213045304,-9.444393142452335e-18,-0.932361213045304,0.48729084133921274,0.7246345781798191,0.4872908413392127,700.0,45.00000000000011,[1.54679082]
-6.800787828835376e-18,0.9299431007595693,1.057155513247204e-17,0.9299431007595693,-1.977629508948796e-18,-0.024107122189985796,1.057155513247204e-17,-0.024107122189985796,-1.0528447274008389e-17,0.9302555154314354,-9.977675031295861e-18,-0.9302555154314357,0.48687482285416606,0.7251936387899779,0.486874822854166,700.0,45.00000000000011,[1.54679082]
-7.482196056399408e-18,0.9261692191057754,9.645652659310522e-18,0.9261692191057754,-2.1274251970396725e-18,-0.025580045385286722,9.645652659310522e-18,-0.025580045385286722,-1.1051788937934204e-17,0.9265224018559484,-1.0519803646450308e-17,-0.9265224018559485,0.48600507225539635,0.7263595111816556,0.4860050722553964,700.0,45.00000000000011,[1.54679082]
-8.176322185881443e-18,0.9200070510917807,8.69640170796529e-18,0.9200070510917807,-2.327155607361267e-18,-0.028147054619642398,8.69640170796529e-18,-0.028147054619642398,-1.1603890017397263e-17,0.9204375213681572,-1.1064857712951972e-17,-0.9204375213681572,0.4844761191104305,0.7283994645957615,0.48447611911043054,700.0,45.00000000000011,[1.54679082]
-8.944483461728812e-18,0.9097635286176141,7.70798915713905e-18,0.9097635286176141,-2.594740263716046e-18,-0.0325478060928896,7.70798915713905e-18,-0.0325478060928896,-1.221344209912458e-17,0.9103455594905888,-1.165179197663421e-17,-0.9103455594905888,0.4818037026596776,0.7319360519928294,0.48180370265967765,700.0,45.00000000000011,[1.54679082]
-9.851490312115657e-18,0.8910124786103868,6.616866830423018e-18,0.8910124786103868,-3.0267080416616505e-18,-0.04065299664178514,6.616866830423018e-18,-0.04065299664178514,-1.2920277651923341e-17,0.8919394055513985,-1.2316162118519827e-17,-0.8919394055513986,0.4766912845626021,0.7386005946681279,0.4766912845626023,700.0,45.00000000000011,[1.54679082]
-1.1142781286856875e-17,0.8482393931748771,5.289801457411618e-18,0.8482393931748771,-3.970418756983852e-18,-0.05831913190636429,5.289801457411618e-18,-0.05831913190636429,-1.3936878902438254e-17,0.8502418416427145,-1.3184485562542302e-17,-0.8502418416427148,0.4645268102439776,0.7539427598492547,0.4645268102439775,700.0,45.00000000000011,[1.57322954]
-1.4296074845609047e-17,0.686539981312535,3.0609610609148914e-18,0.686539981312535,-8.723386976184973e-18,-0.09635161446802658,3.0609610609148914e-18,-0.09635161446802658,-1.6464214285988885e-17,0.6932681873209031,-1.5465595981952315e-17,-0.6932681873209038,0.4256566056530428,0.798519197094134,0.4256566056530428,700.0,45.00000000000011,[1.51891995]
-1.5035341048298713e-17,0.6797210821639625,2.3014887616404178e-18,0.6797210821639625,-8.764635371405695e-18,-0.09485496521491207,2.3014887616404178e-18,-0.09485496521491207,-1.6346726308070376e-17,0.6863076671319288,-1.5637156918544984e-17,-0.6863076671319288,0.5409830920941906,0.6439523182165093,0.5409830920941907,700.0,32.14285714285738,[1.47190926]
-1.271702014346982e-17,0.8398489839124844,2.868877819034076e-18,0.8398489839124844,-4.119158859215534e-18,-0.05658784410070789,2.868877819034076e-18,-0.05658784410070789,-1.4198231786853212e-17,0.8417532298000397,-1.3803879268171322e-17,-0.8417532298000399,0.5720792471214902,0.5877505168230966,0.5720792471214902,700.0,32.14285714285738,[1.39857271]
-1.2310861227816482e-17,0.8837719896868049,2.541039982692439e-18,0.8837719896868049,-3.2585638722281206e-18,-0.039307529437136154,2.541039982692439e-18,-0.039307529437136154,-1.3522131163689627e-17,0.8846456983591938,-1.3311226892553118e-17,-0.8846456983591937,0.5814172226024207,0.5691291826313026,0.5814172226024208,700.0,32.14285714285738,[1.39651806]
-1.2323613044139599e-17,0.9025326777475,1.9766544698017493e-18,0.9025326777475,-2.9053114285536744e-18,-0.03132755954644715,1.9766544698017493e-18,-0.03132755954644715,-1.3118753229255693e-17,0.9030762151608297,-1.2976520657787147e-17,-0.9030762151608299,0.5853136321217977,0.5610845783879442,0.5853136321217978,700.0,32.14285714285738,[1.39651806]
-1.248178982959444e-17,0.9122574407715504,1.3287282386871786e-18,0.9122574407715504,-2.7333145230146045e-18,-0.02693109898822372,1.3287282386871786e-18,-0.02693109898822372,-1.2811166532068156e-17,0.9126548758078123,-1.2731706612239007e-17,-0.9126548758078122,0.5873624857774647,0.556785973784034,0.5873624857774647,700.0,32.14285714285738,[1.39779338]
-1.271702014346982e-17,0.9175964445778981,6.352931152093546e-19,0.9175964445778981,-2.6280611667412134e-18,-0.024298509275038217,6.352931152093546e-19,-0.024298509275038217,-1.2542649229572723e-17,0.9179181078151741,-1.2507227211148648e-17,-0.9179181078151738,0.5885560087778574,0.5542595502677039,0.5885560087778573,700.0,32.14285714285738,[1.39779338]
-1.2993286887533956e-17,0.9203201933796534,-8.440341590398542e-20,0.9203201933796534,-2.570033619590006e-18,-0.02270772199237222,-8.440341590398542e-20,-0.02270772199237222,-1.2307283258076883e-17,0.9206002927331955,-1.2314339841388318e-17,-0.9206002927331955,0.5892627417770445,0.5527556804835209,0.5892627417770444,700.0,32.14285714285738,[1.39779338]
-1.3281966303870062e-17,0.9211803912052389,-8.1909965250445e-19,0.9211803912052389,-2.5462257071995047e-18,-0.021838561829102994,-8.1909965250445e-19,-0.021838561829102994,-1.2084923460942522e-17,0.921439219874974,-1.2125479265340912e-17,-0.921439219874974,0.589640036358884,0.5519504099512818,0.589640036358884,700.0,32.14285714285738,[1.39779338]
-1.362246693122139e-17,0.9204539176152197,-1.5681957335515732e-18,0.9204539176152197,-2.549006688418908e-18,-0.021557667871980615,-1.5681957335515732e-18,-0.021557667871980615,-1.187970739559363e-17,0.9207063307576874,-1.1952096366335483e-17,-0.9207063307576876,0.5897517512108498,0.5517116492221923,0.5897517512108498,700.0,32.14285714285738,[1.39779338]
-1.3967308602427396e-17,0.918106593437865,-2.336505384921319e-18,0.918106593437865,-2.5664386926478505e-18,-0.021848523964636078,-2.336505384921319e-18,-0.021848523964636078,-1.1687005745732051e-17,0.9183665253663785,-1.1801583160578552e-17,-0.9183665253663783,0.5896048413878267,0.5520255990659054,0.5896048413878265,700.0,32.14285714285738,[1.39779338]
-1.4376316328110366e-17,0.9137822594234357,-3.1128039983458905e-18,0.9137822594234357,-2.6305708327196993e-18,-0.022806199892885064,-3.1128039983458905e-18,-0.022806199892885064,-1.1510786496756204e-17,0.9140668139641404,-1.1669241600643449e-17,-0.9140668139641401,0.5891516636245219,0.5529924362022657,0.5891516636245218,700.0,32.14285714285738,[1.39779338]
-1.48058083544826e-17,0.9066086708568756,-3.914387920433771e-18,0.9066086708568756,-2.725632910256131e-18,-0.024692711877534936,-3.914387920433771e-18,-0.024692711877534936,-1.1354576746798015e-17,0.9069448781997381,-1.1574108873255368e-17,-0.906944878199738,0.5882598621685079,0.5548879788957188,0.588259862168508,700.0,32.14285714285738,[1.39779338]
-1.5328361508489498e-17,0.8945845137710541,-4.753392149265055e-18,0.8945845137710541,-2.9129760841095908e-18,-0.028118872331745624,-4.753392149265055e-18,-0.028118872331745624,-1.1225939408198056e-17,0.8950263254565206,-1.1529816369401013e-17,-0.8950263254565208,0.5866097611656037,0.5583708232084361,0.5866097611656037,700.0,32.14285714285738,[1.39779338]
-1.601723090517876e-17,0.8725025595510176,-5.6668639331268845e-18,0.8725025595510176,-3.2685686217369495e-18,-0.0346359652155489,-5.6668639331268845e-18,-0.0346359652155489,-1.117031978380999e-17,0.8731897654630925,-1.162819484473297e-17,-0.8731897654630923,0.5833307269244669,0.5651995453391186,0.5833307269244669,700.0,32.14285714285738,[1.39651806]
-1.7204235084192354e-17,0.8224077564034019,-6.783737361663973e-18,0.8224077564034019,-4.112935565876991e-18,-0.04908016536508866,-6.783737361663973e-18,-0.04908016536508866,-1.1317983103679282e-17,0.8238709731655447,-1.2129127545243545e-17,-0.8238709731655448,0.575249639154778,0.5815287656725117,0.575249639154778,700.0,32.14285714285738,[1.39651806]
-2.0628911712672148e-17,0.6451529605076964,-8.634300192899683e-18,0.6451529605076964,-8.762939651149962e-18,-0.0792352255892487,-8.634300192899683e-18,-0.0792352255892487,-1.259482654184165e-17,0.65000043340449,-1.4654704306781206e-17,-0.65000043340449,0.5484000431767981,0.6312802747491576,0.5484000431767981,700.0,32.14285714285738,[1.4240349]
-2.0565423946297478e-17,0.6396614810491438,-8.310922100830626e-18,0.6396614810491438,-8.801534244170461e-18,-0.0749338917520172,-8.310922100830626e-18,-0.0749338917520172,-1.2142035319155634e-17,0.6440356344730367,-1.4291509757471225e-17,-0.6440356344730369,0.6357204829041563,0.43785720872473094,0.6357204829041562,700.0,19.285714285714306,[1.2482891]
-1.65458886521063e-17,0.815608306185218,-6.198512506655476e-18,0.815608306185218,-4.1773051067846425e-18,-0.04389454458281721,-6.198512506655476e-18,-0.04389454458281721,-1.0442686222074657e-17,0.8167886141239071,-1.114078688816721e-17,-0.8167886141239074,0.6539111627767006,0.38052645426047205,0.6539111627767006,700.0,19.285714285714306,[0.93745811]
-1.4783424847106914e-17,0.8665777672605735,-4.8068200552225845e-18,0.8665777672605735,-3.3552877556151712e-18,-0.03030624364101816,-4.8068200552225845e-18,-0.03030624364101816,-9.852134685812836e-18,0.8671075452987074,-1.0183167390520438e-17,-0.8671075452987074,0.6588559875267073,0.3630669020998957,0.6588559875267073,700.0,19.285714285714306,[0.93745811]
-1.3524793444491129e-17,0.8886200371613173,-3.588860502940571e-18,0.8886200371613173,-3.0535173789048004e-18,-0.023915630030028605,-3.588860502940571e-18,-0.023915630030028605,-9.434851845281886e-18,0.8889418022594692,-9.631420251809652e-18,-0.8889418022594693,0.660901610845531,0.3555532612191375,0.660901610845531,700.0,19.285714285714306,[0.93072213]
-1.2448214568530913e-17,0.9001808489280719,-2.4421000048961764e-18,0.9001808489280719,-2.919419821081379e-18,-0.020277774455994792,-2.4421000048961764e-18,-0.020277774455994792,-9.076715727270927e-18,0.9004092119218645,-9.185451154044519e-18,-0.9004092119218647,0.6619975064133928,0.35145213472804543,0.6619975064133929,700.0,19.285714285714306,[0.93131634]
-1.148667335471967e-17,0.9066470716582448,-1.3252138584571705e-18,0.9066470716582448,-2.855728568276021e-18,-0.0179845445423912,-1.3252138584571705e-18,-0.0179845445423912,-8.746932051935835e-18,0.9068254277361587,-8.80037487542178e-18,-0.9068254277361588,0.6626633182015225,0.3489335945710809,0.6626633182015225,700.0,19.285714285714306,[0.93085234]
-1.0572883623309891e-17,0.9100821371574579,-2.312835249801596e-19,0.9100821371574579,-2.8379574199959316e-18,-0.016474546121222927,-2.312835249801596e-19,-0.016474546121222927,-8.434444723209228e-18,0.910231238226302,-8.444947300327604e-18,-0.9102312382263021,0.6630900188849181,0.34730858571362433,0.6630900188849183,700.0,19.285714285714306,[0.93085234]
-9.668318610091302e-18,0.91136874181235,8.53116860659628e-19,0.91136874181235,-2.84229846385061e-18,-0.015493974924000757,8.53116860659628e-19,-0.015493974924000757,-8.134166580323903e-18,0.9115004370879763,-8.106296401156979e-18,-0.9115004370879763,0.6633600415790288,0.34627577228639367,0.6633600415790288,700.0,19.285714285714306,[0.93085234]
-8.82344294987454e-18,0.9108400937273539,1.928025452167946e-18,0.9108400937273539,-2.888693370047484e-18,-0.01492933407754742,1.928025452167946e-18,-0.01492933407754742,-7.838704282964862e-18,0.9109624368530537,-7.77552588252222e-18,-0.9109624368530537,0.6635092484911075,0.34570356424765386,0.6635092484911075,700.0,19.285714285714306,[0.93966593]
-7.983722279235209e-18,0.9084725510170849,2.991534564257094e-18,0.9084725510170849,-2.9528594245244476e-18,-0.01475090489213482,2.991534564257094e-18,-0.01475090489213482,-7.551991902125407e-18,0.9085922986392888,-7.454665749253912e-18,-0.9085922986392889,0.6635468001576724,0.3455593841889234,0.6635468001576726,700.0,19.285714285714306,[0.93966593]
-7.216442777920821e-18,0.9038780638987346,4.048328624133537e-18,0.9038780638987346,-3.0503972536342504e-18,-0.015003269868344132,4.048328624133537e-18,-0.015003269868344132,-7.27382595137485e-18,0.9040025732839854,-7.139318516358356e-18,-0.9040025732839855,0.6634583911786724,0.34589872267647254,0.6634583911786724,700.0,19.285714285714306,[0.93966593]
-6.478194007384595e-18,0.8960905403474111,5.087046306083858e-18,0.8960905403474111,-3.1954152499045974e-18,-0.015835514600067657,5.087046306083858e-18,-0.015835514600067657,-7.007801357655346e-18,0.896230450287628,-6.8283533066340915e-18,-0.8962304502876279,0.6631956435707065,0.346904996645585,0.6631956435707064,700.0,19.285714285714306,[0.93085234]
-5.86257972574303e-18,0.8828868430427574,6.106254726491963e-18,0.8828868430427574,-3.4178937474568597e-18,-0.017608628197893987,6.106254726491963e-18,-0.017608628197893987,-6.761718434143271e-18,0.8830624221452401,-6.5173349004202836e-18,-0.88306242214524,0.6626366644198801,0.3490348147864197,0.6626366644198801,700.0,19.285714285714306,[0.93085234]
-5.435529536539053e-18,0.8584946190698278,7.074053148046862e-18,0.8584946190698278,-3.811300846787079e-18,-0.021247230110316758,7.074053148046862e-18,-0.021247230110316758,-6.563658308273574e-18,0.85875750695945,-6.212367466560686e-18,-0.8587575069594502,0.6614437172071362,0.35353135353800325,0.661443717207136,700.0,19.285714285714306,[0.93072213]
-5.551109829169862e-18,0.8032026628979061,7.925338630830297e-18,0.8032026628979061,-4.701893125098422e-18,-0.029609300434867574,7.925338630830297e-18,-0.029609300434867574,-6.4870117527144106e-18,0.8037482369240568,-5.905882553277891e-18,-0.803748236924057,0.6583697829795709,0.3648266132272498,0.6583697829795709,700.0,19.285714285714306,[0.93745811]
-8.204572885341967e-18,0.6153521934678317,8.358688420784325e-18,0.6153521934678317,-9.392255352457855e-18,-0.045915278612654986,8.358688420784325e-18,-0.045915278612654986,-7.279794886675032e-18,0.6170628289046013,-6.0819570957988245e-18,-0.6170628289046014,0.6481982858067165,0.3995972529365895,0.6481982858067163,700.0,19.285714285714306,[0.8717319]
-7.822018395648442e-18,0.6122744928298856,8.250696476297923e-18,0.6122744928298856,-9.333244287558322e-18,-0.03966067341431595,8.250696476297923e-18,-0.03966067341431595,-6.552127410534585e-18,0.6135576774727625,-5.5117376564693255e-18,-0.6135576774727629,0.6960734665239454,0.17596436685498643,0.6960734665239454,700.0,6.428571428571418,[0.3365903]
-4.133759010617401e-18,0.7993381015157226,7.04566679096588e-18,0.7993381015157226,-4.514007320763127e-18,-0.02199489285824033,7.04566679096588e-18,-0.02199489285824033,-4.58970427297908e-18,0.7996406541982504,-4.197738822403026e-18,-0.7996406541982501,0.7002171120577877,0.13925513262678643,0.7002171120577875,700.0,6.428571428571418,[0.39673686]
-2.9850102805731586e-18,0.8550545284355164,5.447399578329189e-18,0.8550545284355164,-3.484501639102079e-18,-0.014788303052874985,5.447399578329189e-18,-0.014788303052874985,-3.46985061609254e-18,0.8551824018917059,-3.28085184136781e-18,-0.8551824018917058,0.7011865074975736,0.12913157401158845,0.7011865074975735,700.0,6.428571428571418,[0.39673686]
-2.417961427055807e-18,0.8793638400686314,3.7604461963176254e-18,0.8793638400686314,-2.9931497378006804e-18,-0.011251446880810362,3.7604461963176254e-18,-0.011251446880810362,-2.4682904042459835e-18,0.8794358181681943,-2.371870274811989e-18,-0.8794358181681943,0.7015902255821941,0.12466880417751543,0.7015902255821942,700.0,6.428571428571418,[0.39673686]
-2.0256395886892567e-18,0.8922495712205183,2.039366444159421e-18,0.8922495712205183,-2.6445096532218303e-18,-0.00909167385172682,2.039366444159421e-18,-0.00909167385172682,-1.4979314451049272e-18,0.8922958903170095,-1.4565278551723066e-18,-0.8922958903170096,0.7018174890424649,0.12208367682970346,0.7018174890424649,700.0,6.428571428571418,[0.39673686]
-1.753239086808194e-18,0.8995838004694072,3.062301209829501e-19,0.8995838004694072,-2.3726517818226025e-18,-0.007591256203262378,3.062301209829501e-19,-0.007591256203262378,-5.495490204781797e-19,0.8996158298061044,-5.445873668977142e-19,-0.8996158298061047,0.7019675553298539,0.12034576240340708,0.7019675553298539,700.0,6.428571428571418,[0.39673686]
-1.5367295245561144e-18,0.903624173671762,-1.4400310769728998e-18,0.903624173671762,-2.168080090170888e-18,-0.006460665548094306,-1.4400310769728998e-18,-0.006460665548094306,3.9150789264379826e-19,0.9036472693719046,3.7080475203036617e-19,-0.9036472693719045,0.7020766479681357,0.11906620324698826,0.7020766479681356,700.0,6.428571428571418,[0.39673686]
-1.3750256409693481e-18,0.905342619988323,-3.1921085954059166e-18,0.905342619988323,-1.9770741605650434e-18,-0.005562737978540479,-3.1921085954059166e-18,-0.005562737978540479,1.3291733652543087e-18,0.9053597095194472,1.2897803779174126e-18,-0.9053597095194473,0.7021609349461142,0.11806795869835975,0.7021609349461142,700.0,6.428571428571418,[0.39673686]
-1.2241743670192776e-18,0.9051144897397847,-4.951214874298949e-18,0.9051144897397847,-1.8156415922191945e-18,-0.00482632006864558,-4.951214874298949e-18,-0.00482632006864558,2.2568001739508756e-18,0.9051273572831152,2.2038888957530058e-18,-0.9051273572831152,0.7022284981910155,0.11726155660224406,0.7022284981910155,700.0,6.428571428571418,[0.39673686]
-1.1237877278798421e-18,0.9029313743155954,-6.707930187631398e-18,0.9029313743155954,-1.6824258089287547e-18,-0.004214376381783575,-6.707930187631398e-18,-0.004214376381783575,3.182527775961021e-18,0.9029412094326722,3.1198054624975027e-18,-0.9029412094326721,0.7022834675858686,0.1166012963527276,0.7022834675858685,700.0,6.428571428571418,[0.39673686]
-1.0744083540328766e-18,0.8983984087124023,-8.468545657552033e-18,0.8983984087124023,-1.5703726144298713e-18,-0.003712171342309461,-8.468545657552033e-18,-0.003712171342309461,4.094689615925296e-18,0.8984060780031773,4.0246317865520954e-18,-0.8984060780031775,0.7023275137032853,0.116069492075753,0.7023275137032853,700.0,6.428571428571418,[0.39673686]
-1.0765788759602157e-18,0.8905139580281592,-1.0232009937502301e-17,0.8905139580281592,-1.5142103595599708e-18,-0.0033263307143897524,-1.0232009937502301e-17,-0.0033263307143897524,5.0065801406486545e-18,0.8905201704167064,4.930060006431327e-18,-0.8905201704167062,0.7023600160713416,0.1156754755707949,0.7023600160713416,700.0,6.428571428571418,[0.39673686]
-1.1764228846178164e-18,0.8769634353651623,-1.1999086101597282e-17,0.8769634353651623,-1.527504806364923e-18,-0.003096520783736536,-1.1999086101597282e-17,-0.003096520783736536,5.902734381398804e-18,0.8769689021900559,5.817914208749849e-18,-0.8769689021900559,0.7023767147920262,0.11547251203607484,0.7023767147920262,700.0,6.428571428571418,[0.39673686]
-1.5009159127550185e-18,0.8517372401872516,-1.3772402516233365e-17,0.8517372401872516,-1.7201386274162723e-18,-0.0031375630270168223,-1.3772402516233365e-17,-0.0031375630270168223,6.772842359020884e-18,0.8517430191222846,6.6712656490495965e-18,-0.8517430191222843,0.7023642333570973,0.11562425092251909,0.7023642333570973,700.0,6.428571428571418,[0.39673686]
-2.3984267297097548e-18,0.7944002459426648,-1.5565185799405267e-17,0.7944002459426648,-2.4149769594057158e-18,-0.0037631843344127416,-1.5565185799405267e-17,-0.0037631843344127416,7.539307914612519e-18,0.794409159256174,7.391622325154786e-18,-0.7944091592561738,0.7022777192111139,0.11667051983800986,0.7022777192111138,700.0,6.428571428571418,[0.39673686]
-5.922269078744856e-18,0.6030107243616503,-1.7370347840444028e-17,0.6030107243616503,-6.90443025086582e-18,-0.0029926672415773055,-1.7370347840444028e-17,-0.0029926672415773055,7.535509501239675e-18,0.6030181504336177,7.362761612560481e-18,-0.6030181504336177,0.702259078813106,0.11689470667714325,0.702259078813106,700.0,6.428571428571418,[0.33638902]
-6.176220144243536e-18,0.6029533114316558,-1.740261739691064e-17,0.6029533114316558,-6.880554509665089e-18,0.003975297296160918,-1.740261739691064e-17,0.003975297296160918,7.695585493380937e-18,0.6029664159428718,7.924475310576187e-18,-0.6029664159428717,0.7021234055228341,0.1185134879835843,0.7021234055228341,700.0,6.428571428571418,[0.33638902]
-3.162450448133134e-18,0.7942281354428828,-1.6279592743145878e-17,0.7942281354428828,-2.339822637671598e-18,0.0047684797922402915,-1.6279592743145878e-17,0.0047684797922402915,8.010853803326948e-18,0.7942424500922924,8.205928258422878e-18,-0.7942424500922924,0.7021726515091066,0.1179285162517611,0.7021726515091066,700.0,6.428571428571418,[0.39673686]
-2.7793533279577747e-18,0.8514506827869522,-1.5139576972418664e-17,0.8514506827869522,-1.596418877557941e-18,0.004165508118086271,-1.5139576972418664e-17,0.004165508118086271,7.560199188163158e-18,0.8514608720758983,7.708047873453083e-18,-0.8514608720758982,0.7022649147713558,0.11682456489266542,0.7022649147713557,700.0,6.428571428571418,[0.39673686]
-2.981211867200315e-18,0.8765627767299967,-1.39801452047633e-17,0.8765627767299967,-1.3668861837418263e-18,0.0041472057450718395,-1.39801452047633e-17,0.0041472057450718395,7.009700564341768e-18,0.8765725873332417,7.141756514155581e-18,-0.8765725873332418,0.7022782080177398,0.11666463511614956,0.7022782080177399,700.0,6.428571428571418,[0.39673686]
-3.391440511467414e-18,0.8899996380664134,-1.2818102027914107e-17,0.8899996380664134,-1.2979721125488085e-18,0.0043998559622837495,-1.2818102027914107e-17,0.0043998559622837495,6.430171209742217e-18,0.8900105136967965,6.556657216091312e-18,-0.8900105136967965,0.7022606669207255,0.1168756236009693,0.7022606669207255,700.0,6.428571428571418,[0.39673686]
-3.90802473017413e-18,0.8977709606781162,-1.1647614164191357e-17,0.8977709606781162,-1.3039410478489911e-18,0.004808625735378921,-1.1647614164191357e-17,0.004808625735378921,5.8349055711694555e-18,0.8977838385259397,5.959413470195514e-18,-0.8977838385259399,0.7022265157286245,0.11728529837652991,0.7022265157286245,700.0,6.428571428571418,[0.39673686]
-4.485383562846342e-18,0.9021914237727755,-1.0479805538472668e-17,0.9021914237727755,-1.3636304008508176e-18,0.005333831908436545,-1.0479805538472668e-17,0.005333831908436545,5.236926780187521e-18,0.9022071906674074,5.360509901494967e-18,-0.9022071906674074,0.702180306011083,0.1178373272794489,0.702180306011083,700.0,6.428571428571418,[0.39673686]
-5.090959180573964e-18,0.9042627533986127,-9.306553650733073e-18,0.9042627533986127,-1.4461102340897051e-18,0.005968830405631559,-9.306553650733073e-18,0.005968830405631559,4.631893792941735e-18,0.9042824526222166,4.754300117937665e-18,-0.9042824526222167,0.7021227580249171,0.11852115982797179,0.7021227580249171,700.0,6.428571428571418,[0.39673686]
-5.746456802630385e-18,0.9043799044255583,-8.130537738976633e-18,0.9043799044255583,-1.5595200047931756e-18,0.006728338326791798,-8.130537738976633e-18,0.006728338326791798,4.014922935095583e-18,0.9044049325746859,4.135337386085196e-18,-0.9044049325746859,0.7020522039796608,0.1193541192192453,0.702052203979661,700.0,6.428571428571418,[0.39673686]
-6.439938558415243e-18,0.9025513739429566,-6.951028643493381e-18,0.9025513739429566,-1.7060302348885679e-18,0.007649373051459804,-6.951028643493381e-18,0.007649373051459804,3.395781555322092e-18,0.9025837886392596,3.512838982722313e-18,-0.9025837886392594,0.7019644366348569,0.12038213903987381,0.701964436634857,700.0,6.428571428571418,[0.39673686]
-7.175745491783212e-18,0.8984018986579304,-5.76572018473552e-18,0.8984018986579304,-1.872617792811847e-18,0.008803070787742765,-5.76572018473552e-18,0.008803070787742765,2.773384392657592e-18,0.8984450264581959,2.8854487339475536e-18,-0.8984450264581959,0.7018511872741678,0.12169561143969865,0.7018511872741678,700.0,6.428571428571418,[0.39673686]
-7.954962863697965e-18,0.8909596349751343,-4.5712209221915826e-18,0.8909596349751343,-2.0874994636184223e-18,0.01032657962205231,-4.5712209221915826e-18,0.01032657962205231,2.139591989874562e-18,0.8910194775658472,2.2441003669141294e-18,-0.8910194775658471,0.7016958899430173,0.12347370600315823,0.7016958899430173,700.0,6.428571428571418,[0.39673686]
-8.862241029325727e-18,0.8779670213000564,-3.363630699273381e-18,0.8779670213000564,-2.3864888591093895e-18,0.012509414733452705,-3.363630699273381e-18,0.012509414733452705,1.4900633031183228e-18,0.8780561348498556,1.5841080887196185e-18,-0.8780561348498553,0.7014614051003962,0.12611024664616385,0.701461405100396,700.0,6.428571428571418,[0.39673686]
-9.954013558777317e-18,0.8535520627704594,-2.120532094200115e-18,0.8535520627704594,-2.8412132028869403e-18,0.016069297017701496,-2.120532094200115e-18,0.016069297017701496,8.063488960064923e-19,0.8537033127301015,8.816666767911642e-19,-0.8537033127301014,0.7010459159215947,0.13064933042042087,0.7010459159215948,700.0,6.428571428571418,[0.39673686]
-1.1616633355119102e-17,0.7977313113028415,-7.835245013643166e-19,0.7977313113028415,-3.814692287298547e-18,0.02329889239333596,-7.835245013643166e-19,0.02329889239333596,2.1705219273391446e-21,0.7980714776382547,3.958451268806561e-20,-0.7980714776382547,0.700049830421559,0.14092717925756218,0.7000498304215591,700.0,6.428571428571418,[0.39673686]
-1.581225224066567e-17,0.6105648065414898,9.387168191690654e-19,0.6105648065414898,-8.581158439735308e-18,0.04098776786259905,9.387168191690654e-19,0.04098776786259905,-1.647426142850411e-18,0.6119390329938149,-1.8171135228084595e-18,-0.611939032993815,0.6957798082267681,0.17827203069422823,0.695779808226768,700.0,6.428571428571418,[0.33763692]
-1.595984773172473e-17,0.6135411095254504,1.8096048281087825e-18,0.6135411095254504,-8.503019650351099e-18,0.04728389102422228,1.8096048281087825e-18,0.04728389102422228,-2.684935624118522e-18,0.6153604305024101,-2.993476591332568e-18,-0.6153604305024102,0.6475077919657996,0.4018299624059277,0.6475077919657997,700.0,19.28571428571425,[0.8678922]
-1.233290559114102e-17,0.8012930071708672,1.260971496568699e-18,0.8012930071708672,-3.574849614327571e-18,0.031042641299042734,1.260971496568699e-18,0.031042641299042734,-2.8309032237320794e-18,0.8018940883431874,-2.944493992419399e-18,-0.8018940883431874,0.6578851988296285,0.3665707712322411,0.6578851988296286,700.0,19.28571428571425,[0.93745811]
-1.1219427842416039e-17,0.85648803444449,1.1241268719309889e-18,0.85648803444449,-2.4396666463291986e-18,0.022744373049224054,1.1241268719309889e-18,0.022744373049224054,-3.847792746690469e-18,0.8567899740613144,-3.91401337477231e-18,-0.8567899740613145,0.6609914690503597,0.3552190249484037,0.6609914690503597,700.0,19.28571428571425,[0.93072213]
-1.0655092141307861e-17,0.880785122399963,1.1139525503965866e-18,0.880785122399963,-1.8308352457105685e-18,0.019168965577124657,1.1139525503965866e-18,0.019168965577124657,-4.994370954807372e-18,0.8809936895814949,-5.044679319310094e-18,-0.8809936895814948,0.6621867965132611,0.35073821155815016,0.6621867965132611,700.0,19.28571428571425,[0.93131634]
-1.0294785501369563e-17,0.8938955597489936,1.1524793146068564e-18,0.8938955597489936,-1.3782814238603568e-18,0.017458482817447645,1.1524793146068564e-18,0.017458482817447645,-6.173506991834362e-18,0.8940660324390215,-6.219760427031148e-18,-0.8940660324390216,0.6627386443742205,0.3486473555127599,0.6627386443742203,700.0,19.28571428571425,[0.93085234]
-1.0040834435870883e-17,0.9015917643495487,1.2109477490245547e-18,0.9015917643495487,-9.984400865760065e-19,0.016688287604143794,1.2109477490245547e-18,0.016688287604143794,-7.379774552953092e-18,0.9017461995961451,-7.425659711535968e-18,-0.901746199596145,0.6629899115075057,0.3476906016540268,0.6629899115075059,700.0,19.28571428571425,[0.93085234]
-9.830293808918986e-18,0.9060969309892907,1.2827445446523198e-18,0.9060969309892907,-6.630944488021087e-19,0.01649735847609768,1.2827445446523198e-18,0.01649735847609768,-8.595266832263013e-18,0.9062471027180723,-8.642417852433702e-18,-0.9062471027180722,0.6630642879469205,0.34740682218241764,0.6630642879469206,700.0,19.28571428571425,[0.93085234]
-9.671845708223228e-18,0.9083772042201266,1.3604424467700382e-18,0.9083772042201266,-3.67903466683985e-19,0.016736573873727355,1.3604424467700382e-18,0.016736573873727355,-9.82161172120963e-18,0.9085313742803848,-9.871036027874168e-18,-0.9085313742803849,0.6630108263469452,0.3476108287920297,0.6630108263469452,700.0,19.28571428571425,[0.93085234]
-9.537273348728201e-18,0.9088206823044899,1.4513669668824796e-18,0.9088206823044899,-9.00766599845745e-20,0.0173613152735249,1.4513669668824796e-18,0.0173613152735249,-1.1051212393047255e-17,0.9089864948680069,-1.110440240962127e-17,-0.908986494868007,0.662843976071611,0.3482466464607441,0.662843976071611,700.0,19.28571428571425,[0.93085234]
-9.452622993561975e-18,0.9074510520333863,1.5565016227379696e-18,0.9074510520333863,1.4976601298640098e-19,0.018401266846311028,1.5565016227379696e-18,0.018401266846311028,-1.2296006718376254e-17,0.907637603043224,-1.2358966790765667e-17,-0.9076376030432237,0.6625543280834061,0.34934728376773194,0.662554328083406,700.0,19.28571428571425,[0.93085234]
-9.3875073357418e-18,0.9039351470981496,1.6697079070107519e-18,0.9039351470981496,3.7007398861132416e-19,0.01996989353797709,1.6697079070107519e-18,0.01996989353797709,-1.3547312609487273e-17,0.9041557093815595,-1.3619753737908383e-17,-0.9041557093815595,0.6621052850536612,0.3510458417472283,0.6621052850536612,700.0,19.28571428571425,[0.93131634]
-9.3875073357418e-18,0.8973903105226615,1.803093262326765e-18,0.8973903105226615,5.393746989437774e-19,0.022320971734064568,1.803093262326765e-18,0.022320971734064568,-1.482032371987168e-17,0.8976678646354187,-1.4902828591869148e-17,-0.8976678646354186,0.6614127832463464,0.3536470844169982,0.6614127832463463,700.0,19.28571428571425,[0.93072213]
-9.454793515489314e-18,0.8857531491851661,1.9718852565824982e-18,0.8857531491851661,6.337924027830302e-19,0.026015875013011964,1.9718852565824982e-18,0.026015875013011964,-1.611178426663847e-17,0.8861351291107532,-1.621591913379782e-17,-0.8861351291107534,0.6602820684974862,0.3578479845428255,0.660282068497486,700.0,19.28571428571425,[0.93072213]
-9.732620322188724e-18,0.8636368369301126,2.2008074911065486e-18,0.8636368369301126,5.5456835243515145e-19,0.032462732559041474,2.2008074911065486e-18,0.032462732559041474,-1.7470530993152775e-17,0.8642467327724477,-1.7628259166312285e-17,-0.8642467327724477,0.6581830052322237,0.3655000181216924,0.6581830052322236,700.0,19.28571428571425,[0.93745811]
-1.050532612832146e-17,0.8125957089752905,2.6169372418636003e-18,0.8125957089752905,-3.4728350837426314e-20,0.046106531305162284,2.6169372418636003e-18,0.046106531305162284,-1.9001834212890542e-17,0.8139026959496135,-1.9268111025419202e-17,-0.8139026959496134,0.6531246491486224,0.38321845643050345,0.6531246491486223,700.0,19.28571428571425,[0.93745811]
-1.3557079958160299e-17,0.6365797808914296,3.743404207747502e-18,0.6365797808914296,-4.41484160020782e-18,0.0772009452867152,3.743404207747502e-18,0.0772009452867152,-2.1639018354607602e-17,0.6412439499854505,-2.2178193294818712e-17,-0.6412439499854504,0.6344549267451448,0.44151318423986635,0.6344549267451448,700.0,19.28571428571425,[1.2482891]
-1.2480501082200083e-17,0.6420059981404788,4.370922445584317e-18,0.6420059981404788,-4.243370367948028e-18,0.08156936411296593,4.370922445584317e-18,0.08156936411296593,-2.2006921821291587e-17,0.6471671057850098,-2.3147220669265816e-17,-0.6471671057850096,0.5465327089368981,0.634510832156703,0.5465327089368981,700.0,32.142857142857125,[1.4240349]
-7.76395693409212e-18,0.8192035781566689,4.109849355011556e-18,0.8192035781566689,4.666622143779161e-19,0.05150222192191721,4.109849355011556e-18,0.05150222192191721,-1.961392139640018e-17,0.8208209191581222,-2.0077152100791564e-17,-0.8208209191581219,0.5739398973981701,0.584111280792587,0.5739398973981701,700.0,32.142857142857125,[1.39857271]
-5.3069261123442086e-18,0.8692429943228573,4.5832944504124066e-18,0.8692429943228573,1.3717698580783394e-18,0.037143975013743336,4.5832944504124066e-18,0.037143975013743336,-1.8352848156616137e-17,0.8700362395091302,-1.8716980305603658e-17,-0.8700362395091303,0.5821174961273332,0.567695729598954,0.5821174961273332,700.0,32.142857142857125,[1.39651806]
-3.3339216803929265e-18,0.8912716663658635,5.253883982744858e-18,0.8912716663658635,1.7754869365634203e-18,0.03071138175296092,5.253883982744858e-18,0.03071138175296092,-1.7292548195110965e-17,0.8918006348034067,-1.7649031822894843e-17,-0.891800634803407,0.5854137852086865,0.5608755656785878,0.5854137852086866,700.0,32.142857142857125,[1.39651806]
-1.5323884807014361e-18,0.9032447206378573,6.0063089746190186e-18,0.9032447206378573,2.009903304716048e-18,0.027368369662790517,6.0063089746190186e-18,0.027368369662790517,-1.6309301762026333e-17,0.9036592571418498,-1.66591158740624e-17,-0.9036592571418498,0.5870560102195028,0.557432042252971,0.5870560102195028,700.0,32.142857142857125,[1.39779338]
1.9100592960584473e-19,0.9103694118500789,6.787764697271341e-18,0.9103694118500789,2.161839839629788e-18,0.02556366509921205,6.787764697271341e-18,0.02556366509921205,-1.53510163311061e-17,0.9107282618902106,-1.5720724804704918e-17,-0.9107282618902103,0.5879286756441753,0.5555895469774182,0.5879286756441751,700.0,32.142857142857125,[1.39779338]
1.860137291729647e-18,0.9146470656210365,7.59584322793868e-18,0.9146470656210365,2.279048023706102e-18,0.02468644381523316,7.59584322793868e-18,0.02468644381523316,-1.44166066413866e-17,0.9149801501439341,-1.481333692137836e-17,-0.9149801501439343,0.5883563816045749,0.55468327579831,0.5883563816045749,700.0,32.142857142857125,[1.39779338]
3.5053929126527186e-18,0.9169499320230412,8.422642510229321e-18,0.9169499320230412,2.357186813090311e-18,0.024474671768632928,8.422642510229321e-18,0.024474671768632928,-1.3490879039376455e-17,0.9172765054198442,-1.3930150027703263e-17,-0.9172765054198443,0.5884734416831061,0.5544348626009008,0.5884734416831061,700.0,32.142857142857125,[1.39779338]
5.120261226593042e-18,0.9176341722169121,9.25639424556847e-18,0.9176341722169121,2.4092793393464505e-18,0.024833260431917973,9.25639424556847e-18,0.024833260431917973,-1.2592282961458049e-17,0.9179701328713793,-1.3082432053225654e-17,-0.9179701328713791,0.5883281076250134,0.5547432519253767,0.5883281076250133,700.0,32.142857142857125,[1.39779338]
6.70040118969594e-18,0.9167339652968047,1.0106085751311516e-17,0.9167339652968047,2.4418371682565377e-18,0.02577870839927743,1.0106085751311516e-17,0.02577870839927743,-1.1691516361612302e-17,0.9170963444129183,-1.2247137593100496e-17,-0.9170963444129185,0.5879131213642269,0.5556224648585977,0.587913121364227,700.0,32.142857142857125,[1.39779338]
8.254494889670767e-18,0.9139724308671805,1.097826250764559e-17,0.9139724308671805,2.4374961244018594e-18,0.027444361590597835,1.097826250764559e-17,0.027444361590597835,-1.0817881285858297e-17,0.9143843816297275,-1.146086392001015e-17,-0.9143843816297271,0.5871633008737708,0.5572059908274818,0.5871633008737709,700.0,32.142857142857125,[1.39779338]
9.760837107244133e-18,0.9085978650667417,1.187441674839574e-17,0.9085978650667417,2.387574120073059e-18,0.03015038478212056,1.187441674839574e-17,0.03015038478212056,-9.970292473232361e-18,0.909097973876497,-1.0728175819676399e-17,-0.9090979738764968,0.5859182045466864,0.5598211456899207,0.5859182045466863,700.0,32.142857142857125,[1.39651806]
1.1182528969651273e-17,0.8988397686567882,1.2807368118695312e-17,0.8988397686567882,2.266024892142067e-18,0.03461884472365652,1.2807368118695312e-17,0.03461884472365652,-9.163943577225869e-18,0.8995061946028999,-1.0130934194068033e-17,-0.8995061946028997,0.5838020848520193,0.5642253551949538,0.5838020848520192,700.0,32.142857142857125,[1.39651806]
1.24870126479821e-17,0.880047997082028,1.3831040522676636e-17,0.880047997082028,1.9708339100239433e-18,0.042669401112944406,1.3831040522676636e-17,0.042669401112944406,-8.45092712409496e-18,0.8810818094589326,-9.733510923193774e-18,-0.8810818094589324,0.579802972056248,0.5724133359640426,0.5798029720562479,700.0,32.142857142857125,[1.39651806]
1.3357391940845098e-17,0.836096243856339,1.509248682091694e-17,0.836096243856339,1.1677407969084598e-18,0.06001899408927345,1.509248682091694e-17,0.06001899408927345,-8.015737477663461e-18,0.8382477012447853,-1.0016206889384499e-17,-0.8382477012447852,0.5702513535484073,0.5912924720917889,0.5702513535484075,700.0,32.142857142857125,[1.39857271]
1.2319882459576985e-17,0.6759423012926489,1.7252291796239847e-17,0.6759423012926489,-3.429424645195849e-18,0.098354548349396,1.7252291796239847e-17,0.098354548349396,-9.044564871222216e-18,0.6830604745246321,-1.3471625035335248e-17,-0.6830604745246316,0.5383152060821053,0.6484084189780084,0.5383152060821054,700.0,32.142857142857125,[1.47464173]
1.2335076113068359e-17,0.6827387387178226,1.7587840920444433e-17,0.6827387387178226,-3.479346649524649e-18,0.09992663191430703,1.7587840920444433e-17,0.09992663191430703,-8.90782198979985e-18,0.6900126934424763,-1.3236176520631471e-17,-0.6900126934424764,0.42231984450594934,0.802054797300622,0.4223198445059493,700.0,45.0,[1.51148812]
1.276918049853619e-17,0.8444281482002923,1.5961679109600923e-17,0.8444281482002923,1.0331684374134328e-18,0.06198783983403207,1.5961679109600923e-17,0.06198783983403207,-6.989080606032046e-18,0.8467002951223441,-9.167043669600627e-18,-0.8467002951223441,0.4620526961391938,0.7569772863045522,0.46205269613919386,700.0,45.0,[1.57322954]
1.13171013291463e-17,0.8871925918064746,1.5240896257698753e-17,0.8871925918064746,1.753781717290029e-18,0.044413027878176484,1.5240896257698753e-17,0.044413027878176484,-6.578851961764948e-18,0.8883035584762665,-8.065205100879503e-18,-0.8883035584762663,0.47437587966772493,0.7415760578517517,0.4743758796677249,700.0,45.0,[1.54500845]
9.493862910181419e-18,0.9059368433776219,1.476294054641765e-17,0.9059368433776219,1.9621518223145867e-18,0.03639740654412047,1.476294054641765e-17,0.03639740654412047,-6.468155343470652e-18,0.9066677094681089,-7.635597094978389e-18,-0.9066677094681093,0.4795248731994718,0.7349229836969727,0.47952487319947196,700.0,45.0,[1.54679082]
7.531711087866832e-18,0.9161755157068265,1.43768589585922e-17,0.9161755157068265,2.0055622608613696e-18,0.03208460811691355,1.43768589585922e-17,0.03208460811691355,-6.467070082506982e-18,0.9167371475284977,-7.467389673343774e-18,-0.9167371475284976,0.4821943290797164,0.7314213956446207,0.4821943290797164,700.0,45.0,[1.54679082]
5.497932041950053e-18,0.922334800448006,1.403445912455445e-17,0.922334800448006,1.964322344241926e-18,0.029603963834942303,1.403445912455445e-17,0.029603963834942303,-6.515906825872113e-18,0.9228097738928667,-7.406465046898739e-18,-0.9228097738928666,0.48370252562837796,0.7294269897676239,0.48370252562837796,700.0,45.0,[1.54679082]
3.4381067329052055e-18,0.926107762542573,1.3713577980561963e-17,0.926107762542573,1.8818425110030384e-18,0.028215816333037703,1.3713577980561963e-17,0.028215816333037703,-6.596216137183661e-18,0.9265374898691099,-7.418883192978102e-18,-0.9265374898691098,0.4845416165169845,0.7283123256723142,0.4845416165169845,700.0,45.0,[1.54679082]
1.350064638804948e-18,0.9282330899777261,1.3416369091339516e-17,0.9282330899777261,1.7668048488540637e-18,0.02759710279206781,1.3416369091339516e-17,0.02759710279206781,-6.70148645065961e-18,0.9286432411922854,-7.48937643429847e-18,-0.9286432411922856,0.4849203371303986,0.7278080332578648,0.48492033713039884,700.0,45.0,[1.54679082]
-7.640237184233789e-19,0.9290162988713071,1.3134845614482606e-17,0.9290162988713071,1.619209357795002e-18,0.02762107926683712,1.3134845614482606e-17,0.02762107926683712,-6.821950417626932e-18,0.9294268166931737,-7.59790951606967e-18,-0.9294268166931738,0.4849199546509545,0.7278085429305102,0.48491995465095455,700.0,45.0,[1.54679082]
-2.895476251070419e-18,0.9284953302455875,1.2870635441436737e-17,0.9284953302455875,1.4629317790265835e-18,0.028287768906336407,1.2870635441436737e-17,0.028287768906336407,-6.967375386758654e-18,0.9289261413899172,-7.744601446215428e-18,-0.9289261413899171,0.4845420541143908,0.728311743410206,0.4845420541143907,700.0,45.0,[1.54679082]
-5.052975046845529e-18,0.9264526732400808,1.261564998658206e-17,0.9264526732400808,1.276266893275417e-18,0.02972396269614792,1.261564998658206e-17,0.02972396269614792,-7.138846619018447e-18,0.9269293768740172,-7.94256335669481e-18,-0.9269293768740169,0.4837092948591547,0.7294180119339794,0.48370929485915465,700.0,45.0,[1.54679082]
-7.223496974184673e-18,0.9222834467903889,1.2399259124747881e-17,0.9222834467903889,1.0288273935587545e-18,0.032252773395711754,1.2399259124747881e-17,0.032252773395711754,-7.351557767897683e-18,0.9228472233340005,-8.228038081578799e-18,-0.9228472233340009,0.48221994436914145,0.731387619874198,0.4822199443691417,700.0,45.0,[1.54679082]
-9.472157690908027e-18,0.9145507966395782,1.2219309291209419e-17,0.9145507966395782,7.032491044578829e-19,0.036613916408162396,1.2219309291209419e-17,0.036613916408162396,-7.618531964960398e-18,0.91528341977162,-8.594565837553059e-18,-0.9152834197716199,0.4795983742666712,0.7348270536674137,0.4795983742666711,700.0,45.0,[1.54679082]
-1.182500346014366e-17,0.8994468973322847,1.2138626921441609e-17,0.8994468973322847,2.1705219273391446e-19,0.04467814330187051,1.2138626921441609e-17,0.04467814330187051,-8.026590087300157e-18,0.9005558603493602,-9.232395688987524e-18,-0.9005558603493601,0.47457841965451025,0.7413168332072698,0.47457841965451025,700.0,45.0,[1.54500845]
-1.4468699167642738e-17,0.8634870279463114,1.2294599270563995e-17,0.8634870279463114,-7.770468499874139e-19,0.06230200171270634,1.2294599270563995e-17,0.06230200171270634,-8.814489546924266e-18,0.8657317060434855,-1.0678971302002759e-17,-0.8657317060434855,0.462721314606307,0.7561600161460682,0.462721314606307,700.0,45.0,[1.57322954]
-1.8618737092715183e-17,0.7207627323298411,1.33488455107562e-17,0.7207627323298411,-5.571729787479584e-18,0.10029088639870838,1.33488455107562e-17,0.10029088639870838,-1.1486402039478753e-17,0.7277067941212427,-1.5527243004975072e-17,-0.7277067941212426,0.4263199484624823,0.797811132465506,0.42631994846248217,700.0,45.0,[1.52392775]
-1.969097492482072e-17,0.7275757049158711,1.2534128235287662e-17,0.7275757049158711,-5.721495800465985e-18,0.09876331227490992,1.2534128235287662e-17,0.09876331227490992,-1.0965476776917359e-17,0.7342483219152345,-1.473446486183808e-17,-0.7342483219152345,0.29225059862732566,0.9105927603511572,0.29225059862732555,700.0,57.8571428571429,[1.556671]
-1.8232384189648815e-17,0.8718711309252329,9.986130500420914e-18,0.8718711309252329,-1.2133217573825818e-18,0.06047814229340087,9.986130500420914e-18,0.06047814229340087,-6.656990751149157e-18,0.873966174766567,-8.119743269248423e-18,-0.8739661747665666,0.33387015319647395,0.8815108857008666,0.33387015319647384,700.0,57.8571428571429,[1.57434143]
-1.8258430452776885e-17,0.9066790906147493,8.332540414440911e-18,0.9066790906147493,-5.25266306416073e-19,0.043178793241581755,8.332540414440911e-18,0.043178793241581755,-4.2542229775847235e-18,0.9077066605152724,-5.115827291350503e-18,-0.9077066605152724,0.34729682290037456,0.8710739541546467,0.3472968229003746,700.0,57.8571428571429,[1.57434143]
-1.854928039104033e-17,0.9217709133018603,6.913968677304322e-18,0.9217709133018603,-3.2774881102821084e-19,0.035178887578794726,6.913968677304322e-18,0.035178887578794726,-2.266024892142067e-18,0.9224419606352627,-2.8104092521571858e-18,-0.9224419606352626,0.3530964423525091,0.8663981791278202,0.3530964423525091,700.0,57.8571428571429,[1.56781557]
-1.895299746952541e-17,0.9300197419763211,5.583150463401951e-18,0.9300197419763211,-3.0387306982748025e-19,0.03076162256529575,5.583150463401951e-18,0.03076162256529575,-4.2759281968581154e-19,0.930528343409567,-8.125858516260399e-19,-0.930528343409567,0.3562050952017809,0.8638494430770794,0.3562050952017809,700.0,57.8571428571429,[1.56165811]
-1.9400124986557275e-17,0.9350095191841794,4.302419586553315e-18,0.9350095191841794,-3.559655960836197e-19,0.02810737815746795,4.302419586553315e-18,0.02810737815746795,1.334870985313574e-18,0.9354318925886148,1.0561925123407925e-18,-0.9354318925886148,0.35804345816409616,0.8623281070055588,0.3580434581640961,700.0,57.8571428571429,[1.56165811]
-1.9864616679007852e-17,0.9380997207314432,3.0380863245776237e-18,0.9380997207314432,-4.558096047412204e-19,0.026494098491146343,3.0380863245776237e-18,0.026494098491146343,3.060435917548194e-18,0.9384737733635768,2.8738347575298657e-18,-0.9384737733635766,0.3591509254787065,0.8614065390137093,0.35915092547870653,700.0,57.8571428571429,[1.56165811]
-2.0337790459167785e-17,0.9398822603928021,1.7947630365704732e-18,0.9398822603928021,-5.86040920381569e-19,0.025601617010978205,1.7947630365704732e-18,0.025601617010978205,4.7491019770180484e-18,0.9402308791965195,4.633202456951082e-18,-0.9402308791965195,0.3597612882375044,0.8608969920794141,0.35976128823750436,700.0,57.8571428571429,[1.56165811]
-2.0841351546310467e-17,0.9406033278745827,5.62977005253271e-19,0.9406033278745827,-7.4665954300466575e-19,0.02529657856035594,5.62977005253271e-19,0.02529657856035594,6.413892295287173e-18,0.9409434293811719,6.3635725400946006e-18,-0.9409434293811717,0.3599712414550531,0.8607214477696115,0.3599712414550531,700.0,57.8571428571429,[1.56165811]
-2.1357935765017183e-17,0.9402971404434658,-6.590483012981541e-19,0.9402971404434658,-9.268128629738148e-19,0.02556247015968235,-6.590483012981541e-19,0.02556247015968235,8.054806872355566e-18,0.9406445408371982,8.066076169567397e-18,-0.9406445408371984,0.3597939233642736,0.8608697145447076,0.3597939233642736,700.0,57.8571428571429,[1.56165811]
-2.1865837896014543e-17,0.9387968657226811,-1.8558110854272063e-18,0.9387968657226811,-1.1308419241436943e-18,0.0264943624418637,-1.8558110854272063e-18,0.0264943624418637,9.658822576659194e-18,0.9391706481422485,9.738508515446188e-18,-0.9391706481422486,0.3591635186349142,0.8613960376990222,0.3591635186349142,700.0,57.8571428571429,[1.56165811]
-2.2421491509413364e-17,0.9356312140274573,-3.037045576270667e-18,0.9356312140274573,-1.3913045554243917e-18,0.028354270221534035,-3.037045576270667e-18,0.028354270221534035,1.12172573204887e-17,0.9360607529975231,1.1370054645329426e-17,-0.936060752997523,0.35789486108375024,0.8624514692547554,0.3578948610837502,700.0,57.8571428571429,[1.56165811]
-2.301187347364961e-17,0.9296716188241955,-4.170530704362986e-18,0.9296716188241955,-1.7342470199439767e-18,0.03175300194357514,-4.170530704362986e-18,0.03175300194357514,1.2688871187224641e-17,0.9302137238181498,1.291952580201964e-17,-0.9302137238181498,0.35554668835013126,0.8643917542448618,0.3555466883501312,700.0,57.8571428571429,[1.56165811]
-2.3641324832577963e-17,0.9178913493409513,-5.244994169304174e-18,0.9178913493409513,-2.2291260193773015e-18,0.03824183341036172,-5.244994169304174e-18,0.03824183341036172,1.398467277784611e-17,0.9186876329947725,1.4348742120219212e-17,-0.9186876329947729,0.3509545541085913,0.8681369718546031,0.3509545541085913,700.0,57.8571428571429,[1.57558094]
-2.4496510471949586e-17,0.8892462648398132,-6.106152983276619e-18,0.8892462648398132,-3.2492713252267e-18,0.052656919195587064,-6.106152983276619e-18,0.052656919195587064,1.4805130066380305e-17,0.8908039462590688,1.5394510053666652e-17,-0.8908039462590691,0.34015404311997327,0.8766929074073038,0.34015404311997327,700.0,57.8571428571429,[1.57434143]
-2.6480367513537567e-17,0.7620707953409538,-6.231619324998357e-18,0.7620707953409538,-8.052636350428227e-18,0.08278194298169839,-6.231619324998357e-18,0.08278194298169839,1.3368244550481793e-17,0.7665538123285406,1.437926653564726e-17,-0.7665538123285403,0.30934569405586887,0.8992277148410107,0.3093456940558688,700.0,57.8571428571429,[1.57258999]
-2.5573089347909805e-17,0.7675492130229542,-6.463364933748204e-18,0.7675492130229542,-8.028760609227496e-18,0.07846534061748775,-6.463364933748204e-18,0.07846534061748775,1.3372585594336472e-17,0.7715494825935499,1.4458522673250538e-17,-0.7715494825935496,0.1644555302380185,0.972578406684142,0.16445553023801848,700.0,70.71428571428567,[1.58487615]
-2.227823706220898e-17,0.8960180970530276,-6.405430651211062e-18,0.8960180970530276,-3.162450448133134e-18,0.04742560696690272,-6.405430651211062e-18,0.04742560696690272,1.5295668021958952e-17,0.8972723212284597,1.5844156016239217e-17,-0.8972723212284592,0.1979390898127702,0.9600209546922319,0.19793908981277017,700.0,70.71428571428567,[1.57878733]
-2.009903304716048e-17,0.9237725264505358,-5.63836311492864e-18,0.9237725264505358,-2.0815305283182397e-18,0.03383610113644194,-5.63836311492864e-18,0.03383610113644194,1.4941872947802672e-17,0.924391996051957,1.5314085090645748e-17,-0.9243919960519571,0.20895583438715826,0.9553402108940734,0.2089558343871583,700.0,70.71428571428567,[1.59211186]
-1.806742452317104e-17,0.9355762541358797,-4.686843607828785e-18,0.9355762541358797,-1.517194827210062e-18,0.02744347531673593,-4.686843607828785e-18,0.02744347531673593,1.4075834698794353e-17,0.9359786705050415,1.432346588096686e-17,-0.9359786705050412,0.21387280137636777,0.9531615024028454,0.21387280137636774,700.0,70.71428571428567,[1.59010528]
-1.6092249569292418e-17,0.9419830973597043,-3.667978570772466e-18,0.9419830973597043,-1.1199893145069986e-18,0.023802763222603922,-3.667978570772466e-18,0.023802763222603922,1.3033984173671565e-17,0.9422837827578345,1.3198283904730906e-17,-0.9422837827578346,0.21660837386307805,0.9519252201432558,0.21660837386307805,700.0,70.71428571428567,[1.59010528]
-1.4177849229379293e-17,0.9458403065026918,-2.6115787658554817e-18,0.9458403065026918,-8.0526363504282275e-19,0.02150578480352981,-2.6115787658554817e-18,0.02150578480352981,1.1896630683745852e-17,0.946084765856169,1.2003795300574613e-17,-0.946084765856169,0.2183107176912945,0.9511471290406253,0.21831071769129448,700.0,70.71428571428567,[1.59010528]
-1.2263448889466167e-17,0.9482144374979435,-1.5343555161980872e-18,0.9482144374979435,-5.296073502707513e-19,0.019991096071594123,-1.5343555161980872e-18,0.019991096071594123,1.0711525711418679e-17,0.9484251490769768,1.0766079197944217e-17,-0.9484251490769766,0.21942253236910828,0.9506353162898248,0.21942253236910822,700.0,70.71428571428567,[1.59010528]
-1.0366412724971755e-17,0.9495664162057748,-4.540460556752573e-19,0.9495664162057748,-2.9519098211812367e-19,0.019004843021387004,-4.540460556752573e-19,0.019004843021387004,9.485180822472062e-18,0.949756580837504,9.495992554954483e-18,-0.9497565808375038,0.22014045282077094,0.9503033000383255,0.2201404528207709,700.0,70.71428571428567,[1.59010528]
-8.460694472767986e-18,0.9500861051321245,6.395069800448528e-19,0.9500861051321245,-7.596826745687006e-20,0.018433480014838723,6.395069800448528e-19,0.018433480014838723,8.22193706076068e-18,0.9502649106173434,8.190725726013077e-18,-0.9502649106173432,0.22055171522948055,0.9501125627096341,0.22055171522948055,700.0,70.71428571428567,[1.59010528]
-6.572340395982931e-18,0.9497971826377054,1.736688857112233e-18,0.9497971826377054,1.1286714022163552e-19,0.01824724104339806,1.736688857112233e-18,0.01824724104339806,6.932647035921229e-18,0.9499724469437092,6.860985687849264e-18,-0.949972446943709,0.22067943309463928,0.9500532488329574,0.22067943309463922,700.0,70.71428571428567,[1.59010528]
-4.692668406907231e-18,0.9485647024943364,2.8541006768305165e-18,0.9485647024943364,2.6914471899005393e-19,0.01849066300598854,2.8541006768305165e-18,0.01849066300598854,5.60862866024435e-18,0.948744907462786,5.4931057157524616e-18,-0.9487449074627861,0.22049033054898404,0.950141057037743,0.2204903305489841,700.0,70.71428571428567,[1.59010528]
-2.821678505540888e-18,0.9460112153470405,3.978193634356391e-18,0.9460112153470405,3.75500293429672e-19,0.019312787676999805,3.978193634356391e-18,0.019312787676999805,4.215153582892619e-18,0.9462083297721707,4.048371955758121e-18,-0.9462083297721706,0.2198712652809852,0.9504279317273231,0.21987126528098516,700.0,70.71428571428567,[1.59010528]
-9.875874769393108e-19,0.9412299686341695,5.130384676519772e-18,0.9412299686341695,4.2325177583113325e-19,0.02107456177983686,5.130384676519772e-18,0.02107456177983686,2.7370281503746614e-18,0.94146587352346,2.5021375946349668e-18,-0.9414658735234601,0.21854381499882897,0.9510400632210588,0.21854381499882897,700.0,70.71428571428567,[1.59010528]
8.2479833238887505e-19,0.9317593442930814,6.325256997519972e-18,0.9317593442930814,2.9519098211812367e-19,0.024700562111101956,6.325256997519972e-18,0.024700562111101956,1.0461915689774677e-18,0.9320866877313916,7.127441539701854e-19,-0.9320866877313918,0.2157735588820502,0.9523043329601881,0.2157735588820502,700.0,70.71428571428567,[1.59010528]
2.4982707383673555e-18,0.9083113417186156,7.642153348122768e-18,0.9083113417186156,-3.494540303016023e-19,0.03304871784183549,7.642153348122768e-18,0.03304871784183549,-1.1937870600365295e-18,0.9089123782002647,-1.746688129760317e-18,-0.9089123782002646,0.20912002189158765,0.9552683564779708,0.20912002189158765,700.0,70.71428571428567,[1.59211186]
3.3078754172648568e-18,0.7917320127390142,9.374755519418683e-18,0.7917320127390142,-4.792512415564831e-18,0.049339372332863604,9.374755519418683e-18,0.049339372332863604,-5.953741646691274e-18,0.7932678952648796,-7.045462640207357e-18,-0.7932678952648796,0.19157806660293383,0.9625984047324012,0.19157806660293383,700.0,70.71428571428567,[1.59273748]
4.725226235817318e-18,0.7947966596844883,9.426881960079937e-18,0.7947966596844883,-4.753443020872727e-18,0.04308482948672912,9.426881960079937e-18,0.04308482948672912,-6.409551251432495e-18,0.7959635875952624,-7.396020270037976e-18,-0.7959635875952622,0.04102035064511778,0.9983159127580323,0.0410203506451178,700.0,83.57142857142856,[1.62936611]
6.487690040816704e-18,0.9121482694366707,8.36107090774363e-18,0.9121482694366707,-2.539510654986799e-19,0.02543445620160997,8.36107090774363e-18,0.02543445620160997,-2.313776374543528e-18,0.912502809309968,-2.7717695027550813e-18,-0.9125028093099681,0.05955461516565276,0.996446935679438,0.05955461516565279,700.0,83.57142857142856,[1.62559605]
7.392797684517127e-18,0.9351556976145255,7.678238275164781e-18,0.9351556976145255,4.514685608865421e-19,0.018241724672825504,7.678238275164781e-18,0.018241724672825504,-7.423184991499875e-19,0.9353335978676,-1.0393122052292672e-18,-0.9353335978675998,0.06545185649549622,0.9957068388650276,0.06545185649549623,700.0,83.57142857142856,[1.62355178]
8.176356100286558e-18,0.9446927843612118,7.091179922629772e-18,0.9446927843612118,6.424744904923868e-19,0.014717171951021981,7.091179922629772e-18,0.014717171951021981,2.6480367513537564e-19,0.9448074152833347,4.5693843451887443e-20,-0.9448074152833345,0.06821595917973723,0.9953357050896833,0.06821595917973722,700.0,83.57142857142856,[1.62355178]
8.944720862564615e-18,0.9497755253697105,6.536543741384392e-18,0.9497755253697105,6.706912755477957e-19,0.012568096808497081,6.536543741384392e-18,0.012568096808497081,1.0548736566868243e-18,0.9498586766717969,8.834624859877224e-19,-0.9498586766717966,0.06986662447787383,0.9951066825060193,0.06986662447787383,700.0,83.57142857142856,[1.62355178]
9.656652054731854e-18,0.9527659412396529,5.996015952666715e-18,0.9527659412396529,6.207692712189954e-19,0.011076712644962242,5.996015952666715e-18,0.011076712644962242,1.7516111953626897e-18,0.9528303271565723,1.6130691503700427e-18,-0.9528303271565722,0.07099701618786512,0.9949466555473414,0.07099701618786512,700.0,83.57142857142856,[1.62355178]
1.0390288466172485e-17,0.9545363531149809,5.4623727881873175e-18,0.9545363531149809,5.230957844887339e-19,0.009953431835157931,5.4623727881873175e-18,0.009953431835157931,2.3919151639277374e-18,0.954588246430546,2.2788909275450722e-18,-0.954588246430546,0.07183993793015503,0.9948256362983329,0.07183993793015503,700.0,83.57142857142856,[1.62355178]
1.1108731224121742e-17,0.9554584329157495,4.946144670734305e-18,0.9554584329157495,3.972055127030635e-19,0.009061031783045266,4.946144670734305e-18,0.009061031783045266,2.986638172018663e-18,0.9555013968209531,2.893464982605114e-18,-0.9555013968209531,0.07250394068418764,0.9947292883847986,0.07250394068418765,700.0,83.57142857142856,[1.62355178]
1.1842367635562373e-17,0.9556798792314993,4.417334308983749e-18,0.9556798792314993,2.4092793393464505e-19,0.008328299682696999,4.417334308983749e-18,0.008328299682696999,3.542291785417484e-18,0.9557161671456318,3.4659290100576664e-18,-0.9557161671456319,0.07304471044612132,0.9946501598811941,0.07304471044612132,700.0,83.57142857142856,[1.62355178]
1.2543446218092918e-17,0.9552091146075622,3.902377981722537e-18,0.9552091146075622,7.162722360219177e-20,0.007718136617988756,3.902377981722537e-18,0.007718136617988756,4.067558091833557e-18,0.955240295560346,4.005093117230031e-18,-0.955240295560346,0.07349090879448161,0.9945844220824709,0.07349090879448164,700.0,83.57142857142856,[1.61956287]
1.3231501669059427e-17,0.9539179838906017,3.38847300101988e-18,0.9539179838906017,-1.3891340334970526e-19,0.00721573188236702,3.38847300101988e-18,0.00721573188236702,4.545072915848169e-18,0.9539452745186741,4.4942879172192405e-18,-0.9539452745186741,0.07385358411019928,0.9945306914460487,0.0738535841101993,700.0,83.57142857142856,[1.61853097]
1.392823920773529e-17,0.9514645529591903,2.874042347037945e-18,0.9514645529591903,-3.906939469210461e-19,0.006827606811491682,2.874042347037945e-18,0.006827606811491682,4.970495213606641e-18,0.9514890497281636,4.929709378917197e-18,-0.9514890497281636,0.07412671497524229,0.9944900503544309,0.0741267149752423,700.0,83.57142857142856,[1.61853097]
1.461412413677446e-17,0.947033482549826,2.36196874421148e-18,0.947033482549826,-7.20613279876596e-19,0.006593247150250409,2.36196874421148e-18,0.006593247150250409,5.285220893070817e-18,0.947056433365212,5.252748150791088e-18,-0.9470564333652117,0.07427711681722289,0.9944676062268903,0.07427711681722288,700.0,83.57142857142856,[1.61853097]
1.5260939671121526e-17,0.9384003405811895,1.8613073387061032e-18,0.9384003405811895,-1.230685932801295e-18,0.0066270668793063335,1.8613073387061032e-18,0.0066270668793063335,5.389405945583096e-18,0.9384237407580412,5.363582822265989e-18,-0.9384237407580411,0.07420673775863348,0.9944781144612702,0.07420673775863347,700.0,83.57142857142856,[1.61853097]
1.5816593284520347e-17,0.9170008880118111,1.3828089969431658e-18,0.9170008880118111,-2.235637585159319e-18,0.007241506710211349,1.3828089969431658e-18,0.007241506710211349,4.8988679900044494e-18,0.9170294804606254,4.8777328836930706e-18,-0.9170294804606253,0.0736196715015804,0.9945653764011689,0.07361967150158041,700.0,83.57142857142856,[1.61853097]
1.560822317949579e-17,0.8039635382374154,9.105678629238858e-19,0.8039635382374154,-7.045514176142863e-18,0.006450732519643195,9.105678629238858e-19,0.006450732519643195,1.803703721618829e-18,0.8039894170729267,1.789994182658414e-18,-0.8039894170729266,0.07353056120702066,0.9945785605658115,0.07353056120702067,700.0,83.57142857142856,[1.61956287]
