stress_11,stress_12,stress_13,stress_21,stress_22,stress_23,stress_31,stress_32,stress_33,tangent_1,tangent_2,tangent_3,burgers_1,burgers_2,burgers_3,e1,e2,e3,anev1,anev2,anev3,temp,miss,velo
7.020336121785729e-17,-0.3851887469219529,-8.5265019844525e-17,-0.3851887469219529,-1.0210135146203336e-17,-0.10644382984654441,-8.5265019844525e-17,-0.10644382984654441,4.8098765909835445e-17,0.33027906195516527,0.0,0.9438833303083682,-1.0000000000000004,-1.655422708293217e-17,0.0,0.39962564941167633,9.373033630925607e-17,-0.39962564941167655,0.40288049541917204,0.8218117867380615,0.4028804954191722,300.0,109.28571428571418,[1.37274344]
-4.5459411246191045e-17,-0.35143447812463946,5.0503568547706764e-17,-0.35143447812463946,-2.7678495617428775e-17,-0.014316463914534037,5.0503568547706764e-17,-0.014316463914534037,-7.775677752499752e-17,0.11196447610330802,-0.0,0.9937122098932425,-1.0000000000000004,-1.655422708293217e-17,-0.0,0.35172596371856574,-8.181345727980683e-17,-0.3517259637185658,0.10770594889366987,0.9883313498750449,0.10770594889366968,300.0,96.42857142857144,[1.09603883]
5.818735182810779e-17,-0.45291297661342433,-6.667354993352201e-17,-0.45291297661342433,-5.955912168618613e-18,-0.17022082096917462,-6.667354993352201e-17,-0.17022082096917462,8.242774071263136e-17,0.5320320765153398,0.0,0.8467241992282821,-1.0000000000000004,-1.655422708293217e-17,0.0,0.4838442851540689,1.2008273751614354e-16,-0.4838442851540693,0.5627901646266593,0.6054208959054809,0.5627901646266592,300.0,122.14285714285737,[1.4065568]
1.9864616679007852e-17,-0.540507629691559,9.996067421119513e-18,-0.540507629691559,-2.918049679114746e-17,-0.19686405038226687,9.996067421119513e-18,-0.19686405038226687,1.8353933417579807e-17,0.7071067811865442,0.0,0.7071067811865506,-1.0000000000000004,-1.655422708293217e-17,0.0,0.5752425158902106,1.109701837265148e-17,-0.5752425158902105,0.64092244549476,0.42241784730528664,0.64092244549476,300.0,134.99999999999974,[0.95704751]
1.5662486227679268e-17,-0.6292286797620548,3.427199860220326e-17,-0.6292286797620548,-3.7589098737659307e-17,-0.1801258691572735,3.427199860220326e-17,-0.1801258691572735,2.9849017544767917e-17,0.8467241992282871,0.0,0.5320320765153319,-1.0000000000000004,-1.655422708293217e-17,0.0,0.6545029107458283,1.2890514544068846e-17,-0.6545029107458277,0.6791391626035116,0.2784600431595206,0.6791391626035116,300.0,147.85714285714317,[0.95636742]
-2.11148373091552e-17,-0.7018262787168049,2.633928358826052e-18,-0.7018262787168049,-2.602021686494167e-17,-0.12440950726880386,2.633928358826052e-18,-0.12440950726880386,3.361704361062867e-17,0.9438833303083684,0.0,0.3302790619551646,-1.0000000000000004,-1.655422708293217e-17,0.0,0.7127677398678651,3.120060462430512e-17,-0.7127677398678651,0.697944374369,0.16045965403592866,0.6979443743690001,300.0,160.7142857142859,[0.36465984]
-6.369613647969454e-17,-0.7455290844983645,-3.878030830290712e-17,-0.7455290844983645,-1.956725517496239e-17,-0.041856619123319554,-3.878030830290712e-17,-0.041856619123319554,2.7428885595784774e-17,0.9937122098932417,0.0,0.11196447610331499,-1.0000000000000004,-1.655422708293217e-17,0.0,0.7467031487796234,3.147923965426612e-17,-0.7467031487796234,0.7059937671817531,0.05608566127837476,0.7059937671817532,300.0,173.57142857142824,[0.3767949]
-9.107944111500519e-17,-0.7523277248643908,-4.601886327296271e-17,-0.7523277248643908,-1.6094420091219757e-17,0.05172414258432072,-4.601886327296271e-17,0.05172414258432072,4.0360855238871394e-18,0.9937122098932417,0.0,-0.11196447610331446,-1.0000000000000004,-1.655422708293217e-17,0.0,0.7541037014401358,-2.701072953289305e-18,-0.7541037014401362,0.7064361639991987,0.04354184640313445,0.7064361639991988,300.0,173.57142857142824,[0.42254795]
-1.0425016817009913e-16,-0.7200129175783657,-7.171757157741726e-17,-0.7200129175783657,1.6360309027318804e-18,0.13908903033130873,-7.171757157741726e-17,0.13908903033130873,-1.8181105609115428e-17,0.9438833303083684,0.0,-0.3302790619551646,-1.0000000000000004,-1.655422708293217e-17,0.0,0.7333241846811099,-4.6999795885990704e-17,-0.7333241846811097,0.6996070491038006,0.14525823105265231,0.6996070491038002,300.0,160.7142857142859,[0.36958373]
-7.200760756995796e-17,-0.6542935841048664,-1.0217308042885091e-16,-0.6542935841048664,-5.297226592481412e-18,0.203752763522982,-1.0217308042885091e-16,0.203752763522982,-1.5585704014499647e-18,0.8467241992282853,0.0,-0.5320320765153347,-1.0000000000000004,-1.655422708293217e-17,0.0,0.6852848187754087,-7.036764408182152e-17,-0.6852848187754079,0.6835027369374728,0.25621869018080534,0.6835027369374728,300.0,147.85714285714297,[0.73481526]
-9.219007005370054e-17,-0.5679965431997314,-1.4177689831675254e-16,-0.5679965431997314,-1.9718055577304787e-17,0.2331071815320194,-1.4177689831675254e-16,0.2331071815320194,-3.274018666638877e-17,0.7071067811865482,0.0,-0.7071067811865467,-1.0000000000000004,-1.655422708293217e-17,0.0,0.6139698943504038,-1.448181525779424e-16,-0.6139698943504036,0.6523965849981452,0.38569079813435464,0.6523965849981452,300.0,135.00000000000009,[0.95471171]
-4.3618333850135845e-17,-0.47808979310270205,-6.660935844324121e-17,-0.47808979310270205,-8.505720084858355e-18,0.22122622669150765,-6.660935844324121e-17,0.22122622669150765,-3.9489475471057514e-17,0.5320320765153336,0.0,-0.846724199228286,-1.0000000000000004,-1.655422708293217e-17,0.0,0.5267930273315571,-8.878734236619817e-17,-0.5267930273315568,0.5928563534715977,0.5450162275535655,0.5928563534715978,300.0,122.14285714285697,[1.38432771]
-2.255474120710892e-17,-0.4023059199757473,9.766924742962217e-18,-0.4023059199757473,-5.821722406006286e-18,0.17025267161763902,9.766924742962217e-18,0.17025267161763902,-4.864981564273995e-17,0.33027906195517387,0.0,-0.9438833303083651,-1.0000000000000004,-1.655422708293217e-17,0.0,0.4368478287006543,-3.8189549125263677e-17,-0.43684782870065403,0.47519216959208294,0.7405300830599242,0.4751921695920829,300.0,109.2857142857147,[1.39832345]
-7.306539786548464e-17,-0.35594868869107893,-2.2181095077796375e-17,-0.35594868869107893,-1.948038925529953e-17,0.09013091929356021,-2.2181095077796375e-17,0.09013091929356021,-9.326491081639862e-18,0.11196447610330278,0.0,-0.993712209893243,-1.0000000000000004,-1.655422708293217e-17,0.0,0.36718258617968363,-2.3952338305828774e-17,-0.3671825861796839,0.24922806762359856,0.9358262342001392,0.24922806762359836,300.0,96.42857142857113,[1.39894046]
-7.208250753365372e-17,-0.34891924894575943,4.0303040186664733e-17,-0.34891924894575943,-2.5968516473994668e-17,-0.0032991332292797737,4.0303040186664733e-17,-0.0032991332292797737,-4.582922663746337e-17,-0.11196447610330278,0.0,-0.993712209893243,-1.0000000000000004,-1.655422708293217e-17,0.0,0.3489348457304563,-4.659367771757046e-17,-0.34893484573045636,0.08581086577434949,0.9926091832287837,0.08581086577434932,300.0,83.57142857142887,[1.09342071]
-5.844269338421617e-17,-0.383451267516809,4.7696003733819374e-17,-0.383451267516809,-2.2513119753431935e-17,-0.09149788565024689,4.7696003733819374e-17,-0.09149788565024689,-5.659050054188464e-17,-0.33027906195517537,0.0,-0.9438833303083647,-1.0000000000000004,-1.655422708293217e-17,0.0,0.39421661258591456,-7.970688500557358e-17,-0.39421661258591456,0.38207493830844996,0.8414496319050765,0.38207493830844996,300.0,70.71428571428521,[1.32367071]
-8.111376100086842e-17,-0.45344057552309897,8.602466224573762e-18,-0.45344057552309897,-1.9980765037924332e-17,-0.15694488043249225,8.602466224573762e-18,-0.15694488043249225,-6.783250689950577e-17,-0.5320320765153308,0.0,-0.8467241992282878,-1.0000000000000004,-1.655422708293217e-17,0.0,0.4798333575572758,-7.308667365400483e-17,-0.4798333575572758,0.5513427848252365,0.6261327872283212,0.5513427848252365,300.0,57.85714285714325,[1.45640096]
-6.024202214757521e-17,-0.5454768524281486,2.7319647296910408e-17,-0.5454768524281486,-1.848368993154855e-17,-0.18657482331325298,2.7319647296910408e-17,-0.18657482331325298,-1.1104756455842302e-16,-0.7071067811865515,0.0,-0.7071067811865436,-1.0000000000000004,-1.655422708293217e-17,0.0,0.576502524911463,-1.2200528056818927e-16,-0.5765025249114639,0.6349076058720032,0.44020979545185246,0.634907605872003,300.0,44.99999999999968,[1.34838278]
-4.8631629042997205e-17,-0.6413624199884844,1.2898462210833327e-17,-0.6413624199884844,-1.440195561837706e-17,-0.17434002455748038,1.2898462210833327e-17,-0.17434002455748038,-5.402157761906214e-17,-0.8467241992282825,0.0,-0.5320320765153392,-1.0000000000000004,-1.655422708293217e-17,0.0,0.6646353872133104,-6.166427808059254e-17,-0.6646353872133111,0.6764410668853265,0.2912987573987955,0.6764410668853266,300.0,32.142857142857316,[0.95384473]
-3.784087928123065e-17,-0.7219741644629619,3.838907172550424e-17,-0.7219741644629619,2.9367161676898627e-18,-0.1224825049746971,3.838907172550424e-17,-0.1224825049746971,-4.3755551533229816e-17,-0.9438833303083674,0.0,-0.33027906195516743,-1.0000000000000004,-1.655422708293217e-17,0.0,0.7322900096115399,-5.689353008176705e-17,-0.73229000961154,0.6970864267191317,0.167752875885648,0.6970864267191317,300.0,19.285714285714285,[0.37041337]
-5.94636187213832e-17,-0.7714907366206234,1.0758069840998059e-16,-0.7714907366206234,-8.048295306573548e-18,-0.04120892325968703,1.0758069840998059e-16,-0.04120892325968703,-1.2294921457412585e-16,-0.9937122098932425,0.0,-0.1119644761033075,-1.0000000000000004,-1.655422708293217e-17,0.0,0.7725905332371439,-1.3422011749644297e-16,-0.7725905332371442,0.7058832564442911,0.058801841324961884,0.7058832564442911,300.0,6.428571428571361,[0.37712972]
-4.1274644970281174e-17,-0.7804102467074211,1.087735358666739e-16,-0.7804102467074211,-1.430808054501964e-17,0.05316664009529617,1.087735358666739e-16,0.05316664009529617,-1.2717087972280048e-16,-0.9937122098932426,0.0,0.111964476103307,-1.0000000000000004,-1.655422708293217e-17,0.0,0.7822191795046707,-1.1202465157650627e-16,-0.7822191795046708,0.7064168549596902,0.0441639452236766,0.7064168549596903,300.0,6.4285714285713045,[0.42291128]
-1.1981281038912078e-18,-0.7465400286300562,6.063108820305075e-17,-0.7465400286300562,-1.210283026684307e-17,0.14111966907360635,6.063108820305075e-17,0.14111966907360635,-6.019291408896916e-17,-0.9438833303083677,0.0,0.33027906195516665,-1.0000000000000004,-1.655422708293217e-17,0.0,0.7597609988321385,-3.5100474127095333e-17,-0.759760998832139,0.6991908007241994,0.14921276207250395,0.6991908007241996,300.0,19.285714285714267,[0.39563388]
-7.938901001435655e-17,-0.6760074268074622,4.279048322128665e-17,-0.6760074268074622,-1.8162927487973962e-17,0.20393962478491745,4.279048322128665e-17,0.20393962478491745,-9.868929099225623e-17,-0.8467241992282846,0.0,0.532032076515336,-1.0000000000000004,-1.655422708293217e-17,0.0,0.706100142795807,-7.40723460819384e-17,-0.7061001427958072,0.6818649733050227,0.26480241003337085,0.6818649733050228,300.0,32.142857142857096,[0.71371031]
-1.235287439287254e-16,-0.5831613506757649,-2.4964529262532092e-17,-0.5831613506757649,-7.518687956302797e-18,0.2287035118456059,-2.4964529262532092e-17,0.2287035118456059,-1.0489698370444619e-16,-0.7071067811865471,0.0,0.7071067811865479,-1.0000000000000004,-1.655422708293217e-17,0.0,0.6264043879575676,-1.2702210197205694e-16,-0.6264043879575688,0.648035740273554,0.4001241790447229,0.648035740273554,300.0,45.00000000000003,[0.96654431]
-9.366236220853877e-17,-0.4875256182891461,-4.4905716189687596e-17,-0.4875256182891461,-9.619753181967089e-18,0.21167931548991267,-4.4905716189687596e-17,0.21167931548991267,-2.1045380607480346e-17,-0.5320320765153356,0.0,0.8467241992282849,-1.0000000000000004,-1.655422708293217e-17,0.0,0.5314972823020753,-6.646401129805305e-17,-0.5314972823020757,0.5835333970688334,0.5647809743702549,0.5835333970688332,300.0,57.85714285714292,[1.33791817]
1.4238623843344789e-18,-0.4082192988874751,8.9546238688581e-17,-0.4082192988874751,-2.3788920323637025e-18,0.15730291057117748,8.9546238688581e-17,0.15730291057117748,-2.0472362818662812e-17,-0.3302790619551682,0.0,0.9438833303083671,-1.0000000000000004,-1.655422708293217e-17,0.0,0.4374782299250395,4.3399372866702943e-17,-0.4374782299250395,0.4579077730676325,0.7619979939136866,0.45790777306763286,300.0,70.71428571428564,[1.36704163]
-5.737123558342827e-17,-0.36009461967235074,1.5973359230722417e-16,-0.36009461967235074,-1.0418505251227894e-17,0.07524936959249771,1.5973359230722417e-16,0.07524936959249771,-1.092553917345432e-16,-0.11196447610330784,0.0,0.9937122098932425,-1.0000000000000004,-1.655422708293217e-17,0.0,0.3678730796634123,-4.285306485679525e-17,-0.36787307966341215,0.2212278323365201,0.9497981324467683,0.22122783233652074,300.0,83.57142857142857,[1.41194908]
