stress_11,stress_12,stress_13,stress_21,stress_22,stress_23,stress_31,stress_32,stress_33,tangent_1,tangent_2,tangent_3,burgers_1,burgers_2,burgers_3,e1,e2,e3,anev1,anev2,anev3,temp,miss,velo
-3.524927609998771e-18,0.014971253078048974,-6.144862885274508e-17,0.014971253078048974,5.747542063594055e-18,-0.10644382984654539,-6.144862885274508e-17,-0.10644382984654539,-2.535169611132121e-18,0.33027906195516527,0.0,0.9438833303083682,-1.0000000000000004,-1.655422708293217e-17,0.0,0.10749152213606109,-1.2075856396281574e-17,-0.10749152213606102,0.6283936231213706,0.4585225281715097,0.628393623121371,100.0,109.28571428571418,[0.39603874]
-7.376301717869349e-17,0.04872552187535821,1.0278655810297025e-16,0.04872552187535821,-7.813878938420922e-19,-0.01431646391453333,1.0278655810297025e-16,-0.01431646391453333,-1.2674111638118733e-16,0.11196447610330802,-0.0,0.9937122098932425,-1.0000000000000004,-1.655422708293217e-17,-0.0,0.0507852106527298,-6.682098234544816e-17,-0.05078521065272993,0.1221216794580095,0.9849733959923535,0.12212167945801243,100.0,96.42857142857144,[0.33385772]
-2.0385541941569246e-17,-0.05275297661342256,-7.489433390450879e-17,-0.05275297661342256,-7.987520692608052e-18,-0.1702208209691761,-7.489433390450879e-17,-0.1702208209691761,-1.9543379433761658e-17,0.5320320765153398,0.0,0.8467241992282821,-1.0000000000000004,-1.655422708293217e-17,0.0,0.17820775637720315,1.9301949278129244e-17,-0.17820775637720324,0.6832543047926628,0.2575405016004074,0.6832543047926631,100.0,122.14285714285737,[0.38914675]
-1.0717169068429762e-16,-0.14034762969156594,-1.4429629772950633e-17,-0.14034762969156594,-3.9590319954666e-18,-0.19686405038226648,-1.4429629772950633e-17,-0.19686405038226648,-9.031975844043649e-17,0.7071067811865442,0.0,0.7071067811865506,-1.0000000000000004,-1.655422708293217e-17,0.0,0.24177036934445145,-9.78381586075872e-17,-0.24177036934445156,0.6973800821584663,0.16529380513891379,0.6973800821584665,100.0,134.99999999999974,[0.39029443]
1.3648241879108543e-17,-0.22906867976205308,-7.092180397580655e-17,-0.22906867976205308,3.950349907757243e-18,-0.1801258691572743,-7.092180397580655e-17,-0.1801258691572743,9.59370691883902e-19,0.8467241992282871,0.0,0.5320320765153319,-1.0000000000000004,-1.655422708293217e-17,0.0,0.29140656956834987,7.827653143312907e-17,-0.2914065695683496,0.7031859092734005,0.10516251232583744,0.7031859092734006,100.0,147.85714285714317,[0.26814366]
-3.068249796486615e-17,-0.3016662787167958,6.096589121034281e-17,-0.3016662787167958,-9.480839778617384e-18,-0.1244095072688046,6.096589121034281e-17,-0.1244095072688046,-1.0845229862142771e-16,0.9438833303083684,0.0,0.3302790619551646,-1.0000000000000004,-1.655422708293217e-17,0.0,0.32631314594068417,-1.3902152902691767e-16,-0.32631314594068417,0.7060546825220475,0.05453045550315775,0.7060546825220472,100.0,160.7142857142859,[0.22748167]
-1.753781717290029e-18,-0.3453690844983615,-4.852364557711208e-17,-0.3453690844983615,-3.0210409445669884e-17,-0.041856619123318776,-4.852364557711208e-17,-0.041856619123318776,3.0845287109416584e-17,0.9937122098932417,0.0,0.11196447610331499,-1.0000000000000004,-1.655422708293217e-17,0.0,0.34789622172663925,4.185306060203124e-17,-0.34789622172663914,0.707081799234345,0.008405854093609836,0.707081799234345,100.0,173.57142857142824,[0.21779975]
8.798861789047424e-17,-0.35216772486438713,-3.283884367086736e-17,-0.35216772486438713,-2.963630639588868e-17,0.0517241425843204,-3.283884367086736e-17,0.0517241425843204,1.063306134374537e-16,0.9937122098932417,0.0,-0.11196447610331446,-1.0000000000000004,-1.655422708293217e-17,0.0,0.3559459135349666,9.655025233423466e-17,-0.3559459135349665,0.7067069292541676,0.03362487603382781,0.7067069292541673,100.0,173.57142857142824,[0.20491189]
6.938833023414144e-17,-0.3198529175783622,7.910724913666384e-17,-0.3198529175783622,2.681272868366137e-18,0.13908903033131148,7.910724913666384e-17,0.13908903033131148,-6.582623243613699e-17,0.9438833303083684,0.0,-0.3302790619551646,-1.0000000000000004,-1.655422708293217e-17,0.0,0.3487859619335261,1.6690039478539663e-17,-0.3487859619335262,0.7051931158729358,0.07352100822785737,0.7051931158729355,100.0,160.7142857142859,[0.23735705]
7.538222653648849e-17,-0.2541335841048418,-5.876728815556872e-17,-0.2541335841048418,8.763210966390879e-18,0.20375276352292793,-5.876728815556872e-17,0.20375276352292793,3.647331480938653e-17,0.8467241992282853,0.0,-0.5320320765153347,-1.0000000000000004,-1.655422708293217e-17,0.0,0.32572851765420063,1.7827274364300278e-17,-0.3257285176542006,0.7024514946592574,0.11455913451990807,0.7024514946592573,100.0,147.85714285714297,[0.33533619]
-2.9588012283005385e-17,-0.16783654319969699,-4.291274465172505e-17,-0.16783654319969699,-4.774792138892414e-18,0.23310718153196025,-4.291274465172505e-17,0.23310718153196025,3.4686568290325035e-17,0.7071067811865482,0.0,-0.7071067811865467,-1.0000000000000004,-1.655422708293217e-17,0.0,0.2872421684136888,-4.3233592002193235e-17,-0.2872421684136888,0.6979193322239063,0.1606773519083306,0.6979193322239061,100.0,135.00000000000009,[0.37718161]
-1.3095606647764926e-16,-0.07792979310267374,-5.46156032621979e-17,-0.07792979310267374,-1.7813774448017753e-17,0.22122622669151712,-5.46156032621979e-17,0.22122622669151712,-9.396014764264816e-17,0.5320320765153336,0.0,-0.846724199228286,-1.0000000000000004,-1.655422708293217e-17,0.0,0.2345508389010623,-1.5231438054903442e-16,-0.2345508389010623,0.689705505947581,0.22048272070886255,0.6897055059475811,100.0,122.14285714285697,[0.52211475]
-1.4372687486763096e-16,-0.00214591997574703,-1.6195400444413732e-16,-0.00214591997574703,-2.7069268902025527e-17,0.1702526716176668,-1.6195400444413732e-16,0.1702526716176668,-5.173878205359087e-17,0.33027906195517387,0.0,-0.9438833303083651,-1.0000000000000004,-1.655422708293217e-17,0.0,0.1702661950167895,-1.3877787807814457e-16,-0.17026619501678958,0.6703167056933508,0.3183567623544817,0.6703167056933504,100.0,109.2857142857147,[0.32112958]
-2.0021967648698152e-16,0.044211311308906265,-8.259885001459907e-17,0.044211311308906265,-3.0013320649559175e-17,0.09013091929357613,-8.259885001459907e-17,0.09013091929357613,-4.230296364776321e-17,0.11196447610330278,0.0,-0.993712209893243,-1.0000000000000004,-1.655422708293217e-17,0.0,0.10039035143059387,-1.0181213442304634e-16,-0.10039035143059402,0.5959855913411044,0.5381471451448835,0.5959855913411041,100.0,96.42857142857113,[0.42044001]
-1.3403771585559669e-16,0.051240751054235374,-2.9586279998781637e-17,0.051240751054235374,-1.8803011012905764e-17,-0.003299133229278019,-2.9586279998781637e-17,-0.003299133229278019,-8.021257894956002e-17,-0.11196447610330278,0.0,-0.993712209893243,-1.0000000000000004,-1.655422708293217e-17,0.0,0.05134684847842796,-8.422679661136373e-17,-0.05134684847842813,0.03385996018953865,0.9988528451137962,0.033859960189539594,100.0,83.57142857142887,[0.31800644]
1.0795084022740214e-16,0.0167087324831811,-8.918484784750419e-17,0.0167087324831811,-8.546773472249668e-18,-0.09149788565024619,-8.918484784750419e-17,-0.09149788565024619,5.0866537468446564e-17,-0.33027906195517537,0.0,-0.9438833303083647,-1.0000000000000004,-1.655422708293217e-17,0.0,0.09301099300437582,7.884621921029905e-17,-0.09301099300437574,0.614614396859138,0.49446767977993794,0.6146143968591384,100.0,70.71428571428521,[0.42924927]
6.168853935452629e-17,-0.05328057552310089,-6.264692228936122e-17,-0.05328057552310089,-1.678085612934204e-17,-0.15694488043249405,-6.264692228936122e-17,-0.15694488043249405,2.311268404285298e-17,-0.5320320765153308,0.0,-0.8467241992282878,-1.0000000000000004,-1.655422708293217e-17,0.0,0.165742315725474,1.0227419767197282e-16,-0.16574231572547402,0.687881491852429,0.23159902058029747,0.6878814918524291,100.0,57.85714285714325,[0.30861047]
-1.177491866667031e-16,-0.14531685242814985,3.030812956470718e-17,-0.14531685242814985,-3.8329382372502414e-17,-0.1865748233132529,3.030812956470718e-17,-0.1865748233132529,-8.943038708070927e-17,-0.7071067811865515,0.0,-0.7071067811865436,-1.0000000000000004,-1.655422708293217e-17,0.0,0.2364892223632953,-1.382059558209701e-16,-0.2364892223632955,0.7017057107819263,0.12336203189013802,0.7017057107819261,100.0,44.99999999999968,[0.27531203]
1.7263246149091887e-17,-0.24120241998848688,5.805820577343111e-17,-0.24120241998848688,-5.0721027713302055e-17,-0.17434002455748085,5.805820577343111e-17,-0.17434002455748085,4.325795938138732e-17,-0.8467241992282825,0.0,-0.5320320765153392,-1.0000000000000004,-1.655422708293217e-17,0.0,0.2976122503711926,-2.3914985497320045e-17,-0.2976122503711926,0.7056198292209978,0.06481753790649628,0.7056198292209975,100.0,32.142857142857316,[0.16816305]
9.31153906828493e-18,-0.3218141644629522,4.5039449167656035e-17,-0.3218141644629522,-1.7259990366200878e-17,-0.12248250497469956,4.5039449167656035e-17,-0.12248250497469956,-1.978864841155098e-17,-0.9438833303083674,0.0,-0.33027906195516743,-1.0000000000000004,-1.655422708293217e-17,0.0,0.3443346053969384,-5.056083951105616e-17,-0.34433460539693866,0.7068476786673489,0.027068770292710178,0.7068476786673491,100.0,19.285714285714285,[0.17170014]
-9.503413206661711e-17,-0.3713307366206167,1.6079090780107925e-17,-0.3713307366206167,4.8706512049490405e-18,-0.041208923259689674,1.6079090780107925e-17,-0.041208923259689674,-1.8017068414456772e-16,-0.9937122098932425,0.0,-0.1119644761033075,-1.0000000000000004,-1.655422708293217e-17,0.0,0.3736103469062825,-1.8270232241661424e-16,-0.3736103469062826,0.7071057884744062,0.0016756527014290031,0.7071057884744065,100.0,6.428571428571361,[0.26609099]
-3.4728350837426314e-17,-0.3802502467074244,1.6644376084559313e-17,-0.3802502467074244,-1.936105559186517e-18,0.053166640095295294,1.6644376084559313e-17,0.053166640095295294,-7.814747147191856e-17,-0.9937122098932426,0.0,0.111964476103307,-1.0000000000000004,-1.655422708293217e-17,0.0,0.383949139522515,-7.252977349766242e-17,-0.38394913952251497,0.7068543777549668,0.02671661088679955,0.706854377754967,100.0,6.4285714285713045,[0.29766851]
1.210283026684307e-17,-0.34638002863005674,-5.90892036889172e-17,-0.34638002863005674,-4.002442434013383e-18,0.14111966907360585,-5.90892036889172e-17,0.14111966907360585,3.083009345592521e-17,-0.9438833303083677,0.0,0.33027906195516665,-1.0000000000000004,-1.655422708293217e-17,0.0,0.37402390997528906,-1.2996290874638532e-17,-0.3740239099752887,0.7062131175981643,0.05025997477678089,0.7062131175981643,100.0,19.285714285714267,[0.29421298]
4.0076516866389966e-17,-0.2758474268074341,-5.3821346971265106e-17,-0.2758474268074341,3.785390241279468e-18,0.20393962478488437,-5.3821346971265106e-17,0.20393962478488437,-6.815438851844915e-18,-0.8467241992282846,0.0,0.532032076515336,-1.0000000000000004,-1.655422708293217e-17,0.0,0.3430498118840506,-5.387637456789213e-17,-0.3430498118840499,0.7050853301868077,0.07556026939285379,0.7050853301868077,100.0,32.142857142857096,[0.17056853]
-3.163752761289537e-17,-0.18300135067574183,-1.2765110769922428e-17,-0.18300135067574183,1.4238623843344789e-18,0.2287035118455687,-1.2765110769922428e-17,0.2287035118455687,-3.438106732905205e-17,-0.7071067811865471,0.0,0.7071067811865479,-1.0000000000000004,-1.655422708293217e-17,0.0,0.2929074780193259,-4.8375749631108596e-17,-0.29290747801932615,0.7027899480499881,0.11032940605201194,0.7027899480499883,100.0,45.00000000000003,[0.19691631]
-2.103496210222912e-16,-0.08736561828914081,-1.2784416545033957e-17,-0.08736561828914081,-1.6079226437728383e-17,0.21167931548990404,-1.2784416545033957e-17,0.21167931548990404,-7.78609625775098e-17,-0.5320320765153356,0.0,0.8467241992282849,-1.0000000000000004,-1.655422708293217e-17,0.0,0.22899974643068535,-2.0760061276896042e-16,-0.22899974643068538,0.6969650794767408,0.16875827677468277,0.696965079476741,100.0,57.85714285714292,[0.3785652]
-2.198304608009086e-16,-0.008059298887466992,2.5192027092041326e-17,-0.008059298887466992,-1.9482604819796162e-17,0.15730291057117463,2.5192027092041326e-17,0.15730291057117463,-4.92274373120518e-17,-0.3302790619551682,0.0,0.9438833303083671,-1.0000000000000004,-1.655422708293217e-17,0.0,0.157509231388895,-2.0816681711721685e-16,-0.15750923138889505,0.6785017520617533,0.2815506080587668,0.6785017520617537,100.0,70.71428571428564,[0.36658596]
-6.101771242135803e-17,0.04006538032764416,2.5421152812996065e-17,0.04006538032764416,-1.3266230019896853e-17,0.07524936959249942,2.5421152812996065e-17,0.07524936959249942,-2.828624175708373e-17,-0.11196447610330784,0.0,0.9937122098932425,-1.0000000000000004,-1.655422708293217e-17,0.0,0.08525082008325405,-6.843193656492002e-17,-0.08525082008325408,0.5830179754757991,0.5658445727796643,0.583017975475799,100.0,83.57142857142857,[0.3944659]
