stress_11,stress_12,stress_13,stress_21,stress_22,stress_23,stress_31,stress_32,stress_33,e1,e2,e3,anev1,anev2,anev3,temp,miss,velo
-2.8303605932502446e-17,-0.2351287469219565,5.215357218534589e-17,-0.2351287469219565,-1.1373534899257118e-17,-0.10644382984654173,5.215357218534589e-17,-0.10644382984654173,-8.47371760433202e-18,0.2581004001188083,-4.806868860738444e-17,-0.2581004001188086,0.4880115735832875,0.7236638778449059,0.48801157358328734,300.0,109.28571428571418,[0.78861469]
-8.081287239869103e-17,-0.20137447812464068,5.571485603762759e-17,-0.20137447812464068,-2.4622400743735257e-17,-0.014316463914533185,5.571485603762759e-17,-0.014316463914533185,-7.242597567145258e-17,0.20188274215243737,-8.035501928673809e-17,-0.20188274215243746,0.1288005210326428,0.9832704874872628,0.12880052103264247,300.0,96.42857142857144,[1.04974045]
-9.550296480292236e-19,-0.30285297661343147,-7.348858181250555e-17,-0.30285297661343147,3.4901992591613445e-18,-0.1702208209691721,-7.348858181250555e-17,-0.1702208209691721,1.1607951267409745e-17,0.3474119360860168,7.589692678915905e-17,-0.3474119360860169,0.6213076952710823,0.4774447565885204,0.6213076952710824,300.0,122.14285714285737,[0.78486845]
9.203012971917973e-18,-0.39044762969156166,-1.1145792886031058e-16,-0.39044762969156166,-1.3474600124921411e-17,-0.19686405038226593,-1.1145792886031058e-16,-0.19686405038226593,-2.9267317668241026e-17,0.4372697175253168,7.445413805005889e-17,-0.43726971752531657,0.6715668345359668,0.31304308569697264,0.671566834535967,300.0,134.99999999999974,[0.95506918]
2.0533137432628308e-17,-0.47916867976205196,-2.1303401401592787e-17,-0.47916867976205196,-2.0498409081790882e-17,-0.18012586915727302,-2.1303401401592787e-17,-0.18012586915727302,-8.998983910748094e-18,0.5119061949269328,8.38579121802182e-18,-0.511906194926933,0.6928104705792002,0.20006824763478753,0.6928104705792002,300.0,147.85714285714317,[0.54072529]
3.826196053513444e-17,-0.5517662787168098,-6.716083210620965e-17,-0.5517662787168098,-1.3800178414022283e-17,-0.12440950726879982,-6.716083210620965e-17,-0.12440950726879982,2.975785562381967e-17,0.5656180264346794,5.864521774755818e-17,-0.5656180264346795,0.7024497533648906,0.11458048697404159,0.7024497533648908,300.0,160.7142857142859,[0.35223284]
1.0842625235829964e-16,-0.5954690844983682,-1.1716070390915327e-16,-0.5954690844983682,-1.2442516948471648e-17,-0.04185661912331454,-1.1716070390915327e-16,-0.04185661912331454,7.268426778080594e-17,0.5969383612717142,8.9243704567766e-17,-0.5969383612717141,0.7064825120501977,0.04201095493421782,0.7064825120501977,300.0,173.57142857142824,[0.3416702]
1.686647474077429e-16,-0.6022677248643846,-7.229872882346232e-17,-0.6022677248643846,-1.479319219577994e-17,0.05172414258432121,-7.229872882346232e-17,0.05172414258432121,1.8824176993137833e-16,0.6044847387150525,1.7570529999702807e-16,-0.604484738715052,0.706857994542924,0.02652453772473997,0.7068579945429239,300.0,173.57142857142824,[0.34007234]
5.872021496126955e-17,-0.5699529175783596,-2.7638951421065065e-17,-0.5699529175783596,-1.578403545561026e-17,0.1390890303313093,-2.7638951421065065e-17,0.1390890303313093,1.2152019720021394e-16,0.586678861571293,1.0495879859538967e-16,-0.586678861571293,0.7037662421834415,0.09708837585413879,0.7037662421834414,300.0,160.7142857142859,[0.35110761]
-6.849516046104139e-17,-0.5042335841048723,6.120720915993628e-17,-0.5042335841048723,-1.4713391600545112e-17,0.20375276352293878,6.120720915993628e-17,0.20375276352293878,-9.129730725346185e-17,0.5438443674273737,-4.262006238395004e-17,-0.543844367427373,0.6960621180644787,0.1760541268791582,0.6960621180644788,300.0,147.85714285714297,[0.33665717]
3.170996878222032e-18,-0.4179365431997381,9.697620656110381e-17,-0.4179365431997381,-1.5806622449416633e-17,0.23310718153198104,9.697620656110381e-17,0.23310718153198104,-6.963573581945299e-17,0.47854980119474566,5.055234392745227e-17,-0.47854980119474533,0.6802256767282383,0.2731044808113201,0.6802256767282383,300.0,135.00000000000009,[0.95378124]
3.268141300232504e-17,-0.3280297931026978,4.130776450652597e-17,-0.3280297931026978,-1.6521775510069766e-17,0.22122622669151606,4.130776450652597e-17,0.22122622669151606,2.0368313423770992e-17,0.3956571603537139,6.006541158927671e-17,-0.39565716035371434,0.6466697011449464,0.40452020375033365,0.6466697011449464,300.0,122.14285714285697,[0.90918128]
-2.276124601985217e-17,-0.25224591997578316,1.0396359674600593e-16,-0.25224591997578316,-1.5080973940205667e-17,0.17025267161765537,1.0396359674600593e-16,0.17025267161765537,-3.30055668864111e-17,0.30432544477479745,6.119689127373757e-17,-0.3043254447747977,0.5669630103287163,0.5975833748005372,0.5669630103287164,300.0,109.2857142857147,[0.77608301]
1.1035594809491947e-17,-0.2058886886911154,9.47854748277918e-17,-0.2058886886911154,-8.218228202613842e-18,0.09013091929357363,9.47854748277918e-17,0.09013091929357363,-1.896076810759731e-17,0.22475260786841095,5.713161818426235e-17,-0.22475260786841095,0.3543088148241576,0.8654077232586966,0.3543088148241582,300.0,96.42857142857113,[1.0605476]
-2.092983422925465e-17,-0.19885924894575918,-3.704718098824451e-17,-0.19885924894575918,-6.453307192981383e-19,-0.00329913322928142,-3.704718098824451e-17,-0.00329913322928142,-6.433282856411488e-18,0.198886613856579,-5.208385441939266e-18,-0.19888661385657905,0.09081568922421565,0.9917182166227769,0.09081568922421591,300.0,83.57142857142887,[1.03126661]
-5.240382658068707e-17,-0.2333912675168117,-6.95769404289735e-17,-0.2333912675168117,-3.390134806870499e-18,-0.0914978856502488,-6.95769404289735e-17,-0.0914978856502488,-7.424651789521084e-17,0.25068575314837893,-2.4633729908456515e-17,-0.25068575314837893,0.4610349382431574,0.7582173642421121,0.461034938243158,300.0,70.71428571428521,[0.75834206]
-9.877991028272264e-17,-0.30338057552310427,-2.0509906065124756e-18,-0.30338057552310427,-6.2459057681529135e-18,-0.1569448804324934,-2.0509906065124756e-18,-0.1569448804324934,-1.7053127756483667e-16,0.34157205550029907,-1.615290811393139e-16,-0.3415720555002996,0.6092405999858871,0.5075941121187996,0.6092405999858873,300.0,57.85714285714325,[0.74545381]
-3.057587107518561e-17,-0.3954168524281521,6.428239784370935e-17,-0.3954168524281521,-4.93936178971137e-18,-0.1865748233132534,6.428239784370935e-17,-0.1865748233132534,-1.0187493889348781e-16,0.4372238006771348,-1.4207919017233377e-16,-0.4372238006771346,0.6655535161169953,0.33775291911189825,0.6655535161169954,300.0,44.99999999999968,[0.94932511]
8.69272326680054e-17,-0.4913024199884879,2.8117348019612655e-17,-0.4913024199884879,2.529743306313773e-18,-0.17434002455748016,2.8117348019612655e-17,-0.17434002455748016,8.432152109423476e-17,0.5213180526792137,6.793771644095361e-17,-0.5213180526792137,0.6900625858662423,0.21823669529937106,0.6900625858662421,300.0,32.142857142857316,[0.5362704]
6.9971115371632e-17,-0.5719141644629632,3.7652925648085123e-17,-0.5719141644629632,6.909856555684168e-18,-0.12248250497469768,3.7652925648085123e-17,-0.12248250497469768,8.107984659575375e-17,0.5848827023756521,6.601811687876981e-17,-0.5848827023756524,0.7015345698392452,0.1252936336807669,0.701534569839245,300.0,19.285714285714285,[0.3435951]
5.0399519152814944e-17,-0.6214307366206262,6.983165933780047e-17,-0.6214307366206262,-6.3162188085569116e-18,-0.041208923259688446,6.983165933780047e-17,-0.041208923259688446,2.912840426489132e-18,0.6227955810481294,-6.08284169359536e-18,-0.6227955810481293,0.7063593238668713,0.04596750126636246,0.7063593238668712,300.0,6.428571428571361,[0.33519143]
2.21740520096967e-17,-0.6303502467074227,6.857981081620761e-17,-0.6303502467074227,-1.1199893145069986e-17,0.05316664009529476,6.857981081620761e-17,0.05316664009529476,4.0206748182030315e-17,0.6325884326662412,5.1676253652064594e-17,-0.6325884326662414,0.7068285375172415,0.028050616793138586,0.7068285375172414,300.0,6.4285714285713045,[0.3423441]
8.593530414721141e-17,-0.5964800286300516,8.753335091621486e-17,-0.5964800286300516,-2.9171814703438104e-18,0.14111966907360352,8.753335091621486e-17,0.14111966907360352,4.7820939103136034e-17,0.6129463153930781,8.846688221805095e-17,-0.6129463153930776,0.7032653581599719,0.10409453407481446,0.7032653581599719,300.0,19.285714285714267,[0.34564038]
-8.86962080387868e-17,-0.525947426807428,-1.0999933812513868e-17,-0.525947426807428,-4.28895132842215e-18,0.20393962478490146,-1.0999933812513868e-17,0.20393962478490146,-1.0108554720003866e-16,0.5641028862918195,-1.0723260362084298e-16,-0.5641028862918195,0.6942357105575477,0.1899303987604767,0.6942357105575478,300.0,32.142857142857096,[0.51459474]
-3.337394515476669e-17,-0.433101350675762,2.5934209933570855e-17,-0.433101350675762,-1.330095837073428e-17,0.22870351184556903,2.5934209933570855e-17,0.22870351184556903,-3.509299852121929e-17,0.4897775783839699,6.488535239292187e-20,-0.4897775783839698,0.6756177617450029,0.2950953744628076,0.6756177617450029,300.0,45.00000000000003,[0.9696743]
2.5070396469538056e-16,-0.3374656182891708,1.4836955344139916e-16,-0.3374656182891708,-1.6530694998614925e-17,0.2116793154898809,1.4836955344139916e-16,0.2116793154898809,3.597857146757366e-17,0.3983606106702284,2.5256761840715515e-16,-0.3983606106702279,0.6368433833643417,0.434581419448779,0.6368433833643421,300.0,57.85714285714292,[1.22638131]
9.178703126331775e-17,-0.25815929888750583,8.179923895704621e-17,-0.25815929888750583,-1.3335686721571706e-17,0.15730291057116402,8.179923895704621e-17,0.15730291057116402,-2.304226078063236e-17,0.3023085001720069,8.717499165685735e-17,-0.3023085001720066,0.5467239086025509,0.6341813112389064,0.546723908602551,300.0,70.71428571428564,[0.75211969]
-8.612631007681726e-17,-0.21003461967238818,3.435746290309224e-17,-0.21003461967238818,-1.4829005807581036e-17,0.07524936959249388,3.435746290309224e-17,0.07524936959249388,-4.861969117239684e-17,0.2231076177206695,-3.1197256503166685e-17,-0.22310761772066975,0.31152404567288083,0.8977224169726419,0.31152404567288083,300.0,83.57142857142857,[1.06126967]
