stress_11,stress_12,stress_13,stress_21,stress_22,stress_23,stress_31,stress_32,stress_33,e1,e2,e3,anev1,anev2,anev3,temp,miss,velo
-3.096032477156556e-17,0.2650712530780472,-6.3913053014808e-18,0.2650712530780472,-1.64959666477775e-17,-0.10644382984654377,-6.3913053014808e-18,-0.10644382984654377,1.991670920526399e-17,0.285644986164235,1.1703817526643393e-17,-0.2856449861642351,0.03199073023501012,0.9989760689616453,0.03199073023501009,500.0,109.28571428571418,[0.966685]
-1.136311639400589e-16,0.2988255218753589,-4.0423257744282395e-17,0.2988255218753589,-1.335305089699042e-17,-0.014316463914532762,-4.0423257744282395e-17,-0.014316463914532762,-5.3446931938799103e-17,0.2991682698133222,-5.743779849277313e-17,-0.2991682698133222,0.04545486041062488,0.9979317167672853,0.04545486041062508,500.0,96.42857142857144,[0.95388502]
3.5787565537967816e-17,0.1973470233865746,-6.470624312162999e-17,0.1973470233865746,-5.955912168618613e-18,-0.17022082096917385,-6.470624312162999e-17,-0.17022082096917385,8.847047375834353e-18,0.2606165296579647,-4.3075226332156275e-17,-0.2606165296579646,0.10618176867516164,0.9886611472097144,0.10618176867516178,500.0,122.14285714285737,[0.94508173]
-1.2832125634429025e-17,0.10975237030843585,-3.4098628163257045e-17,0.10975237030843585,-6.633115009948427e-18,-0.19686405038226562,-3.4098628163257045e-17,-0.19686405038226562,-5.5218077831507845e-17,0.22539085412063908,-4.616530339927881e-17,-0.22539085412063917,0.19324581827797896,0.9619314463287643,0.19324581827797915,500.0,134.99999999999974,[0.90940618]
-9.207354015772651e-17,0.021031320237948754,3.644577631243341e-17,0.021031320237948754,-2.012507931028855e-17,-0.18012586915727447,3.644577631243341e-17,-0.18012586915727447,-9.89975051059384e-17,0.18134951108457584,-9.242957498915608e-17,-0.18134951108457598,0.30423029569049287,0.9027113904056772,0.30423029569049254,500.0,147.85714285714317,[0.42389889]
-1.1842367635562373e-16,-0.051566278716795984,3.747948738032868e-17,-0.051566278716795984,-1.2398021248961196e-17,-0.12440950726880408,3.747948738032868e-17,-0.12440950726880408,-1.3541886304668923e-16,0.134672961649935,-1.5265497584657554e-16,-0.13467296164993517,0.47130177709359483,0.7454859286511305,0.47130177709359466,500.0,160.7142857142859,[0.37342994]
-5.876905170463468e-17,-0.09526908449836162,-1.552587900387736e-17,-0.09526908449836162,-3.98290773666733e-18,-0.04185661912331692,-1.552587900387736e-17,-0.04185661912331692,-5.593000902367508e-17,0.10405851731401122,-4.5078191556208535e-17,-0.10405851731401138,0.6751553031284755,0.29720469934876975,0.6751553031284756,500.0,173.57142857142824,[0.26347132]
-2.0446316555534742e-18,-0.10206772486438713,-3.9336572375598006e-17,-0.10206772486438713,9.60510215895755e-18,0.05172414258432118,-3.9336572375598006e-17,0.05172414258432118,2.963630639588868e-17,0.11442555389892349,-5.549681019320278e-18,-0.11442555389892343,0.6625619395888918,0.3493184112187784,0.6625619395888918,500.0,173.57142857142824,[0.26599176]
5.854765846804609e-17,-0.06975291757835908,-8.864411551253067e-17,-0.06975291757835908,7.283728957668335e-18,0.13908903033130887,-8.864411551253067e-17,0.13908903033130887,1.1450751216822208e-16,0.15559957541457856,-1.0057030365410546e-18,-0.15559957541457844,0.507958588898476,0.6956695651877677,0.5079585888984759,500.0,160.7142857142859,[0.36511682]
8.145100584532874e-17,-0.004033584104868555,-7.385265295141157e-17,-0.004033584104868555,6.6091036111272374e-18,0.20375276352295724,-7.385265295141157e-17,0.20375276352295724,9.708337608126618e-17,0.20379268496188285,8.326672684688674e-17,-0.20379268496188266,0.38798009793422666,0.8360280421217318,0.3879800979342262,500.0,147.85714285714297,[0.81353771]
1.3941954193163665e-16,0.08226345680027128,-1.2048473954045526e-17,0.08226345680027128,-1.1308927957513664e-18,0.23310718153199195,-1.2048473954045526e-17,0.23310718153199195,7.412183158480674e-17,0.24719675241903796,1.2752180086762312e-16,-0.24719675241903788,0.30510862957458307,0.9021183117076385,0.30510862957458273,500.0,135.00000000000009,[0.91295464]
1.4410264647630154e-16,0.17217020689730803,-6.466899238691216e-17,0.17217020689730803,-8.0883397404127e-18,0.22122622669150874,-6.466899238691216e-17,0.22122622669150874,1.1493145918935806e-16,0.28032770736982937,2.058781334063433e-16,-0.28032770736982937,0.2414406803473671,0.9399004179948007,0.24144068034736652,500.0,122.14285714285697,[0.91596429]
8.953962537958364e-17,0.24795408002421968,5.446133087263188e-18,0.24795408002421968,-1.6761844985624948e-18,0.17025267161765595,5.446133087263188e-18,0.17025267161765595,3.578263099202363e-17,0.300777655409451,3.1081275451399525e-17,-0.300777655409451,0.18526402669171654,0.965067086179993,0.1852640266917165,500.0,109.2857142857147,[0.94642637]
1.4872536642265976e-16,0.294311311308888,-1.5558135842442055e-17,0.294311311308888,4.619532522190016e-18,0.09013091929357471,-1.5558135842442055e-17,0.09013091929357471,6.731189534519168e-17,0.30780307109751504,8.273170978129368e-17,-0.3078030710975152,0.13005255489939724,0.9829408252424344,0.1300525548993973,500.0,96.42857142857113,[0.94728237]
9.40384729612605e-17,0.30134075105424263,-9.230110475622082e-17,0.30134075105424263,7.928181081908971e-18,-0.0032991332292814316,-9.230110475622082e-17,-0.0032991332292814316,5.26575995955589e-17,0.30135881026775974,5.0641722429489923e-17,-0.3013588102677596,0.0714737006905151,0.9948783946891222,0.07147370069051553,500.0,83.57142857142887,[0.95111113]
-2.8437906976756555e-18,0.2668087324831928,-5.271918232620877e-17,0.2668087324831928,-3.1420954461133706e-18,-0.09149788565024905,-5.271918232620877e-17,-0.09149788565024905,-1.2002163833861439e-17,0.2820616294495833,-4.5187692832008127e-17,-0.28206162944958335,0.004407192819246687,0.999980576462817,0.004407192819246736,500.0,70.71428571428521,[0.91728889]
-1.0012481993195015e-17,0.19681942447690096,-3.366798834623671e-17,0.19681942447690096,-1.005734227256045e-17,-0.1569448804324929,-3.366798834623671e-17,-0.1569448804324929,3.321971939750771e-17,0.25173315503800453,-1.5654492437609574e-17,-0.2517331550380045,0.07914165606913172,0.9937168593463989,0.07914165606913122,500.0,57.85714285714325,[0.86772944]
5.860137888574773e-18,0.10478314757185,-1.2056914401618441e-17,0.10478314757185,1.1695043459744229e-18,-0.18657482331325284,-1.2056914401618441e-17,-0.18657482331325284,1.2637592606691254e-17,0.21398521610016807,-9.314736031016678e-18,-0.21398521610016805,0.19111524906261276,0.9627823861867597,0.19111524906261262,500.0,44.99999999999968,[0.81452699]
-1.3762194280293848e-17,0.008897580011512272,-4.156174736677945e-17,0.008897580011512272,1.6471548276094936e-18,-0.17434002455747974,-4.156174736677945e-17,-0.17434002455747974,-4.931778528727729e-17,0.17456692439509813,0.0,-0.1745669243950981,0.3451978505105405,0.8727410200086877,0.3451978505105411,500.0,32.142857142857316,[0.36038536]
-3.0966836337347576e-17,-0.0717141644629619,2.0308895386010083e-17,-0.0717141644629619,2.4374961244018594e-18,-0.12248250497469776,2.0308895386010083e-17,-0.12248250497469776,-3.088218598218135e-17,0.14193267914577537,-4.8533732953592774e-17,-0.14193267914577537,0.5387680868285627,0.6476556934283686,0.5387680868285627,500.0,19.285714285714285,[0.34759088]
9.848960297494103e-17,-0.12123073662062467,-5.0396806000405764e-18,-0.12123073662062467,7.983179648753374e-18,-0.04120892325968789,-5.0396806000405764e-18,-0.04120892325968789,1.5250304113677564e-16,0.12804322261565482,1.5057522531660296e-16,-0.12804322261565465,0.6907559066347143,0.2138049459168496,0.6907559066347141,500.0,6.428571428571361,[0.2105433]
9.48952186632674e-17,-0.13015024670742384,-8.071221444431068e-17,-0.13015024670742384,1.1199893145069986e-18,0.053166640095295765,-8.071221444431068e-17,0.053166640095295765,1.826320560101703e-16,0.14059081882194874,1.12417478472444e-16,-0.14059081882194868,0.6804192784653303,0.27213822036869106,0.6804192784653303,500.0,6.4285714285713045,[0.25176135]
-6.737300062460706e-18,-0.09628002863005776,-1.1080514439066333e-17,-0.09628002863005776,9.585024831129663e-18,0.1411196690736054,-1.1080514439066333e-17,0.1411196690736054,5.675480735606395e-17,0.17083502249962873,4.695302107528906e-18,-0.17083502249962876,0.5690710932078785,0.5935622812733127,0.5690710932078787,500.0,19.285714285714267,[0.34356305]
3.344340185644154e-17,-0.02574742680743467,6.467260003175624e-17,-0.02574742680743467,1.3405143423246559e-17,0.20393962478488437,6.467260003175624e-17,0.20393962478488437,4.455647412441796e-17,0.20555850881100407,3.5958668726430465e-17,-0.20555850881100396,0.44823448178410513,0.7734156054020823,0.4482344817841051,500.0,32.142857142857096,[0.65471752]
5.685031032086688e-17,0.06709864932425717,1.8988268450844672e-17,0.06709864932425717,-5.296073502707513e-18,0.2287035118455694,1.8988268450844672e-17,0.2287035118455694,4.189975528535485e-17,0.23834329248299835,2.3282612880184784e-17,-0.23834329248299835,0.339017013732073,0.8775733181907794,0.3390170137320734,500.0,45.00000000000003,[0.82290381]
1.3651714714192284e-16,0.1627343817108463,1.8207999732371364e-17,0.1627343817108463,-1.7468360471225436e-17,0.2116793154898968,1.8207999732371364e-17,0.2116793154898968,6.596650241569128e-17,0.2670030179550088,7.232668202688421e-17,-0.2670030179550086,0.2453767539629707,0.9378595295827575,0.24537675396297098,500.0,57.85714285714292,[0.84257424]
5.355111699131138e-17,0.24204070111254103,7.929581322910143e-17,0.24204070111254103,2.0316085239894394e-18,0.15730291057116805,7.929581322910143e-17,0.15730291057116805,1.297103903777873e-17,0.28866573518381305,-4.823258248841977e-17,-0.2886657351838132,0.16788031346309099,0.971407432904993,0.16788031346309046,500.0,70.71428571428564,[0.91006263]
-1.1606214849867874e-16,0.2901653803276636,-2.6054945215779095e-17,0.2901653803276636,2.0377323232445787e-52,0.07524936959250127,-2.6054945215779095e-17,0.07524936959250127,-7.548207054514609e-17,0.29976393306194543,-6.645872488169964e-17,-0.29976393306194554,0.09975227195267157,0.989999479030449,0.09975227195267167,500.0,83.57142857142857,[0.9460339]
