stress_11,stress_12,stress_13,stress_21,stress_22,stress_23,stress_31,stress_32,stress_33,e1,e2,e3,anev1,anev2,anev3,temp,miss,velo
1.2227852329857805e-16,0.5151712530780423,-3.643424541469442e-18,0.5151712530780423,-9.550296480292236e-18,-0.10644382984654142,-3.643424541469442e-18,-0.10644382984654142,1.1437782348306356e-16,0.5260529525726471,1.1308075922167183e-16,-0.526052952572647,0.09366168066964603,0.991188669804228,0.093661680669646,700.0,109.28571428571418,[1.50336655]
-1.0592147005415026e-17,0.5489255218753624,4.034037093818213e-17,0.5489255218753624,5.2439809764513734e-18,-0.014316463914534117,4.034037093818213e-17,-0.014316463914534117,-9.432220087444987e-17,0.5491121831694824,-9.21632782385783e-17,-0.5491121831694824,0.060824145097388954,0.9962935545040644,0.06082414509738886,700.0,96.42857142857144,[1.52212198]
1.607575360264464e-16,0.4474470233865701,-1.4488091424487309e-16,0.4474470233865701,-1.1529812478025536e-17,-0.1702208209691724,-1.4488091424487309e-16,-0.1702208209691724,1.660970199677007e-16,0.47873162275843123,7.441838267878039e-17,-0.4787316227584314,0.13873277929573422,0.980564343578616,0.1387327792957344,700.0,122.14285714285737,[1.50033186]
6.403907894421412e-17,0.35985237030843714,-5.741518865245689e-17,0.35985237030843714,-4.7056915384712655e-18,-0.19686405038226626,-5.741518865245689e-17,-0.19686405038226626,6.315350599785975e-17,0.41018188983609727,1.9512152751679175e-17,-0.4101818898360969,0.19867810350098133,0.9597155945271008,0.19867810350098114,700.0,134.99999999999974,[1.32529346]
-1.8857494504722488e-17,0.2711313202379467,7.591997334398677e-17,0.2711313202379467,-1.918741383767804e-18,-0.18012586915727402,7.591997334398677e-17,-0.18012586915727402,-5.08683518891202e-17,0.32551116962960797,-4.9040759379462775e-19,-0.3255111696296079,0.2905244785811643,0.9116967997587165,0.29052447858116426,700.0,147.85714285714317,[0.79168943]
-5.957648586160484e-17,0.19853372128319297,2.2729162992613688e-17,0.19853372128319297,-1.111307226797642e-17,-0.1244095072688022,2.2729162992613688e-17,-0.1244095072688022,-9.013309355468532e-17,0.23429332893921373,-5.849294236850194e-17,-0.23429332893921398,0.44154783588656643,0.7810704304016248,0.44154783588656676,700.0,160.7142857142859,[0.60039301]
5.1263386879895924e-17,0.1548309155016339,-9.904702013740582e-17,0.1548309155016339,-1.3531033695032229e-17,-0.041856619123316355,-9.904702013740582e-17,-0.041856619123316355,7.029018209495086e-17,0.16038886794135201,1.9062684763348994e-17,-0.16038886794135196,0.6576501733486099,0.36741325369274086,0.6576501733486099,700.0,173.57142857142824,[0.33100963]
5.997586189623524e-17,0.14803227513561865,-5.5016219292265305e-17,0.14803227513561865,-1.1946552688074652e-17,0.0517241425843205,-5.5016219292265305e-17,0.0517241425843205,7.755817476864599e-17,0.15680861394678108,1.1013688901583283e-16,-0.1568086139467811,0.6372188820518109,0.4334791721793346,0.6372188820518107,700.0,173.57142857142824,[0.33833219]
1.5744966060918155e-17,0.18034708242164582,-2.988822259708048e-17,0.18034708242164582,1.553958042354369e-18,0.13908903033130807,-2.988822259708048e-17,0.13908903033130807,2.10586750542853e-17,0.22775168165461143,6.597913810453752e-17,-0.2277516816546112,0.3858815755325116,0.8379682686886736,0.38588157553251146,700.0,160.7142857142859,[0.76046415]
1.4560566508217367e-16,0.24606641589513054,-3.875293937797958e-17,0.24606641589513054,6.586448788510635e-18,0.2037527635229381,-3.875293937797958e-17,0.2037527635229381,1.2663476080674771e-16,0.3194743646596855,1.5399701277171499e-16,-0.3194743646596851,0.22121797601843396,0.9498027238182754,0.22121797601843388,700.0,147.85714285714297,[0.81402239]
1.419240529205451e-16,0.3323634568002597,-8.972526435458008e-18,0.3323634568002597,-5.22247924360867e-18,0.2331071815319812,-8.972526435458008e-18,0.2331071815319812,9.847922516697594e-17,0.4059611132830364,1.3765530395007535e-16,-0.40596111328303613,0.12224850117488696,0.9849419312431508,0.12224850117488673,700.0,135.00000000000009,[1.33572009]
4.3412405582279543e-17,0.42227020689729683,-4.8299170368958694e-17,0.42227020689729683,-3.0384890581383604e-18,0.221226226691515,-4.8299170368958694e-17,0.221226226691515,5.2470722744775766e-17,0.47671078339938083,9.071334269661393e-17,-0.476710783399381,0.05539203466555486,0.9969270008336718,0.05539203466555461,700.0,122.14285714285697,[1.50430075]
3.9059898658672494e-17,0.49805408002421825,-1.0281587922584221e-16,0.49805408002421825,-1.2414265189185965e-17,0.17025267161765442,-1.0281587922584221e-16,0.17025267161765442,9.456663894931388e-17,0.5263495405352979,1.556540535555391e-16,-0.526349540535298,0.005102532761345233,0.9999739638204779,0.005102532761345263,700.0,109.2857142857147,[1.50886195]
1.5782780622621017e-17,0.5444113113088844,-7.719729953250945e-17,0.5444113113088844,-2.1159314991637934e-17,0.09013091929357467,-7.719729953250945e-17,0.09013091929357467,1.997033211905093e-17,0.5518217633382757,4.461540264517882e-17,-0.5518217633382757,0.036660295019063954,0.9986551184158775,0.03666029501906409,700.0,96.42857142857113,[1.52743476]
-8.92267141207931e-17,0.551440751054231,-2.041004085996396e-17,0.551440751054231,-1.4242905536990516e-17,-0.00329913322927757,-2.041004085996396e-17,-0.00329913322927757,-7.63792549359516e-17,0.5514506199138041,-7.662391898658653e-17,-0.5514506199138041,0.07496565435393426,0.9943642699406355,0.07496565435393429,700.0,83.57142857142887,[1.51090196]
-9.397793574813081e-17,0.516908732483186,-7.021292561001221e-17,0.516908732483186,-1.7721807059948035e-17,-0.09149788565024691,-7.021292561001221e-17,-0.09149788565024691,-2.2647564933907782e-17,0.5249442835157268,-4.996657086115225e-17,-0.524944283515727,0.1136350984583229,0.9870025981712178,0.11363509845832306,700.0,70.71428571428521,[1.46158168]
-1.6963985438360004e-18,0.4469194244769012,-5.06379692155259e-17,0.4469194244769012,-1.4901040004044604e-17,-0.15694488043249386,-5.06379692155259e-17,-0.15694488043249386,1.1399750734410761e-17,0.4736756986258998,-2.2237167812240708e-17,-0.4736756986259,0.15657529838459808,0.9751760619865255,0.15657529838459838,700.0,57.85714285714325,[1.3649906]
-7.93569948159283e-18,0.3548831475718479,6.130878704255536e-17,0.3548831475718479,5.135590537704875e-18,-0.18657482331325273,6.130878704255536e-17,-0.18657482331325273,-6.510792533580819e-17,0.4009391638701228,-4.40540571045078e-18,-0.4009391638701231,0.20989259646523148,0.9549294193280292,0.20989259646523126,700.0,44.99999999999968,[1.25821782]
3.2013027906325044e-17,0.2589975800115098,8.68404287481144e-17,0.2589975800115098,-8.081667081206388e-18,-0.17434002455748057,8.68404287481144e-17,-0.17434002455748057,-4.5252397717371074e-17,0.3122085690920755,4.286131652532189e-17,-0.31220856909207556,0.28660600635775213,0.914173940910219,0.28660600635775174,700.0,32.142857142857316,[0.74858692]
-6.849733098296873e-17,0.17838583553704243,1.904768648860558e-18,0.17838583553704243,-6.1393212714787706e-18,-0.12248250497469969,1.904768648860558e-18,-0.12248250497469969,-9.03479752254919e-17,0.2163873155827901,-1.0846740149709483e-16,-0.21638731558279042,0.4180213625850025,0.8065458950643513,0.41802136258500244,700.0,19.285714285714285,[0.71903934]
-6.049678715879664e-17,0.12886926337938423,-9.373534600834555e-17,0.12886926337938423,6.5093952600900955e-18,-0.04120892325968932,-9.373534600834555e-17,-0.04120892325968932,-2.5646887093439336e-17,0.13529768069027673,-8.296955398909779e-17,-0.1352976806902767,0.6451612018285974,0.4093092318897279,0.6451612018285976,700.0,6.428571428571361,[0.27290847]
3.8704747008311627e-17,0.11994975329258006,-5.420932776577698e-17,0.11994975329258006,-4.653599012215126e-18,0.053166640095294836,-5.420932776577698e-17,0.053166640095294836,4.3202068441758334e-17,0.13120455378520002,8.279229417810403e-17,-0.13120455378520005,0.610304450518369,0.5050316379742396,0.6103044505183687,700.0,6.4285714285713045,[0.27298763]
-8.508445955169448e-19,0.15381997136993833,7.527614227728979e-17,0.15381997136993833,-1.4221259667926076e-17,0.1411196690736054,7.527614227728979e-17,0.1411196690736054,-7.782623422667237e-17,0.20874708283397062,-1.2474839282811296e-16,-0.2087470828339705,0.3339258424570698,0.8814686968229064,0.3339258424570695,700.0,19.285714285714267,[0.72181544]
-6.001059024707267e-17,0.22435257319256083,9.068413480898854e-17,0.22435257319256083,-1.1599269179700389e-17,0.20393962478488545,9.068413480898854e-17,0.20393962478488545,-1.302486798157674e-16,0.30319209695426297,-2.1414897267610598e-16,-0.30319209695426314,0.18998703170368852,0.9632288697754255,0.18998703170368847,700.0,32.142857142857096,[0.7787397]
-2.854670438836443e-17,0.3171986493242544,9.016510875311357e-17,0.3171986493242544,-1.1078343917138994e-17,0.22870351184556598,9.016510875311357e-17,0.22870351184556598,-1.5330830477181846e-16,0.3910502262671974,-1.752841629615344e-16,-0.3910502262671976,0.11315060257530828,0.9871139155506264,0.11315060257530851,700.0,45.00000000000003,[1.26266836]
1.534993107014243e-17,0.41283438171083836,1.257205895382804e-16,0.41283438171083836,-1.1529812478025536e-17,0.21167931548989902,1.257205895382804e-16,0.21167931548989902,-1.245705944538482e-16,0.4639400385058856,-1.871085726190301e-16,-0.4639400385058851,0.061585886993058316,0.9961999583650648,0.06158588699305813,700.0,57.85714285714292,[1.31097518]
4.945317159249507e-17,0.492140701112518,1.3214191756688896e-16,0.492140701112518,6.077461396549605e-19,0.15730291057115295,1.3214191756688896e-16,0.15730291057115295,-4.8584962821559413e-17,0.5166688256181875,-1.1418840571835232e-16,-0.516668825618187,0.019253534861402417,0.999629232661131,0.01925353486140252,700.0,70.71428571428564,[1.47711044]
6.456000420677552e-17,0.5402653803276491,5.266364483827059e-17,0.5402653803276491,7.952792341770626e-18,0.07524936959247878,5.266364483827059e-17,0.07524936959247878,-8.444198506120208e-17,0.5454806585064633,-9.598548952247415e-17,-0.5454806585064633,0.018518541500350524,0.9996570047978453,0.018518541500350483,700.0,83.57142857142857,[1.54144084]
